LAMMPS (24 Dec 2020)
OMP_NUM_THREADS environment is not set. Defaulting to 1 thread. (src/comm.cpp:94)
  using 1 OpenMP thread(s) per MPI task
# Simple rigid body system
# needed variables:

#variable	startTemp equal 0.5
#variable 	temp 	  equal 0.8

units		lj
atom_style	full
dimension 	3
boundary	p p f
pair_style	lj/smooth/linear 2.5

variable 	sigma		equal 1.0
variable 	epsilon 	equal 1.0

region		box block 0 80 0 80 0 160
create_box 	3 box
Created orthogonal box = (0.0000000 0.0000000 0.0000000) to (80.000000 80.000000 160.00000)
  6 by 4 by 8 MPI processor grid



lattice 	sc 0.66
Lattice spacing in x,y,z = 1.1485556 1.1485556 1.1485556
region		fluid block EDGE EDGE EDGE EDGE 2 100 units box
create_atoms 	1 region fluid
Created 421400 atoms
  create_atoms CPU = 0.156 seconds

lattice 	sc 0.045
Lattice spacing in x,y,z = 2.8114422 2.8114422 2.8114422
region		gas block EDGE EDGE EDGE EDGE 101 158 units box
create_atoms    1 region gas
Created 17661 atoms
  create_atoms CPU = 0.004 seconds

group		solvent type 1
439061 atoms in group solvent

mass		1 1.0
mass		2 1.0
mass		3 1.0



neighbor 	0.4 bin

pair_coeff	1 1 1.0 1.0
pair_coeff	2 2 0.0 0.0
pair_coeff	3 3 0.0 0.0
pair_coeff	2 3 0.0 0.0
pair_coeff	1 2*3 0.0 0.0

pair_modify 	shift yes

delete_atoms	overlap 0.5 solvent solvent
System init for delete_atoms ...
Neighbor list info ...
  update every 1 steps, delay 10 steps, check yes
  max neighbors/atom: 2000, page size: 100000
  master list distance cutoff = 2.9
  ghost atom cutoff = 2.9
  binsize = 1.45, bins = 56 56 111
  2 neighbor lists, perpetual/occasional/extra = 1 1 0
  (1) command delete_atoms, occasional
      attributes: full, newton on
      pair build: full/bin
      stencil: full/bin/3d
      bin: standard
  (2) pair lj/smooth/linear, perpetual
      attributes: half, newton on
      pair build: half/bin/newton
      stencil: half/bin/3d/newton
      bin: standard
WARNING: Ignoring 'compress yes' for molecular system (src/delete_atoms.cpp:125)
Deleted 0 atoms, new total = 439061

velocity 	solvent create ${startTemp} 563435 loop geom
velocity 	solvent create .8 563435 loop geom

balance 	1.05 shift z 10 1.05
Balancing ...
Neighbor list info ...
  update every 1 steps, delay 10 steps, check yes
  max neighbors/atom: 2000, page size: 100000
  master list distance cutoff = 2.9
  ghost atom cutoff = 2.9
  binsize = 1.45, bins = 56 56 111
  1 neighbor lists, perpetual/occasional/extra = 1 0 0
  (1) pair lj/smooth/linear, perpetual
      attributes: half, newton on
      pair build: half/bin/newton
      stencil: half/bin/3d/newton
      bin: standard
 rebalancing time: 0.006 seconds
  iteration count = 5
  initial/final maximal load/proc = 3888.0000 2808.0000
  initial/final imbalance factor  = 1.7002102 1.2279296
  x cuts: 0.0000000 0.16666667 0.33333333 0.50000000 0.66666667 0.83333333 1.0000000
  y cuts: 0.0000000 0.25000000 0.50000000 0.75000000 1.0000000
  z cuts: 0.0000000 0.089843750 0.17578125 0.25390625 0.33593750 0.41406250 0.50390625 0.58203125 1.0000000


####################### WALLS ###########################


variable       epsilonWall equal 2*${epsilon}
variable       epsilonWall equal 2*1

variable       cutoffTop   equal   0.7147*${sigma}
variable       cutoffTop   equal   0.7147*1

variable       cutoffLow   equal   3*${sigma}
variable       cutoffLow   equal   3*1


fix            topWall all wall/lj93 zhi EDGE                ${epsilonWall} ${sigma} ${cutoffTop} units box
fix            topWall all wall/lj93 zhi EDGE                2 ${sigma} ${cutoffTop} units box
fix            topWall all wall/lj93 zhi EDGE                2 1 ${cutoffTop} units box
fix            topWall all wall/lj93 zhi EDGE                2 1 0.7147 units box

fix            lowWall all wall/lj93 zlo EDGE                ${epsilonWall} ${sigma} ${cutoffLow} units box
fix            lowWall all wall/lj93 zlo EDGE                2 ${sigma} ${cutoffLow} units box
fix            lowWall all wall/lj93 zlo EDGE                2 1 ${cutoffLow} units box
fix            lowWall all wall/lj93 zlo EDGE                2 1 3 units box


###################### COMPUTES ##########################

compute        bin1 solvent chunk/atom bin/1d z upper 1.0


######################	FIXES ############################


fix 		peclet solvent ave/chunk 1000 1 1000 bin1 density/number norm 		 none ave one file density.profile

fix 		 temp solvent ave/chunk 1000 1 1000 bin1 temp norm 		 none ave one file temp.profile

fix 		2 solvent nve


## Thermostat


region		regthermo block EDGE EDGE EDGE EDGE 0 20 units box

group 		thermo dynamic solvent region regthermo every 1000
dynamic group thermo defined

fix 		3 thermo langevin ${startTemp} ${temp} 10 156453
fix 		3 thermo langevin .8 ${temp} 10 156453
fix 		3 thermo langevin .8 .8 10 156453



#### Load balancing


fix 		bal all balance 1000 1.05 shift z 10 1.05


############### Diagnostics and computes ###################
#compute 	com cube	  rigid/local	1 mol x y z
#compute 	quat cube	  rigid/local	1 mol quatw quati quatj quatk

thermo 		1000
thermo_style 	custom step temp epair evdwl etotal press pe ke atoms

dump		1 all custom 100000 dump.lammpstrj id mol type x y z
dump 		2 all image 10000 image.*.png type type
dump 		3 all movie 1000 movie.avi type type

#dump 		com cube local 1000 dump.*.xyz c_com[*]
#dump		quat cube      local 1000 dump.*.quat c_quat[*]


restart 	1000000 restart.dat
timestep 	0.005
timer 		full
New timer settings: style=full  mode=nosync  timeout=off

run		3000000
Per MPI rank memory allocation (min/avg/max) = 9.982 | 10.06 | 10.45 Mbytes
Step Temp E_pair E_vdwl TotEng Press PotEng KinEng Atoms 
       0          0.8  -0.77633128  -0.77633128   0.42366599    4.1305875  -0.77633128    1.1999973   439061 
    1000    1.8465433   -2.8333156   -2.8333156 -0.063506884     2.046651   -2.8333156    2.7698087   439061 
    2000    1.7330652   -2.8482393   -2.8482393  -0.24864741    1.1882878   -2.8482393    2.5995919   439061 
    3000    1.5567566   -2.7468135   -2.7468135  -0.41168397    0.8507298   -2.7468135    2.3351295   439061 
    4000    1.4682622   -2.7266949   -2.7266949  -0.52430655   0.66955976   -2.7266949    2.2023883   439061 
    5000     1.414259   -2.6982442   -2.6982442  -0.57686056   0.53064019   -2.6982442    2.1213836   439061 
    6000    1.3764689   -2.6555627   -2.6555627  -0.59086402   0.43010538   -2.6555627    2.0646986   439061 
    7000    1.3521869   -2.6179286   -2.6179286  -0.58965295     0.406783   -2.6179286    2.0282757   439061 
    8000    1.3393882   -2.5902199   -2.5902199  -0.58114217   0.43035501   -2.5902199    2.0090778   439061 
    9000    1.3395401   -2.5814134   -2.5814134  -0.57210788   0.46993263   -2.5814134    2.0093055   439061 
   10000    1.3477907   -2.5868855   -2.5868855  -0.56520404   0.51552173   -2.5868855    2.0216814   439061 
   11000    1.3562503   -2.5956567   -2.5956567  -0.56128599   0.54546974   -2.5956567    2.0343707   439061 
   12000     1.362222   -2.6032825   -2.6032825  -0.55995412   0.55433135   -2.6032825    2.0433284   439061 
   13000    1.3554603   -2.5922068   -2.5922068  -0.55902101   0.54664022   -2.5922068    2.0331858   439061 
   14000    1.3375297   -2.5657848   -2.5657848  -0.55949484   0.49303493   -2.5657848    2.0062899   439061 
   15000    1.3158656   -2.5329734   -2.5329734  -0.55917942   0.44182217   -2.5329734    1.9737939   439061 
   16000    1.2960046   -2.5026233   -2.5026233  -0.55862083   0.41388568   -2.5026233    1.9440024   439061 
   17000    1.2816882   -2.4824197   -2.4824197   -0.5598917   0.40083298   -2.4824197     1.922528   439061 
   18000    1.2751612   -2.4791488   -2.4791488  -0.56641126   0.42023635   -2.4791488    1.9127375   439061 
   19000    1.2687908   -2.4969165   -2.4969165  -0.59373453   0.45462103   -2.4969165    1.9031819   439061 
   20000    1.2524654   -2.5157998   -2.5157998  -0.63710591    0.4828975   -2.5157998    1.8786939   439061 
   21000    1.2314248   -2.5284125   -2.5284125  -0.68127953   0.46663251   -2.5284125    1.8471329   439061 
   22000    1.2177799   -2.5407844   -2.5407844  -0.71411863   0.45154103   -2.5407844    1.8266658   439061 
   23000    1.2099537   -2.5546281   -2.5546281  -0.73970173   0.45584168   -2.5546281    1.8149264   439061 
   24000    1.2020102   -2.5673652   -2.5673652  -0.76435397   0.46425896   -2.5673652    1.8030113   439061 
   25000    1.1967922   -2.5790641   -2.5790641  -0.78387986    0.4611485   -2.5790641    1.7951843   439061 
   26000    1.1883003    -2.585751    -2.585751  -0.80330462   0.44850735    -2.585751    1.7824464   439061 
   27000    1.1779725   -2.5847316   -2.5847316  -0.81777683   0.43268702   -2.5847316    1.7669548   439061 
   28000    1.1677329   -2.5811965   -2.5811965  -0.82960121   0.41335232   -2.5811965    1.7515953   439061 
   29000    1.1561562   -2.5744571   -2.5744571  -0.84022672    0.3917342   -2.5744571    1.7342303   439061 
   30000    1.1460595    -2.566817    -2.566817  -0.84773163   0.36967298    -2.566817    1.7190854   439061 
   31000    1.1339582   -2.5538512   -2.5538512   -0.8529178   0.34390268   -2.5538512    1.7009334   439061 
   32000     1.121492   -2.5407842   -2.5407842  -0.85855003   0.31506441   -2.5407842    1.6822341   439061 
   33000    1.1084623   -2.5249472   -2.5249472  -0.86225753   0.29626093   -2.5249472    1.6626896   439061 
   34000    1.0976128   -2.5120571   -2.5120571  -0.86564172   0.28049758   -2.5120571    1.6464154   439061 
   35000    1.0929306   -2.5055317   -2.5055317  -0.86613958   0.26753239   -2.5055317    1.6393922   439061 
   36000    1.0916304    -2.504112    -2.504112  -0.86667014   0.26797322    -2.504112    1.6374419   439061 
   37000    1.0872135   -2.4985485   -2.4985485  -0.86773196   0.26469678   -2.4985485    1.6308166   439061 
   38000    1.0842221   -2.4937121   -2.4937121  -0.86738263   0.26141745   -2.4937121    1.6263294   439061 
   39000    1.0834964   -2.4932558   -2.4932558  -0.86801487   0.25858308   -2.4932558    1.6252409   439061 
   40000    1.0823031   -2.4915132   -2.4915132   -0.8680623   0.25369941   -2.4915132    1.6234509   439061 
   41000    1.0835009   -2.4921249   -2.4921249  -0.86687722   0.25846641   -2.4921249    1.6252477   439061 
   42000    1.0822872    -2.489758    -2.489758  -0.86633089   0.25970085    -2.489758    1.6234272   439061 
   43000    1.0823137   -2.4882589   -2.4882589  -0.86479211   0.25551128   -2.4882589    1.6234668   439061 
   44000    1.0814998    -2.487746    -2.487746  -0.86550006   0.24437807    -2.487746     1.622246   439061 
   45000    1.0782803   -2.4829964   -2.4829964  -0.86557967   0.24340421   -2.4829964    1.6174167   439061 
   46000     1.074461   -2.4778186   -2.4778186  -0.86613082   0.23454395   -2.4778186    1.6116878   439061 
   47000    1.0723572   -2.4745648   -2.4745648  -0.86603273   0.23132074   -2.4745648    1.6085321   439061 
   48000    1.0728169   -2.4754856   -2.4754856  -0.86626381   0.23177594   -2.4754856    1.6092217   439061 
   49000    1.0731543    -2.478366    -2.478366  -0.86863831   0.24148054    -2.478366    1.6097277   439061 
   50000    1.0739491    -2.487523    -2.487523  -0.87660295   0.25560975    -2.487523      1.61092   439061 
   51000    1.0718097    -2.497432    -2.497432   -0.8897211   0.26843647    -2.497432    1.6077109   439061 
   52000    1.0691733   -2.5074005   -2.5074005  -0.90364421    0.2721266   -2.5074005    1.6037563   439061 
   53000    1.0663559   -2.5152695   -2.5152695  -0.91573932   0.26501613   -2.5152695    1.5995302   439061 
   54000    1.0626449   -2.5204633   -2.5204633  -0.92649963   0.27260582   -2.5204633    1.5939637   439061 
   55000     1.061646   -2.5260582   -2.5260582  -0.93359281   0.27184998   -2.5260582    1.5924654   439061 
   56000    1.0606578   -2.5320728   -2.5320728  -0.94108979   0.26997685   -2.5320728     1.590983   439061 
   57000    1.0605046    -2.538282    -2.538282  -0.94752879   0.26575568    -2.538282    1.5907532   439061 
   58000    1.0574825   -2.5405469   -2.5405469  -0.95432678   0.27346018   -2.5405469    1.5862201   439061 
   59000    1.0542516    -2.542884    -2.542884  -0.96151023   0.27407782    -2.542884    1.5813738   439061 
   60000    1.0533001   -2.5470827   -2.5470827  -0.96713616    0.2606213   -2.5470827    1.5799465   439061 
   61000    1.0492607   -2.5451549   -2.5451549  -0.97126745   0.26335963   -2.5451549    1.5738875   439061 
   62000    1.0462769   -2.5446505   -2.5446505  -0.97523878   0.25384679   -2.5446505    1.5694117   439061 
   63000    1.0419141   -2.5408889   -2.5408889  -0.97802123   0.24416772   -2.5408889    1.5628676   439061 
   64000    1.0382928   -2.5374317   -2.5374317  -0.97999602   0.23144957   -2.5374317    1.5574356   439061 
   65000    1.0332043   -2.5326549   -2.5326549  -0.98285197   0.22107771   -2.5326549    1.5498029   439061 
   66000    1.0280935   -2.5268476   -2.5268476  -0.98471093   0.22009544   -2.5268476    1.5421367   439061 
   67000    1.0230076   -2.5207845   -2.5207845  -0.98627653    0.2146477   -2.5207845     1.534508   439061 
   68000    1.0208411   -2.5190698   -2.5190698  -0.98781166   0.20651847   -2.5190698    1.5312581   439061 
   69000    1.0166836   -2.5144073   -2.5144073  -0.98938528   0.20362516   -2.5144073     1.525022   439061 
   70000    1.0172355   -2.5151422   -2.5151422  -0.98929235   0.19775874   -2.5151422    1.5258498   439061 
   71000    1.0140619   -2.5126271   -2.5126271  -0.99153769   0.19874899   -2.5126271    1.5210894   439061 
   72000    1.0123813   -2.5091006   -2.5091006  -0.99053206   0.19308183   -2.5091006    1.5185685   439061 
   73000    1.0114399    -2.509019    -2.509019  -0.99186256   0.18952357    -2.509019    1.5171564   439061 
   74000    1.0102671   -2.5066197   -2.5066197  -0.99122248   0.18629446   -2.5066197    1.5153973   439061 
   75000    1.0083367   -2.5048292   -2.5048292  -0.99232757   0.18634229   -2.5048292    1.5125016   439061 
   76000    1.0113449   -2.5064008   -2.5064008  -0.98938691   0.18329792   -2.5064008    1.5170139   439061 
   77000    1.0110276   -2.5061865   -2.5061865  -0.98964854   0.17701857   -2.5061865    1.5165379   439061 
   78000    1.0082484   -2.5025077   -2.5025077  -0.99013852   0.17676539   -2.5025077    1.5123692   439061 
   79000    1.0088836   -2.5033178   -2.5033178   -0.9899959   0.17613826   -2.5033178    1.5133219   439061 
   80000    1.0072927   -2.5012951   -2.5012951   -0.9903595   0.17799341   -2.5012951    1.5109356   439061 
   81000    1.0086614   -2.5026296   -2.5026296  -0.98964103   0.17561957   -2.5026296    1.5129886   439061 
   82000    1.0078061     -2.50338     -2.50338  -0.99167426   0.17797024     -2.50338    1.5117057   439061 
   83000    1.0096585   -2.5077108   -2.5077108  -0.99322656   0.17950032   -2.5077108    1.5144843   439061 
   84000    1.0094147   -2.5106415   -2.5106415  -0.99652294   0.19788239   -2.5106415    1.5141186   439061 
   85000    1.0113778   -2.5200528   -2.5200528   -1.0029896   0.19514583   -2.5200528    1.5170632   439061 
   86000    1.0102979   -2.5249817   -2.5249817   -1.0095384    0.1974016   -2.5249817    1.5154433   439061 
   87000    1.0110063   -2.5328581   -2.5328581   -1.0163522   0.20148554   -2.5328581    1.5165059   439061 
   88000    1.0092188   -2.5360035   -2.5360035   -1.0221788   0.20876987   -2.5360035    1.5138247   439061 
   89000    1.0085999   -2.5414177   -2.5414177   -1.0285214   0.20617247   -2.5414177    1.5128963   439061 
   90000    1.0086163   -2.5464446   -2.5464446   -1.0335236   0.20610355   -2.5464446     1.512921   439061 
   91000    1.0060695   -2.5475389   -2.5475389   -1.0384381   0.20520604   -2.5475389    1.5091008   439061 
   92000    1.0064859   -2.5506037   -2.5506037   -1.0408783   0.20311644   -2.5506037    1.5097254   439061 
   93000    1.0067403   -2.5551288   -2.5551288   -1.0450218   0.20988481   -2.5551288     1.510107   439061 
   94000    1.0059654   -2.5569807   -2.5569807    -1.048036   0.20229803   -2.5569807    1.5089447   439061 
   95000    1.0032125   -2.5558735   -2.5558735   -1.0510582   0.20282287   -2.5558735    1.5048153   439061 
   96000    1.0024222   -2.5577847   -2.5577847   -1.0541548   0.19840797   -2.5577847    1.5036299   439061 
   97000   0.99980878    -2.556425    -2.556425   -1.0567152   0.19338459    -2.556425    1.4997098   439061 
   98000   0.99640198    -2.554068    -2.554068   -1.0594685   0.19340222    -2.554068    1.4945996   439061 
   99000    0.9952139   -2.5538593   -2.5538593   -1.0610419   0.19270324   -2.5538593    1.4928175   439061 
  100000   0.99336216   -2.5524856   -2.5524856   -1.0624458   0.18941584   -2.5524856    1.4900398   439061 
  101000   0.99075897   -2.5514108   -2.5514108   -1.0652758   0.18239127   -2.5514108    1.4861351   439061 
  102000    0.9878071   -2.5482692   -2.5482692   -1.0665619   0.18295023   -2.5482692    1.4817073   439061 
  103000    0.9853538   -2.5470775   -2.5470775   -1.0690502   0.17388132   -2.5470775    1.4780273   439061 
  104000   0.98327355   -2.5451193   -2.5451193   -1.0702123   0.17620297   -2.5451193     1.474907   439061 
  105000   0.98142967   -2.5438674   -2.5438674   -1.0717262   0.16612309   -2.5438674    1.4721411   439061 
  106000   0.98067083   -2.5417169   -2.5417169   -1.0707141   0.17022331   -2.5417169    1.4710029   439061 
  107000   0.98136816   -2.5431469   -2.5431469    -1.071098   0.16344201   -2.5431469    1.4720489   439061 
  108000   0.97819548   -2.5392885   -2.5392885   -1.0719986   0.15992202   -2.5392885    1.4672899   439061 
  109000   0.97747382    -2.539351    -2.539351   -1.0731436   0.16098644    -2.539351    1.4662074   439061 
  110000   0.97743081   -2.5387426   -2.5387426   -1.0725998   0.16244952   -2.5387426    1.4661429   439061 
  111000   0.97693447   -2.5379101   -2.5379101   -1.0725117   0.15890764   -2.5379101    1.4653984   439061 
  112000   0.97573293   -2.5368033   -2.5368033   -1.0732073   0.15525115   -2.5368033    1.4635961   439061 
  113000   0.97612122   -2.5372934   -2.5372934   -1.0731149   0.15667184   -2.5372934    1.4641785   439061 
  114000   0.97621607   -2.5372674   -2.5372674   -1.0729466   0.15503573   -2.5372674    1.4643208   439061 
  115000   0.97623305   -2.5383009   -2.5383009   -1.0739547    0.1567475   -2.5383009    1.4643462   439061 
  116000   0.97822931   -2.5420198   -2.5420198   -1.0746791    0.1538312   -2.5420198    1.4673406   439061 
  117000   0.97551073   -2.5406632   -2.5406632   -1.0774005    0.1591332   -2.5406632    1.4632628   439061 
  118000   0.97774076   -2.5456066   -2.5456066   -1.0789988   0.15363053   -2.5456066    1.4666078   439061 
  119000   0.97710366   -2.5474011   -2.5474011    -1.081749   0.15620844   -2.5474011    1.4656522   439061 
  120000   0.97881086   -2.5523473   -2.5523473   -1.0841344   0.16550239   -2.5523473    1.4682129   439061 
  121000   0.97759201   -2.5548944   -2.5548944   -1.0885098   0.16642702   -2.5548944    1.4663847   439061 
  122000   0.97718094   -2.5591655   -2.5591655   -1.0933974   0.17011878   -2.5591655    1.4657681   439061 
  123000   0.97710424   -2.5631917   -2.5631917   -1.0975387   0.16936025   -2.5631917     1.465653   439061 
  124000   0.97766507   -2.5683626   -2.5683626   -1.1018683   0.17588355   -2.5683626    1.4664943   439061 
  125000   0.97722675   -2.5719031   -2.5719031   -1.1060664   0.17101281   -2.5719031    1.4658368   439061 
  126000   0.97719338   -2.5744798   -2.5744798    -1.108693    0.1745428   -2.5744798    1.4657867   439061 
  127000    0.9772204   -2.5778704   -2.5778704   -1.1120431   0.17314987   -2.5778704    1.4658273   439061 
  128000   0.97642781   -2.5786638   -2.5786638   -1.1140254   0.17678058   -2.5786638    1.4646384   439061 
  129000   0.97543581    -2.579203    -2.579203   -1.1160527   0.17081741    -2.579203    1.4631504   439061 
  130000   0.97526225   -2.5804844   -2.5804844   -1.1175944   0.17379005   -2.5804844      1.46289   439061 
  131000   0.97238166   -2.5795678   -2.5795678   -1.1209987   0.17178128   -2.5795678    1.4585692   439061 
  132000   0.97286202   -2.5810087   -2.5810087    -1.121719   0.16881426   -2.5810087    1.4592897   439061 
  133000    0.9722699   -2.5823145   -2.5823145    -1.123913   0.16810296   -2.5823145    1.4584015   439061 
  134000   0.97131957   -2.5818036   -2.5818036   -1.1248276    0.1666673   -2.5818036     1.456976   439061 
  135000    0.9708233   -2.5824414   -2.5824414   -1.1262098   0.17027253   -2.5824414    1.4562316   439061 
  136000   0.96806792   -2.5802616   -2.5802616    -1.128163   0.16624019   -2.5802616    1.4520986   439061 
  137000   0.96623702   -2.5798686   -2.5798686   -1.1305164   0.15771738   -2.5798686    1.4493522   439061 
  138000   0.96447202   -2.5793221   -2.5793221   -1.1326174   0.15687335   -2.5793221    1.4467047   439061 
  139000   0.96124984    -2.576346    -2.576346   -1.1344745   0.15520103    -2.576346    1.4418715   439061 
  140000   0.96127947   -2.5775649   -2.5775649    -1.135649   0.14997291   -2.5775649    1.4419159   439061 
  141000   0.95955175   -2.5745119   -2.5745119   -1.1351875   0.15319021   -2.5745119    1.4393243   439061 
  142000   0.95923873   -2.5757461   -2.5757461   -1.1368913   0.14995196   -2.5757461    1.4388548   439061 
  143000   0.95995358   -2.5773156   -2.5773156   -1.1373886   0.14958647   -2.5773156    1.4399271   439061 
  144000   0.95744222   -2.5742832   -2.5742832   -1.1381231   0.14353145   -2.5742832    1.4361601   439061 
  145000   0.95629133   -2.5737945   -2.5737945   -1.1393607   0.14979878   -2.5737945    1.4344337   439061 
  146000   0.95603332   -2.5747779   -2.5747779   -1.1407312   0.14260022   -2.5747779    1.4340467   439061 
  147000   0.95680882   -2.5753199   -2.5753199     -1.14011   0.14087574   -2.5753199      1.43521   439061 
  148000   0.95412827   -2.5724347   -2.5724347   -1.1412456   0.14217341   -2.5724347    1.4311891   439061 
  149000   0.95498183    -2.574651    -2.574651   -1.1421815   0.13693087    -2.574651    1.4324695   439061 
  150000   0.95606184   -2.5757669   -2.5757669   -1.1416775   0.13902739   -2.5757669    1.4340895   439061 
  151000   0.95662782   -2.5772314   -2.5772314    -1.142293   0.14102915   -2.5772314    1.4349385   439061 
  152000   0.95540968   -2.5771579   -2.5771579   -1.1440466   0.14137102   -2.5771579    1.4331113   439061 
  153000    0.9556486   -2.5792234   -2.5792234   -1.1457538   0.13881016   -2.5792234    1.4334696   439061 
  154000   0.95472531   -2.5784937   -2.5784937    -1.146409   0.14194508   -2.5784937    1.4320847   439061 
  155000   0.95628954   -2.5820336   -2.5820336   -1.1476025   0.14078107   -2.5820336     1.434431   439061 
  156000   0.95570068   -2.5829068   -2.5829068    -1.149359   0.14197376   -2.5829068    1.4335478   439061 
  157000   0.95657606   -2.5850723   -2.5850723   -1.1502115   0.14766192   -2.5850723    1.4348608   439061 
  158000   0.95668961   -2.5885275   -2.5885275   -1.1534964   0.15242444   -2.5885275    1.4350312   439061 
  159000    0.9577174   -2.5916589   -2.5916589    -1.155086   0.15071119   -2.5916589    1.4365728   439061 
  160000   0.95661708   -2.5934085   -2.5934085   -1.1584861   0.14934878   -2.5934085    1.4349224   439061 
  161000   0.95716556   -2.5967519   -2.5967519   -1.1610068   0.15669495   -2.5967519    1.4357451   439061 
  162000   0.95529731   -2.5978396   -2.5978396   -1.1648969   0.15036402   -2.5978396    1.4329427   439061 
  163000   0.95469982   -2.5971172   -2.5971172   -1.1650708   0.15261051   -2.5971172    1.4320465   439061 
  164000   0.95554768   -2.6001431   -2.6001431   -1.1668248   0.14899885   -2.6001431    1.4333182   439061 
  165000   0.95577782   -2.6018823   -2.6018823   -1.1682188   0.15514945   -2.6018823    1.4336635   439061 
  166000    0.9551698   -2.6034225   -2.6034225   -1.1706711   0.15363137   -2.6034225    1.4327514   439061 
  167000   0.95532732   -2.6058959   -2.6058959   -1.1729081   0.15167905   -2.6058959    1.4329877   439061 
  168000   0.95273329    -2.605297    -2.605297   -1.1762003   0.15449136    -2.605297    1.4290967   439061 
  169000   0.95289798   -2.6078045   -2.6078045   -1.1784608   0.14926047   -2.6078045    1.4293437   439061 
  170000   0.95073544   -2.6059061   -2.6059061   -1.1798062   0.14801966   -2.6059061    1.4260999   439061 
  171000   0.94870187    -2.604205    -2.604205   -1.1811554   0.15051947    -2.604205    1.4230496   439061 
  172000   0.94746283   -2.6045079   -2.6045079   -1.1833169   0.14586866   -2.6045079     1.421191   439061 
  173000   0.94729177   -2.6046209   -2.6046209   -1.1836865   0.14809459   -2.6046209    1.4209344   439061 
  174000   0.94777624   -2.6068755   -2.6068755   -1.1852144   0.14394018   -2.6068755    1.4216611   439061 
  175000   0.94612429   -2.6049678   -2.6049678   -1.1857846   0.14393685   -2.6049678    1.4191832   439061 
  176000   0.94479212   -2.6048573   -2.6048573   -1.1876723   0.13918534   -2.6048573     1.417185   439061 
  177000   0.94508773   -2.6047366   -2.6047366   -1.1871082   0.14164561   -2.6047366    1.4176284   439061 
  178000   0.94352482   -2.6034256   -2.6034256   -1.1881416   0.14111736   -2.6034256     1.415284   439061 
  179000   0.94130449   -2.6019743   -2.6019743   -1.1900208   0.13358617   -2.6019743    1.4119535   439061 
  180000   0.94187826   -2.6021756   -2.6021756   -1.1893614   0.13675429   -2.6021756    1.4128142   439061 
  181000   0.94223536   -2.6024801   -2.6024801   -1.1891303   0.13074523   -2.6024801    1.4133498   439061 
  182000   0.94048601    -2.600451    -2.600451   -1.1897252   0.13696986    -2.600451    1.4107258   439061 
  183000   0.94122301   -2.6031642   -2.6031642   -1.1913329   0.12495636   -2.6031642    1.4118313   439061 
  184000    0.9399579   -2.6016662   -2.6016662   -1.1917325   0.13270588   -2.6016662    1.4099336   439061 
  185000   0.93968398   -2.6026866   -2.6026866   -1.1931638   0.13075454   -2.6026866    1.4095228   439061 
  186000   0.93992939   -2.6025659   -2.6025659   -1.1926751   0.13058547   -2.6025659    1.4098909   439061 
  187000    0.9409015   -2.6035733   -2.6035733   -1.1922243   0.13473279   -2.6035733     1.411349   439061 
  188000   0.93950734   -2.6032549   -2.6032549   -1.1939971   0.13227477   -2.6032549    1.4092578   439061 
  189000   0.94083568   -2.6053721   -2.6053721   -1.1941218   0.13314619   -2.6053721    1.4112503   439061 
  190000   0.94023325   -2.6054675   -2.6054675   -1.1951208     0.131746   -2.6054675    1.4103467   439061 
  191000   0.94060488   -2.6068497   -2.6068497   -1.1959456   0.13058608   -2.6068497    1.4109041   439061 
  192000   0.94032452   -2.6076012   -2.6076012   -1.1971177   0.13555618   -2.6076012    1.4104836   439061 
  193000   0.94121799   -2.6105109   -2.6105109   -1.1986871   0.13228122   -2.6105109    1.4118238   439061 
  194000   0.94064334   -2.6097497   -2.6097497   -1.1987879   0.13330954   -2.6097497    1.4109618   439061 
  195000   0.94164189   -2.6124999   -2.6124999   -1.2000403   0.13323034   -2.6124999    1.4124596   439061 
  196000   0.94144787   -2.6132435   -2.6132435    -1.201075   0.13586079   -2.6132435    1.4121686   439061 
  197000   0.94173224   -2.6132156   -2.6132156   -1.2006204   0.14348052   -2.6132156    1.4125951   439061 
  198000    0.9425287   -2.6164689   -2.6164689   -1.2026791   0.14324497   -2.6164689    1.4137898   439061 
  199000   0.94228695   -2.6192089   -2.6192089   -1.2057817   0.13417614   -2.6192089    1.4134272   439061 
  200000    0.9420204   -2.6212264   -2.6212264    -1.208199    0.1402325   -2.6212264    1.4130274   439061 
  201000   0.94101504   -2.6223127   -2.6223127   -1.2107934   0.13702807   -2.6223127    1.4115193   439061 
  202000   0.93883649   -2.6221859   -2.6221859   -1.2139344   0.13298179   -2.6221859    1.4082515   439061 
  203000   0.93793759   -2.6219888   -2.6219888   -1.2150856   0.13510409   -2.6219888    1.4069032   439061 
  204000     0.938077   -2.6237056   -2.6237056   -1.2165933    0.1325277   -2.6237056    1.4071123   439061 
  205000   0.93700071   -2.6239115   -2.6239115   -1.2184136   0.13448781   -2.6239115    1.4054979   439061 
  206000   0.93707768   -2.6241709   -2.6241709   -1.2185576   0.13588148   -2.6241709    1.4056133   439061 
  207000   0.93809343   -2.6275431   -2.6275431   -1.2204062    0.1315514   -2.6275431    1.4071369   439061 
  208000   0.93638706   -2.6261027   -2.6261027   -1.2215253   0.13319162   -2.6261027    1.4045774   439061 
  209000   0.93551851   -2.6266698   -2.6266698   -1.2233952   0.13116599   -2.6266698    1.4032746   439061 
  210000   0.93538172   -2.6271695   -2.6271695   -1.2241001   0.13652061   -2.6271695    1.4030694   439061 
  211000   0.93475764    -2.627982    -2.627982   -1.2258487   0.13067868    -2.627982    1.4021333   439061 
  212000   0.93396336   -2.6278036   -2.6278036   -1.2268617   0.13060296   -2.6278036    1.4009418   439061 
  213000    0.9343124   -2.6293291   -2.6293291   -1.2278637   0.12901839   -2.6293291    1.4014654   439061 
  214000   0.93259933   -2.6274228   -2.6274228    -1.228527   0.12482363   -2.6274228    1.3988958   439061 
  215000    0.9317619   -2.6268518   -2.6268518   -1.2292122    0.1296648   -2.6268518    1.3976397   439061 
  216000   0.93293329   -2.6294126   -2.6294126   -1.2300158   0.12067438   -2.6294126    1.3993968   439061 
  217000   0.93188761   -2.6273003   -2.6273003   -1.2294721   0.12675438   -2.6273003    1.3978282   439061 
  218000   0.93063966   -2.6274523   -2.6274523    -1.231496   0.12297372   -2.6274523    1.3959563   439061 
  219000   0.92909866   -2.6260448   -2.6260448   -1.2323999   0.12482294   -2.6260448    1.3936448   439061 
  220000   0.92890854   -2.6266606   -2.6266606   -1.2333009   0.12072675   -2.6266606    1.3933596   439061 
  221000   0.92940573   -2.6288677   -2.6288677   -1.2347623   0.12633575   -2.6288677    1.3941054   439061 
  222000    0.9290148   -2.6274104   -2.6274104   -1.2338914   0.12234025   -2.6274104     1.393519   439061 
  223000   0.92852629   -2.6281102   -2.6281102   -1.2353239   0.12168346   -2.6281102    1.3927863   439061 
  224000   0.92824166   -2.6287871   -2.6287871   -1.2364278   0.12401213   -2.6287871    1.3923593   439061 
  225000   0.93028456   -2.6326127   -2.6326127   -1.2371891   0.12205018   -2.6326127    1.3954237   439061 
  226000   0.92907704   -2.6332284   -2.6332284    -1.239616   0.12234439   -2.6332284    1.3936124   439061 
  227000   0.93005654    -2.634865    -2.634865   -1.2397833   0.12518121    -2.634865    1.3950816   439061 
  228000   0.92897277   -2.6339028   -2.6339028   -1.2404468    0.1213346   -2.6339028     1.393456   439061 
  229000   0.93026909   -2.6368717   -2.6368717   -1.2414713   0.12429871   -2.6368717    1.3954005   439061 
  230000   0.92886745   -2.6351307   -2.6351307   -1.2418327   0.12312736   -2.6351307     1.393298   439061 
  231000   0.92958429   -2.6366777   -2.6366777   -1.2423044   0.12624266   -2.6366777    1.3943733   439061 
  232000   0.92888177   -2.6379284   -2.6379284   -1.2446089   0.12416296   -2.6379284    1.3933195   439061 
  233000   0.92860468   -2.6392349   -2.6392349    -1.246331   0.12642538   -2.6392349    1.3929038   439061 
  234000   0.92854218   -2.6411337   -2.6411337   -1.2483236   0.12427998   -2.6411337    1.3928101   439061 
  235000   0.93093562   -2.6444852   -2.6444852   -1.2480849    0.1271244   -2.6444852    1.3964002   439061 
  236000   0.92875786   -2.6437079   -2.6437079   -1.2505743   0.12855224   -2.6437079    1.3931336   439061 
  237000   0.92773766   -2.6429392   -2.6429392   -1.2513359   0.12436277   -2.6429392    1.3916033   439061 
  238000   0.92757838   -2.6447622   -2.6447622   -1.2533978   0.12543358   -2.6447622    1.3913644   439061 
  239000   0.92732005   -2.6461567   -2.6461567   -1.2551798   0.12615008   -2.6461567    1.3909769   439061 
  240000   0.92733353   -2.6470362   -2.6470362    -1.256039   0.12717233   -2.6470362    1.3909971   439061 
  241000   0.92756603   -2.6483232   -2.6483232   -1.2569773   0.13174264   -2.6483232    1.3913459   439061 
  242000   0.92579285   -2.6479475   -2.6479475   -1.2592614   0.12764126   -2.6479475    1.3886861   439061 
  243000   0.92542441   -2.6493638   -2.6493638   -1.2612303   0.12596348   -2.6493638    1.3881335   439061 
  244000   0.92478242   -2.6505098   -2.6505098   -1.2633393   0.12352679   -2.6505098    1.3871705   439061 
  245000   0.92470174   -2.6506605   -2.6506605    -1.263611    0.1245786   -2.6506605    1.3870494   439061 
  246000   0.92377229   -2.6509713   -2.6509713    -1.265316   0.11881549   -2.6509713    1.3856553   439061 
  247000   0.92294259   -2.6505709   -2.6505709   -1.2661602    0.1215592   -2.6505709    1.3844107   439061 
  248000   0.92300544   -2.6518536   -2.6518536   -1.2673486   0.12400866   -2.6518536     1.384505   439061 
  249000   0.92255407   -2.6509964   -2.6509964   -1.2671684   0.12157065   -2.6509964     1.383828   439061 
  250000   0.92275684   -2.6510782   -2.6510782   -1.2669461   0.12383643   -2.6510782    1.3841321   439061 
  251000   0.92284179   -2.6517674   -2.6517674   -1.2675079   0.12707332   -2.6517674    1.3842595   439061 
  252000   0.92326922   -2.6535935   -2.6535935   -1.2686928    0.1174735   -2.6535935    1.3849007   439061 
  253000   0.92263646   -2.6517863   -2.6517863   -1.2678347   0.12502109   -2.6517863    1.3839515   439061 
  254000   0.92121577   -2.6518787   -2.6518787   -1.2700582   0.11675007   -2.6518787    1.3818205   439061 
  255000   0.92222285   -2.6532203   -2.6532203   -1.2698892   0.11737577   -2.6532203    1.3833311   439061 
  256000   0.92018272   -2.6506817   -2.6506817   -1.2704108   0.11526536   -2.6506817    1.3802709   439061 
  257000    0.9225949    -2.653179    -2.653179   -1.2692898   0.11674367    -2.653179    1.3838892   439061 
  258000    0.9205425   -2.6508135   -2.6508135   -1.2700029   0.12258562   -2.6508135    1.3808106   439061 
  259000   0.92046814   -2.6522399   -2.6522399   -1.2715408   0.11640419   -2.6522399    1.3806991   439061 
  260000   0.92034847   -2.6527422   -2.6527422   -1.2722226   0.11367675   -2.6527422    1.3805196   439061 
  261000   0.91968571   -2.6526708   -2.6526708   -1.2731454   0.11386214   -2.6526708    1.3795254   439061 
  262000   0.91897984   -2.6509291   -2.6509291   -1.2724625   0.12452203   -2.6509291    1.3784666   439061 
  263000   0.91942576    -2.652018    -2.652018   -1.2728825   0.11668177    -2.652018    1.3791355   439061 
  264000   0.91985902   -2.6543032   -2.6543032   -1.2745178   0.11769667   -2.6543032    1.3797854   439061 
  265000   0.91981126   -2.6553671   -2.6553671   -1.2756533   0.11401113   -2.6553671    1.3797137   439061 
  266000   0.91960938   -2.6573071   -2.6573071   -1.2778962   0.11898621   -2.6573071    1.3794109   439061 
  267000    0.9198055   -2.6573841   -2.6573841    -1.277679   0.11776875   -2.6573841    1.3797051   439061 
  268000   0.91828554   -2.6572569   -2.6572569   -1.2798317   0.11654788   -2.6572569    1.3774252   439061 
  269000   0.91786003   -2.6587099   -2.6587099    -1.281923   0.11373058   -2.6587099    1.3767869   439061 
  270000   0.91617626   -2.6578526   -2.6578526   -1.2835913   0.12085911   -2.6578526    1.3742613   439061 
  271000   0.91747585   -2.6613854   -2.6613854   -1.2851748   0.11812296   -2.6613854    1.3762106   439061 
  272000   0.91886666   -2.6640988   -2.6640988    -1.285802   0.11631677   -2.6640988    1.3782969   439061 
  273000   0.91837973   -2.6654391   -2.6654391   -1.2878726   0.11294401   -2.6654391    1.3775665   439061 
  274000   0.91798934   -2.6657093   -2.6657093   -1.2887284   0.11753429   -2.6657093    1.3769809   439061 
  275000   0.91789306   -2.6664266   -2.6664266   -1.2895901   0.11828695   -2.6664266    1.3768365   439061 
  276000   0.91748832   -2.6666358   -2.6666358   -1.2904064    0.1163185   -2.6666358    1.3762294   439061 
  277000   0.91777766   -2.6673583   -2.6673583   -1.2906949   0.12097098   -2.6673583    1.3766634   439061 
  278000   0.91903175   -2.6688108   -2.6688108   -1.2902663   0.12244325   -2.6688108    1.3785445   439061 
  279000   0.91782328   -2.6682983   -2.6682983   -1.2915665   0.11186088   -2.6682983    1.3767318   439061 
  280000   0.91770645   -2.6690731   -2.6690731   -1.2925165     0.120664   -2.6690731    1.3765565   439061 
  281000   0.91546608   -2.6685114   -2.6685114   -1.2953154   0.11372734   -2.6685114     1.373196   439061 
  282000   0.91549023    -2.669543    -2.669543   -1.2963107   0.11605338    -2.669543    1.3732322   439061 
  283000   0.91671686   -2.6710272   -2.6710272    -1.295955   0.11180391   -2.6710272    1.3750722   439061 
  284000   0.91558556   -2.6712792   -2.6712792    -1.297904   0.11686794   -2.6712792    1.3733752   439061 
  285000   0.91467135    -2.668974    -2.668974   -1.2969701   0.11451243    -2.668974    1.3720039   439061 
  286000   0.91423458   -2.6704234   -2.6704234   -1.2990746   0.11597375   -2.6704234    1.3713487   439061 
  287000   0.91514567   -2.6724833   -2.6724833   -1.2997679   0.11123149   -2.6724833    1.3727154   439061 
  288000   0.91497735   -2.6717827   -2.6717827   -1.2993198   0.11778981   -2.6717827    1.3724629   439061 
  289000   0.91570459   -2.6743801   -2.6743801   -1.3008263   0.11533858   -2.6743801    1.3735538   439061 
  290000   0.91287559   -2.6723086   -2.6723086   -1.3029983   0.10928187   -2.6723086    1.3693103   439061 
  291000   0.91330094   -2.6724885   -2.6724885   -1.3025402   0.10956916   -2.6724885    1.3699483   439061 
  292000   0.91378655   -2.6740092   -2.6740092   -1.3033325   0.10675795   -2.6740092    1.3706767   439061 
  293000   0.91234604   -2.6724754   -2.6724754   -1.3039595   0.11648978   -2.6724754    1.3685159   439061 
  294000    0.9129748   -2.6735176   -2.6735176   -1.3040586     0.110042   -2.6735176    1.3694591   439061 
  295000   0.91232861   -2.6735111   -2.6735111   -1.3050213   0.11209863   -2.6735111    1.3684898   439061 
  296000   0.91212232   -2.6742687   -2.6742687   -1.3060883   0.10892455   -2.6742687    1.3681804   439061 
  297000   0.91209626   -2.6762001   -2.6762001   -1.3080588   0.11220235   -2.6762001    1.3681413   439061 
  298000   0.91321894   -2.6781614   -2.6781614   -1.3083361   0.10794273   -2.6781614    1.3698253   439061 
  299000   0.91149938   -2.6774162   -2.6774162   -1.3101702   0.11184418   -2.6774162     1.367246   439061 
  300000   0.91063962   -2.6766295   -2.6766295   -1.3106732    0.1154213   -2.6766295    1.3659563   439061 
  301000   0.91121794   -2.6776159   -2.6776159   -1.3107921   0.11748672   -2.6776159    1.3668238   439061 
  302000   0.91106577   -2.6785469   -2.6785469   -1.3119514   0.11284195   -2.6785469    1.3665955   439061 
  303000   0.91145189   -2.6802015   -2.6802015   -1.3130268   0.10976629   -2.6802015    1.3671747   439061 
  304000   0.91101785     -2.68122     -2.68122   -1.3146963   0.11345242     -2.68122    1.3665237   439061 
  305000   0.91063594   -2.6807932   -2.6807932   -1.3148424   0.11135197   -2.6807932    1.3659508   439061 
  306000   0.91172329   -2.6840598   -2.6840598    -1.316478   0.11226653   -2.6840598    1.3675818   439061 
  307000    0.9101195   -2.6821113   -2.6821113   -1.3169352    0.1134952   -2.6821113    1.3651761   439061 
  308000   0.91007295   -2.6837868   -2.6837868   -1.3186804   0.11121534   -2.6837868    1.3651063   439061 
  309000    0.9093444     -2.68503     -2.68503   -1.3210165   0.10654069     -2.68503    1.3640135   439061 
  310000   0.90983701   -2.6860217   -2.6860217   -1.3212693   0.11021089   -2.6860217    1.3647524   439061 
  311000   0.90922418   -2.6871122   -2.6871122    -1.323279   0.10714055   -2.6871122    1.3638332   439061 
  312000   0.90817917   -2.6843871   -2.6843871   -1.3221214   0.11351353   -2.6843871    1.3622656   439061 
  313000   0.90916019   -2.6873057   -2.6873057   -1.3235685   0.10971266   -2.6873057    1.3637372   439061 
  314000   0.90784696   -2.6861492   -2.6861492   -1.3243819   0.11455783   -2.6861492    1.3617673   439061 
  315000   0.90944431   -2.6883829   -2.6883829   -1.3242196    0.1120516   -2.6883829    1.3641634   439061 
  316000   0.90796138   -2.6873602   -2.6873602   -1.3254213   0.10874849   -2.6873602     1.361939   439061 
  317000   0.90928333   -2.6910987   -2.6910987   -1.3271768   0.11147875   -2.6910987    1.3639219   439061 
  318000   0.90746617   -2.6898752   -2.6898752    -1.328679   0.10807269   -2.6898752    1.3611962   439061 
  319000   0.90694003   -2.6897379   -2.6897379    -1.329331    0.1048251   -2.6897379     1.360407   439061 
  320000   0.90795098   -2.6921218   -2.6921218   -1.3301984   0.10446042   -2.6921218    1.3619234   439061 
  321000   0.90731377   -2.6910498   -2.6910498   -1.3300822    0.1046617   -2.6910498    1.3609676   439061 
  322000   0.90726692   -2.6908881   -2.6908881   -1.3299908   0.10722908   -2.6908881    1.3608973   439061 
  323000   0.90692876   -2.6902938   -2.6902938   -1.3299038   0.10880539   -2.6902938      1.36039   439061 
  324000    0.9070319   -2.6909673   -2.6909673   -1.3304225   0.10770718   -2.6909673    1.3605448   439061 
  325000   0.90717754   -2.6921874   -2.6921874   -1.3314242   0.10831703   -2.6921874    1.3607632   439061 
  326000   0.90650084   -2.6928815   -2.6928815   -1.3331334   0.11089949   -2.6928815    1.3597482   439061 
  327000   0.90488285   -2.6911839   -2.6911839   -1.3338627   0.11091873   -2.6911839    1.3573212   439061 
  328000   0.90577652    -2.694986    -2.694986   -1.3363243   0.10325349    -2.694986    1.3586617   439061 
  329000   0.90425455   -2.6936142   -2.6936142   -1.3372355    0.1053668   -2.6936142    1.3563787   439061 
  330000   0.90499273   -2.6968451   -2.6968451   -1.3393591   0.10601975   -2.6968451     1.357486   439061 
  331000    0.9047025   -2.6962466   -2.6962466    -1.339196   0.10791657   -2.6962466    1.3570507   439061 
  332000   0.90554443   -2.6980074   -2.6980074   -1.3396939   0.10606188   -2.6980074    1.3583136   439061 
  333000   0.90335856   -2.6964898   -2.6964898    -1.341455   0.11040824   -2.6964898    1.3550348   439061 
  334000   0.90355296   -2.6968209   -2.6968209   -1.3414945   0.11010556   -2.6968209    1.3553264   439061 
  335000   0.90512437   -2.6998109   -2.6998109   -1.3421275    0.1055896   -2.6998109    1.3576835   439061 
  336000   0.90555643    -2.700669    -2.700669   -1.3423374   0.10789306    -2.700669    1.3583316   439061 
  337000   0.90503684   -2.7021144   -2.7021144   -1.3445622   0.10793616   -2.7021144    1.3575522   439061 
  338000   0.90478807   -2.7015095   -2.7015095   -1.3443305   0.10862643   -2.7015095     1.357179   439061 
  339000   0.90312612   -2.7006895   -2.7006895   -1.3460034   0.11351484   -2.7006895    1.3546861   439061 
  340000   0.90379444   -2.7010378   -2.7010378   -1.3453492   0.10875487   -2.7010378    1.3556886   439061 
  341000   0.90362841   -2.7016787   -2.7016787   -1.3462391   0.10248425   -2.7016787    1.3554395   439061 
  342000   0.90379479    -2.702888    -2.702888   -1.3471989   0.10231262    -2.702888    1.3556891   439061 
  343000   0.90437649   -2.7042514   -2.7042514   -1.3476898   0.10285524   -2.7042514    1.3565617   439061 
  344000   0.90383559   -2.7039029   -2.7039029   -1.3481527   0.10350527   -2.7039029    1.3557503   439061 
  345000   0.90223366   -2.7021142   -2.7021142   -1.3487668   0.10385341   -2.7021142    1.3533474   439061 
  346000   0.90278286   -2.7035356   -2.7035356   -1.3493644   0.10780845   -2.7035356    1.3541712   439061 
  347000   0.90295757   -2.7042447   -2.7042447   -1.3498114   0.10131832   -2.7042447    1.3544333   439061 
  348000   0.90203841   -2.7033416   -2.7033416   -1.3502871   0.10116751   -2.7033416    1.3530545   439061 
  349000   0.90121064   -2.7033918   -2.7033918   -1.3515789   0.10266759   -2.7033918    1.3518129   439061 
  350000   0.90274794   -2.7062127   -2.7062127   -1.3520938   0.10449845   -2.7062127    1.3541188   439061 
  351000   0.90117284    -2.705025    -2.705025   -1.3532688  0.098973815    -2.705025    1.3517562   439061 
  352000   0.90088407   -2.7051588   -2.7051588   -1.3538358  0.098897755   -2.7051588     1.351323   439061 
  353000   0.90200671   -2.7065068   -2.7065068   -1.3534998   0.10536608   -2.7065068     1.353007   439061 
  354000   0.90099385    -2.707275    -2.707275   -1.3557873   0.10524755    -2.707275    1.3514877   439061 
  355000   0.90067896   -2.7093389   -2.7093389   -1.3583236   0.10590313   -2.7093389    1.3510154   439061 
  356000   0.90138018   -2.7089936   -2.7089936   -1.3569265   0.10134636   -2.7089936    1.3520672   439061 
  357000   0.90071969    -2.710321    -2.710321   -1.3592446   0.09980002    -2.710321    1.3510765   439061 
  358000   0.90055692   -2.7096672   -2.7096672   -1.3588349   0.10380951   -2.7096672    1.3508323   439061 
  359000   0.90132149   -2.7115499   -2.7115499   -1.3595708   0.10608987   -2.7115499    1.3519792   439061 
  360000   0.90104417   -2.7113084   -2.7113084   -1.3597453   0.10432552   -2.7113084    1.3515632   439061 
  361000   0.90132994   -2.7125328   -2.7125328    -1.360541   0.10899886   -2.7125328    1.3519918   439061 
  362000   0.89967448   -2.7118588   -2.7118588   -1.3623501   0.10608423   -2.7118588    1.3495086   439061 
  363000   0.90011234   -2.7143772   -2.7143772   -1.3642118  0.098174169   -2.7143772    1.3501654   439061 
  364000   0.90050768   -2.7159094   -2.7159094    -1.365151  0.098439234   -2.7159094    1.3507584   439061 
  365000   0.89942242   -2.7136156   -2.7136156    -1.364485    0.1007273   -2.7136156    1.3491306   439061 
  366000   0.89980689   -2.7146755   -2.7146755   -1.3649683   0.10232637   -2.7146755    1.3497073   439061 
  367000    0.8977029   -2.7121471   -2.7121471   -1.3655958   0.10000833   -2.7121471    1.3465513   439061 
  368000   0.89936346   -2.7140355   -2.7140355   -1.3649934   0.10232348   -2.7140355    1.3490421   439061 
  369000   0.89823939   -2.7123169   -2.7123169   -1.3649609   0.10410421   -2.7123169     1.347356   439061 
  370000   0.89850015   -2.7141313   -2.7141313   -1.3663842    0.1014655   -2.7141313    1.3477472   439061 
  371000   0.89901492   -2.7156233   -2.7156233   -1.3671039   0.10382087   -2.7156233    1.3485193   439061 
  372000   0.89761079   -2.7140614   -2.7140614   -1.3676482   0.10183832   -2.7140614    1.3464131   439061 
  373000   0.89791958   -2.7158682   -2.7158682   -1.3689919  0.098722339   -2.7158682    1.3468763   439061 
  374000   0.89753664   -2.7167977   -2.7167977   -1.3704958    0.0948751   -2.7167977    1.3463019   439061 
  375000    0.8987777   -2.7188817   -2.7188817   -1.3707183   0.09887346   -2.7188817    1.3481635   439061 
  376000   0.89835392   -2.7190154   -2.7190154   -1.3714875    0.1002139   -2.7190154    1.3475278   439061 
  377000   0.89642472   -2.7166745   -2.7166745   -1.3720405    0.1034344   -2.7166745     1.344634   439061 
  378000   0.89781885   -2.7197561   -2.7197561   -1.3730308   0.10226538   -2.7197561    1.3467252   439061 
  379000   0.89865507   -2.7196556   -2.7196556    -1.371676   0.10607076   -2.7196556    1.3479795   439061 
  380000   0.89864814   -2.7215737   -2.7215737   -1.3736045  0.099123476   -2.7215737    1.3479691   439061 
  381000   0.89641355   -2.7193572   -2.7193572     -1.37474   0.10346886   -2.7193572    1.3446173   439061 
  382000   0.89751861   -2.7222991   -2.7222991   -1.3760243  0.098135704   -2.7222991    1.3462749   439061 
  383000   0.89816779   -2.7230193   -2.7230193   -1.3757707   0.10130634   -2.7230193    1.3472486   439061 
  384000   0.89734883   -2.7227522   -2.7227522   -1.3767321  0.099441415   -2.7227522    1.3460202   439061 
  385000   0.89602278   -2.7216904   -2.7216904   -1.3776593   0.09630888   -2.7216904    1.3440311   439061 
  386000   0.89691519   -2.7242271   -2.7242271   -1.3788574   0.10237977   -2.7242271    1.3453697   439061 
  387000   0.89720866   -2.7239542   -2.7239542   -1.3781442  0.096553455   -2.7239542    1.3458099   439061 
  388000   0.89705721   -2.7240501   -2.7240501   -1.3784673  0.098808789   -2.7240501    1.3455828   439061 
  389000   0.89486818   -2.7214234   -2.7214234   -1.3791242  0.098412315   -2.7214234    1.3422992   439061 
  390000   0.89473623   -2.7219119   -2.7219119   -1.3798106  0.099232933   -2.7219119    1.3421013   439061 
  391000   0.89504259   -2.7227183   -2.7227183   -1.3801575  0.099258083   -2.7227183    1.3425608   439061 
  392000   0.89579525   -2.7233716   -2.7233716   -1.3796818  0.099891669   -2.7233716    1.3436898   439061 
  393000   0.89503863   -2.7233569   -2.7233569    -1.380802  0.096628186   -2.7233569    1.3425549   439061 
  394000   0.89479931    -2.723713    -2.723713   -1.3815171  0.098089362    -2.723713    1.3421959   439061 
  395000   0.89500847   -2.7248028   -2.7248028   -1.3822932  0.096036867   -2.7248028    1.3425096   439061 
  396000   0.89453221   -2.7249942   -2.7249942   -1.3831989   0.09767675   -2.7249942    1.3417953   439061 
  397000   0.89488594   -2.7262539   -2.7262539   -1.3839281  0.098491033   -2.7262539    1.3423258   439061 
  398000    0.8951846    -2.727611    -2.727611   -1.3848372  0.092187943    -2.727611    1.3427738   439061 
  399000   0.89479613   -2.7277571   -2.7277571    -1.385566  0.098981207   -2.7277571    1.3421911   439061 
  400000   0.89425787   -2.7286615   -2.7286615   -1.3872778  0.094635969   -2.7286615    1.3413837   439061 
  401000   0.89502595    -2.730121    -2.730121   -1.3875851  0.097940201    -2.730121    1.3425359   439061 
  402000   0.89439508   -2.7290625   -2.7290625   -1.3874729    0.1001707   -2.7290625    1.3415896   439061 
  403000   0.89379952   -2.7297603   -2.7297603    -1.389064  0.096804403   -2.7297603    1.3406962   439061 
  404000   0.89392246   -2.7306666   -2.7306666   -1.3897859  0.096925418   -2.7306666    1.3408806   439061 
  405000   0.89218323   -2.7287274   -2.7287274   -1.3904557  0.099140553   -2.7287274    1.3382718   439061 
  406000   0.89250519   -2.7307931   -2.7307931   -1.3920384  0.091513309   -2.7307931    1.3387547   439061 
  407000   0.89214357   -2.7314285   -2.7314285   -1.3932162  0.094191451   -2.7314285    1.3382123   439061 
  408000   0.89156973   -2.7305272   -2.7305272   -1.3931757  0.094980485   -2.7305272    1.3373515   439061 
  409000   0.89297022   -2.7332361   -2.7332361   -1.3937838  0.097990113   -2.7332361    1.3394523   439061 
  410000   0.89331608   -2.7334329   -2.7334329   -1.3934618  0.094794379   -2.7334329    1.3399711   439061 
  411000   0.89265054   -2.7344249   -2.7344249   -1.3954521  0.097195762   -2.7344249    1.3389728   439061 
  412000   0.89290568   -2.7352448   -2.7352448   -1.3958893  0.097371433   -2.7352448    1.3393555   439061 
  413000   0.89364577   -2.7364367   -2.7364367   -1.3959711  0.094818925   -2.7364367    1.3404656   439061 
  414000   0.89163424   -2.7342358   -2.7342358   -1.3967874  0.093440702   -2.7342358    1.3374483   439061 
  415000   0.89204651   -2.7360144   -2.7360144   -1.3979476  0.097575572   -2.7360144    1.3380667   439061 
  416000   0.89309912   -2.7373163   -2.7373163   -1.3976707  0.094131945   -2.7373163    1.3396456   439061 
  417000   0.89093489   -2.7357432   -2.7357432   -1.3993439   0.10188698   -2.7357432    1.3363993   439061 
  418000   0.89258954   -2.7382775   -2.7382775   -1.3993963   0.10178713   -2.7382775    1.3388813   439061 
  419000    0.8930323   -2.7403053   -2.7403053   -1.4007599  0.099716676   -2.7403053    1.3395454   439061 
  420000   0.89176327   -2.7402175   -2.7402175   -1.4025756  0.097978408   -2.7402175    1.3376419   439061 
  421000   0.88986928   -2.7384786   -2.7384786   -1.4036777  0.093390676   -2.7384786    1.3348009   439061 
  422000   0.89187498   -2.7413205   -2.7413205   -1.4035111  0.092447348   -2.7413205    1.3378094   439061 
  423000   0.89107655   -2.7412756   -2.7412756   -1.4046638  0.094416736   -2.7412756    1.3366118   439061 
  424000   0.89071582    -2.741741    -2.741741   -1.4056703  0.092907377    -2.741741    1.3360707   439061 
  425000   0.89038554   -2.7431582   -2.7431582   -1.4075829   0.09494423   -2.7431582    1.3355753   439061 
  426000   0.89168007   -2.7458029   -2.7458029   -1.4082859  0.093344636   -2.7458029    1.3375171   439061 
  427000   0.89031335   -2.7447871   -2.7447871   -1.4093201  0.096128167   -2.7447871     1.335467   439061 
  428000   0.89100022   -2.7464864   -2.7464864   -1.4099891  0.096899569   -2.7464864    1.3364973   439061 
  429000   0.89062677   -2.7463596   -2.7463596   -1.4104225  0.092902536   -2.7463596    1.3359371   439061 
  430000   0.89050486    -2.745979    -2.745979   -1.4102247  0.091922144    -2.745979    1.3357542   439061 
  431000   0.89086617   -2.7468491   -2.7468491   -1.4105529  0.093827325   -2.7468491    1.3362962   439061 
  432000    0.8921722   -2.7483175   -2.7483175   -1.4100622   0.10104904   -2.7483175    1.3382553   439061 
  433000   0.89038485   -2.7453971   -2.7453971   -1.4098229  0.097529562   -2.7453971    1.3355742   439061 
  434000   0.89078444   -2.7473707   -2.7473707   -1.4111971  0.095937069   -2.7473707    1.3361736   439061 
  435000     0.891813   -2.7484386   -2.7484386   -1.4107222  0.093264996   -2.7484386    1.3377165   439061 
  436000   0.89105411   -2.7483539   -2.7483539   -1.4117758  0.094528998   -2.7483539    1.3365781   439061 
  437000   0.89006471   -2.7486483   -2.7486483   -1.4135542  0.094886569   -2.7486483     1.335094   439061 
  438000   0.88724903   -2.7444292   -2.7444292   -1.4135587  0.091158155   -2.7444292    1.3308705   439061 
  439000   0.88879186    -2.746997    -2.746997   -1.4138123   0.08976381    -2.746997    1.3331848   439061 
  440000   0.88906568   -2.7474881   -2.7474881   -1.4138926  0.095610079   -2.7474881    1.3335955   439061 
  441000   0.88911407   -2.7471773   -2.7471773   -1.4135092  0.098421641   -2.7471773    1.3336681   439061 
  442000    0.8886276   -2.7470003   -2.7470003   -1.4140619  0.091872835   -2.7470003    1.3329384   439061 
  443000   0.88915157    -2.747892    -2.747892   -1.4141677   0.09349891    -2.747892    1.3337243   439061 
  444000   0.88801109   -2.7466111   -2.7466111   -1.4145975  0.095221687   -2.7466111    1.3320136   439061 
  445000   0.88925021   -2.7489216   -2.7489216   -1.4150493  0.094332967   -2.7489216    1.3338723   439061 
  446000   0.88909372   -2.7486319   -2.7486319   -1.4149944  0.094140517   -2.7486319    1.3336375   439061 
  447000   0.88907447   -2.7496084   -2.7496084   -1.4159998  0.091259399   -2.7496084    1.3336087   439061 
  448000   0.88955564   -2.7499798   -2.7499798   -1.4156493  0.092942906   -2.7499798    1.3343304   439061 
  449000   0.88846761   -2.7504169   -2.7504169   -1.4177186  0.092376503   -2.7504169    1.3326984   439061 
  450000   0.88962898   -2.7531458   -2.7531458   -1.4187053  0.090739841   -2.7531458    1.3344404   439061 
  451000   0.88913185   -2.7529833   -2.7529833   -1.4192886   0.09728145   -2.7529833    1.3336947   439061 
  452000   0.88817515   -2.7524773   -2.7524773   -1.4202176  0.095040249   -2.7524773    1.3322597   439061 
  453000   0.88902764   -2.7543775   -2.7543775   -1.4208391   0.09292919   -2.7543775    1.3335384   439061 
  454000   0.88727214   -2.7524818   -2.7524818   -1.4215766  0.096789676   -2.7524818    1.3309052   439061 
  455000    0.8879479   -2.7543116   -2.7543116   -1.4223928  0.096869954   -2.7543116    1.3319188   439061 
  456000   0.88678181   -2.7541387   -2.7541387    -1.423969  0.093747073   -2.7541387    1.3301697   439061 
  457000   0.88826575   -2.7564825   -2.7564825   -1.4240869  0.090862744   -2.7564825    1.3323956   439061 
  458000   0.88862148   -2.7573201   -2.7573201    -1.424391  0.093252996   -2.7573201    1.3329292   439061 
  459000   0.88850998   -2.7573057   -2.7573057   -1.4245437   0.09218227   -2.7573057    1.3327619   439061 
  460000   0.88697048   -2.7569006   -2.7569006   -1.4264479  0.091672182   -2.7569006    1.3304527   439061 
  461000    0.8856027   -2.7563062   -2.7563062   -1.4279052  0.091496418   -2.7563062     1.328401   439061 
  462000   0.88731351     -2.75914     -2.75914   -1.4281727  0.093438902     -2.75914    1.3309672   439061 
  463000   0.88691108   -2.7596755   -2.7596755   -1.4293119   0.08843341   -2.7596755    1.3303636   439061 
  464000   0.88622356    -2.759459    -2.759459   -1.4301267  0.092286515    -2.759459    1.3293323   439061 
  465000   0.88625189   -2.7599864   -2.7599864   -1.4306116  0.091175857   -2.7599864    1.3293748   439061 
  466000    0.8856486   -2.7580447   -2.7580447   -1.4295749  0.089750525   -2.7580447    1.3284699   439061 
  467000   0.88526641   -2.7595004   -2.7595004   -1.4316038  0.092737672   -2.7595004    1.3278966   439061 
  468000   0.88564172   -2.7615188   -2.7615188   -1.4330593  0.089442896   -2.7615188    1.3284596   439061 
  469000   0.88412545   -2.7604671   -2.7604671   -1.4342819  0.093611511   -2.7604671    1.3261852   439061 
  470000   0.88655314   -2.7641781   -2.7641781   -1.4343514  0.090125873   -2.7641781    1.3298267   439061 
  471000   0.88634729   -2.7636814   -2.7636814   -1.4341635  0.090299221   -2.7636814    1.3295179   439061 
  472000   0.88599327   -2.7641829   -2.7641829    -1.435196  0.089085773   -2.7641829    1.3289869   439061 
  473000   0.88642125   -2.7658154   -2.7658154   -1.4361865  0.093913734   -2.7658154    1.3296288   439061 
  474000   0.88726798   -2.7674246   -2.7674246   -1.4365257  0.092849503   -2.7674246    1.3308989   439061 
  475000   0.88536993   -2.7665414   -2.7665414   -1.4384896  0.092487088   -2.7665414    1.3280519   439061 
  476000   0.88583134   -2.7668961   -2.7668961   -1.4381521  0.091392138   -2.7668961     1.328744   439061 
  477000   0.88564866   -2.7679088   -2.7679088   -1.4394388  0.093810679   -2.7679088      1.32847   439061 
  478000   0.88415797   -2.7671766   -2.7671766   -1.4409426  0.092661772   -2.7671766    1.3262339   439061 
  479000   0.88408692   -2.7680846   -2.7680846   -1.4419572  0.086738028   -2.7680846    1.3261274   439061 
  480000   0.88504937   -2.7700102   -2.7700102   -1.4424392  0.088406954   -2.7700102     1.327571   439061 
  481000    0.8835274   -2.7665537   -2.7665537   -1.4412657  0.095214132   -2.7665537    1.3252881   439061 
  482000   0.88330534   -2.7669211   -2.7669211   -1.4419661   0.08929933   -2.7669211     1.324955   439061 
  483000   0.88372681   -2.7688582   -2.7688582    -1.443271  0.087370591   -2.7688582    1.3255872   439061 
  484000   0.88277509   -2.7676417   -2.7676417   -1.4434821  0.088465549   -2.7676417    1.3241596   439061 
  485000   0.88361902   -2.7678521   -2.7678521   -1.4424266  0.096983265   -2.7678521    1.3254255   439061 
  486000   0.88447603   -2.7704418   -2.7704418   -1.4437308  0.087583291   -2.7704418     1.326711   439061 
  487000   0.88377802   -2.7709557   -2.7709557   -1.4452916  0.086494012   -2.7709557     1.325664   439061 
  488000   0.88333078    -2.771581    -2.771581   -1.4465879  0.088956206    -2.771581    1.3249932   439061 
  489000   0.88276629   -2.7716004   -2.7716004   -1.4474539   0.09008185   -2.7716004    1.3241464   439061 
  490000   0.88337325   -2.7729027   -2.7729027   -1.4478459  0.089246912   -2.7729027    1.3250569   439061 
  491000   0.88405659   -2.7726351   -2.7726351   -1.4465533  0.092909184   -2.7726351    1.3260819   439061 
  492000   0.88368069   -2.7719021   -2.7719021   -1.4463841  0.090107153   -2.7719021     1.325518   439061 
  493000   0.88451592   -2.7726349   -2.7726349   -1.4458641  0.091351365   -2.7726349    1.3267709   439061 
  494000   0.88415614   -2.7734953   -2.7734953   -1.4472641  0.086122428   -2.7734953    1.3262312   439061 
  495000    0.8835305   -2.7731174   -2.7731174   -1.4478247  0.088970169   -2.7731174    1.3252927   439061 
  496000   0.88320408   -2.7723449   -2.7723449   -1.4475418  0.088162225   -2.7723449    1.3248031   439061 
  497000   0.88252996   -2.7722052   -2.7722052   -1.4484133  0.086342072   -2.7722052    1.3237919   439061 
  498000   0.88241026   -2.7731114   -2.7731114    -1.449499  0.091165046   -2.7731114    1.3236124   439061 
  499000   0.88195659   -2.7716216   -2.7716216   -1.4486897  0.086234604   -2.7716216    1.3229319   439061 
  500000    0.8831527   -2.7737467   -2.7737467   -1.4490207  0.083724404   -2.7737467     1.324726   439061 
  501000   0.88313077   -2.7722406   -2.7722406   -1.4475474  0.089617426   -2.7722406    1.3246931   439061 
  502000   0.88334632   -2.7736281   -2.7736281   -1.4486116  0.086880968   -2.7736281    1.3250165   439061 
  503000   0.88143431   -2.7728134   -2.7728134    -1.450665  0.091809667   -2.7728134    1.3221485   439061 
  504000   0.88355121   -2.7759091   -2.7759091   -1.4505853  0.089292444   -2.7759091    1.3253238   439061 
  505000    0.8842428   -2.7777556   -2.7777556   -1.4513944   0.09023966   -2.7777556    1.3263612   439061 
  506000   0.88162717   -2.7742905   -2.7742905   -1.4518527  0.089141707   -2.7742905    1.3224377   439061 
  507000   0.88281319    -2.776267    -2.776267   -1.4520502  0.084529138    -2.776267    1.3242168   439061 
  508000    0.8839714   -2.7775206   -2.7775206   -1.4515666  0.088413192   -2.7775206    1.3259541   439061 
  509000   0.88205642   -2.7760921   -2.7760921   -1.4530105  0.087945222   -2.7760921    1.3230816   439061 
  510000   0.88143027   -2.7756465   -2.7756465   -1.4535041  0.088250667   -2.7756465    1.3221424   439061 
  511000   0.88102012   -2.7749998   -2.7749998   -1.4534726   0.08863516   -2.7749998    1.3215272   439061 
  512000    0.8816616   -2.7769094   -2.7769094     -1.45442  0.090537817   -2.7769094    1.3224894   439061 
  513000   0.88222295   -2.7794349   -2.7794349   -1.4561035  0.084248868   -2.7794349    1.3233314   439061 
  514000   0.88197954   -2.7784305   -2.7784305   -1.4554642  0.087107747   -2.7784305    1.3229663   439061 
  515000   0.88133994   -2.7785119   -2.7785119    -1.456505  0.089442805   -2.7785119    1.3220069   439061 
  516000   0.88113076    -2.778617    -2.778617   -1.4569239  0.088585607    -2.778617    1.3216931   439061 
  517000   0.88214943   -2.7797404   -2.7797404   -1.4565193  0.091958571   -2.7797404    1.3232211   439061 
  518000   0.88337597   -2.7816205   -2.7816205   -1.4565596  0.087761107   -2.7816205    1.3250609   439061 
  519000   0.88187084   -2.7815815   -2.7815815   -1.4587783  0.092694544   -2.7815815    1.3228032   439061 
  520000   0.88002976   -2.7810675   -2.7810675   -1.4610259  0.087608712   -2.7810675    1.3200416   439061 
  521000    0.8810709   -2.7828701   -2.7828701   -1.4612668  0.086636935   -2.7828701    1.3216033   439061 
  522000   0.88076888   -2.7840146   -2.7840146   -1.4628643  0.089136829   -2.7840146    1.3211503   439061 
  523000   0.87972674   -2.7837129   -2.7837129   -1.4641258  0.083494802   -2.7837129    1.3195871   439061 
  524000   0.87985759   -2.7841079   -2.7841079   -1.4643245  0.081371217   -2.7841079    1.3197834   439061 
  525000   0.88043383   -2.7850032   -2.7850032   -1.4643554  0.085017683   -2.7850032    1.3206477   439061 
  526000   0.87935273   -2.7848316   -2.7848316   -1.4658055  0.089968421   -2.7848316    1.3190261   439061 
  527000   0.87953249   -2.7855073   -2.7855073   -1.4662116  0.086953199   -2.7855073    1.3192957   439061 
  528000   0.87978266   -2.7861749   -2.7861749   -1.4665039  0.086333421   -2.7861749     1.319671   439061 
  529000   0.88067324   -2.7862519   -2.7862519   -1.4652451   0.08599371   -2.7862519    1.3210069   439061 
  530000   0.87885943   -2.7847389   -2.7847389   -1.4664527  0.088690402   -2.7847389    1.3182861   439061 
  531000   0.88122756   -2.7884224   -2.7884224    -1.466584  0.088089547   -2.7884224    1.3218383   439061 
  532000   0.87884017   -2.7857164   -2.7857164   -1.4674592  0.087571345   -2.7857164    1.3182573   439061 
  533000   0.87876301   -2.7866073   -2.7866073   -1.4684658  0.088920525   -2.7866073    1.3181415   439061 
  534000   0.88026048   -2.7894676   -2.7894676   -1.4690798  0.087647807   -2.7894676    1.3203877   439061 
  535000   0.87963176   -2.7878917   -2.7878917    -1.468447  0.087842488   -2.7878917    1.3194446   439061 
  536000   0.87943842   -2.7879918   -2.7879918   -1.4688372  0.082867698   -2.7879918    1.3191546   439061 
  537000   0.88031671   -2.7904435   -2.7904435   -1.4699714  0.083766165   -2.7904435    1.3204721   439061 
  538000   0.87905648   -2.7892253   -2.7892253   -1.4706436  0.079229376   -2.7892253    1.3185817   439061 
  539000   0.87924253   -2.7897296   -2.7897296   -1.4708688  0.081738737   -2.7897296    1.3188608   439061 
  540000   0.87769522   -2.7871195   -2.7871195   -1.4705797   0.08878512   -2.7871195    1.3165398   439061 
  541000   0.87822322   -2.7884544   -2.7884544   -1.4711226  0.086061836   -2.7884544    1.3173318   439061 
  542000   0.87671336   -2.7867464   -2.7867464   -1.4716794  0.086199549   -2.7867464     1.315067   439061 
  543000   0.87784834   -2.7884517   -2.7884517   -1.4716822  0.086428062   -2.7884517    1.3167695   439061 
  544000   0.87854924   -2.7909531   -2.7909531   -1.4731323  0.086927392   -2.7909531    1.3178209   439061 
  545000   0.87829974   -2.7929785   -2.7929785   -1.4755319  0.085583191   -2.7929785    1.3174466   439061 
  546000   0.87832983   -2.7932907   -2.7932907   -1.4757989   0.08288447   -2.7932907    1.3174917   439061 
  547000   0.87990455   -2.7958169   -2.7958169   -1.4759631  0.085690084   -2.7958169    1.3198538   439061 
  548000   0.87838295   -2.7950316   -2.7950316   -1.4774602  0.090663699   -2.7950316    1.3175714   439061 
  549000   0.87931444    -2.796554    -2.796554   -1.4775853  0.085533151    -2.796554    1.3189687   439061 
  550000   0.87944358   -2.7974146   -2.7974146   -1.4782523  0.087275808   -2.7974146    1.3191624   439061 
  551000   0.87773126   -2.7958066   -2.7958066   -1.4792128  0.089392143   -2.7958066    1.3165939   439061 
  552000   0.87820591   -2.7973598   -2.7973598   -1.4800539  0.090159019   -2.7973598    1.3173059   439061 
  553000    0.8778698    -2.798069    -2.798069   -1.4812673  0.084647525    -2.798069    1.3168017   439061 
  554000   0.87747417   -2.7974374   -2.7974374   -1.4812292  0.088230808   -2.7974374    1.3162083   439061 
  555000   0.87807656   -2.7999768   -2.7999768    -1.482865  0.087242199   -2.7999768    1.3171118   439061 
  556000   0.87660496   -2.7986549   -2.7986549   -1.4837504  0.089491218   -2.7986549    1.3149044   439061 
  557000   0.87598235   -2.7982421   -2.7982421   -1.4842716  0.084046057   -2.7982421    1.3139705   439061 
  558000   0.87740202   -2.7998552   -2.7998552   -1.4837551  0.083152598   -2.7998552       1.3161   439061 
  559000   0.87612729   -2.7983837   -2.7983837   -1.4841957   0.08425763   -2.7983837    1.3141879   439061 
  560000    0.8788176   -2.8025781   -2.8025781   -1.4843547  0.081685973   -2.8025781    1.3182234   439061 
  561000   0.87770873   -2.8011336   -2.8011336   -1.4845735  0.083653376   -2.8011336    1.3165601   439061 
  562000   0.87634352    -2.800278    -2.800278   -1.4857657  0.085305143    -2.800278    1.3145123   439061 
  563000   0.87573921   -2.8008947   -2.8008947   -1.4872889  0.085581566   -2.8008947    1.3136058   439061 
  564000    0.8757433   -2.8015589   -2.8015589   -1.4879469  0.077151537   -2.8015589     1.313612   439061 
  565000   0.87484064   -2.7991005   -2.7991005   -1.4868425  0.085695527   -2.7991005     1.312258   439061 
  566000   0.87457067   -2.8000599   -2.8000599   -1.4882069  0.084884475   -2.8000599     1.311853   439061 
  567000    0.8764045   -2.8025098   -2.8025098    -1.487906  0.086043398   -2.8025098    1.3146038   439061 
  568000   0.87656399   -2.8038882   -2.8038882   -1.4890452  0.082113213   -2.8038882     1.314843   439061 
  569000   0.87701183   -2.8048953   -2.8048953   -1.4893806  0.084769245   -2.8048953    1.3155148   439061 
  570000   0.87657282   -2.8042485   -2.8042485   -1.4893922  0.085007804   -2.8042485    1.3148562   439061 
  571000   0.87647771   -2.8043501   -2.8043501   -1.4896365   0.08840653   -2.8043501    1.3147136   439061 
  572000   0.87622196   -2.8046138   -2.8046138   -1.4902838  0.085559173   -2.8046138    1.3143299   439061 
  573000   0.87647295   -2.8062128   -2.8062128   -1.4915063  0.089095866   -2.8062128    1.3147064   439061 
  574000   0.87623712   -2.8068457   -2.8068457    -1.492493  0.083531228   -2.8068457    1.3143527   439061 
  575000   0.87601921   -2.8070729   -2.8070729   -1.4930471  0.083795363   -2.8070729    1.3140258   439061 
  576000   0.87453366     -2.80513     -2.80513   -1.4933325  0.086570601     -2.80513    1.3117975   439061 
  577000   0.87529297   -2.8074506   -2.8074506   -1.4945141  0.083314955   -2.8074506    1.3129365   439061 
  578000   0.87496642   -2.8080166   -2.8080166     -1.49557  0.079121957   -2.8080166    1.3124466   439061 
  579000   0.87410119   -2.8081628   -2.8081628    -1.497014  0.081044967   -2.8081628    1.3111488   439061 
  580000   0.87475627   -2.8088043   -2.8088043   -1.4966729  0.082115327   -2.8088043    1.3121314   439061 
  581000   0.87406672   -2.8086433   -2.8086433   -1.4975462  0.081192263   -2.8086433    1.3110971   439061 
  582000   0.87409277   -2.8087811   -2.8087811    -1.497645  0.075512402   -2.8087811    1.3111362   439061 
  583000   0.87458284   -2.8107991   -2.8107991   -1.4989278   0.08388347   -2.8107991    1.3118713   439061 
  584000   0.87535375   -2.8119928   -2.8119928   -1.4989652  0.086442712   -2.8119928    1.3130276   439061 
  585000   0.87416264   -2.8107236   -2.8107236   -1.4994826  0.087357934   -2.8107236     1.311241   439061 
  586000   0.87544742   -2.8118647   -2.8118647   -1.4986966  0.087882071   -2.8118647    1.3131681   439061 
  587000   0.87484581   -2.8108838   -2.8108838   -1.4986181  0.089571681   -2.8108838    1.3122657   439061 
  588000   0.87518286   -2.8126316   -2.8126316   -1.4998603  0.083870352   -2.8126316    1.3127713   439061 
  589000   0.87490123   -2.8127999   -2.8127999   -1.5004511  0.082189053   -2.8127999    1.3123489   439061 
  590000   0.87388058   -2.8121722   -2.8121722   -1.5013543  0.081744975   -2.8121722    1.3108179   439061 
  591000   0.87490381   -2.8136717   -2.8136717    -1.501319  0.078148056   -2.8136717    1.3123527   439061 
  592000   0.87543223    -2.812908    -2.812908   -1.4997626  0.079225206    -2.812908    1.3131454   439061 
  593000   0.87436149    -2.813058    -2.813058   -1.5015188  0.080652609    -2.813058    1.3115392   439061 
  594000   0.87476469   -2.8135533   -2.8135533   -1.5014092  0.083199347   -2.8135533     1.312144   439061 
  595000    0.8738726   -2.8125433   -2.8125433   -1.5017374  0.079278211   -2.8125433    1.3108059   439061 
  596000   0.87460218   -2.8128555   -2.8128555   -1.5009552  0.081385257   -2.8128555    1.3119003   439061 
  597000   0.87422636   -2.8140648   -2.8140648   -1.5027282  0.083226275   -2.8140648    1.3113366   439061 
  598000   0.87371551   -2.8139669   -2.8139669   -1.5033966  0.080768494   -2.8139669    1.3105703   439061 
  599000   0.87397498   -2.8148796   -2.8148796   -1.5039202  0.080969284   -2.8148796    1.3109595   439061 
  600000    0.8737289   -2.8143815   -2.8143815   -1.5037911  0.079295144   -2.8143815    1.3105904   439061 
  601000   0.87258736    -2.813856    -2.813856   -1.5049779  0.084583158    -2.813856    1.3088781   439061 
  602000   0.87190768   -2.8156556   -2.8156556    -1.507797  0.079654211   -2.8156556    1.3078585   439061 
  603000   0.87417475   -2.8178555   -2.8178555   -1.5065964  0.084028131   -2.8178555    1.3112591   439061 
  604000   0.87423857   -2.8180915   -2.8180915   -1.5067366  0.086587667   -2.8180915    1.3113549   439061 
  605000   0.87474529   -2.8192993   -2.8192993   -1.5071844  0.082178508   -2.8192993     1.312115   439061 
  606000   0.87331779   -2.8178779   -2.8178779   -1.5079042  0.083601357   -2.8178779    1.3099737   439061 
  607000   0.87471444   -2.8191559   -2.8191559   -1.5070873  0.084707583   -2.8191559    1.3120687   439061 
  608000   0.87568735   -2.8206578   -2.8206578   -1.5071298  0.083238164   -2.8206578     1.313528   439061 
  609000   0.87401016   -2.8196021   -2.8196021   -1.5085898  0.082163872   -2.8196021    1.3110122   439061 
  610000   0.87339723   -2.8194257   -2.8194257   -1.5093328  0.078120947   -2.8194257    1.3100929   439061 
  611000   0.87345474   -2.8200565   -2.8200565   -1.5098774  0.078286534   -2.8200565    1.3101791   439061 
  612000   0.87225167   -2.8192795   -2.8192795    -1.510905  0.084899826   -2.8192795    1.3083745   439061 
  613000   0.87263058   -2.8213657   -2.8213657   -1.5124228  0.074526545   -2.8213657    1.3089429   439061 
  614000   0.87041395   -2.8191419   -2.8191419   -1.5135239    0.0823703   -2.8191419     1.305618   439061 
  615000    0.8708227   -2.8205174   -2.8205174   -1.5142863  0.079625812   -2.8205174    1.3062311   439061 
  616000   0.87164965   -2.8206844   -2.8206844   -1.5132129   0.08027327   -2.8206844    1.3074715   439061 
  617000   0.87128396   -2.8205713   -2.8205713   -1.5136484  0.079048043   -2.8205713     1.306923   439061 
  618000   0.87186208    -2.820441    -2.820441   -1.5126509  0.081916187    -2.820441    1.3077901   439061 
  619000   0.87227449   -2.8218651   -2.8218651   -1.5134563  0.075813785   -2.8218651    1.3084088   439061 
  620000   0.87175766   -2.8218534   -2.8218534   -1.5142199  0.080987763   -2.8218534    1.3076335   439061 
  621000   0.87298116   -2.8243955   -2.8243955   -1.5149267  0.079755286   -2.8243955    1.3094688   439061 
  622000    0.8720029   -2.8225711   -2.8225711   -1.5145698  0.082515739   -2.8225711    1.3080014   439061 
  623000   0.87177133   -2.8234626   -2.8234626   -1.5158086  0.081404437   -2.8234626     1.307654   439061 
  624000   0.87143579   -2.8228056   -2.8228056   -1.5156549  0.079636256   -2.8228056    1.3071507   439061 
  625000   0.87316948   -2.8259051   -2.8259051   -1.5161538  0.081119348   -2.8259051    1.3097512   439061 
  626000   0.87350703   -2.8260905   -2.8260905   -1.5158329  0.082572177   -2.8260905    1.3102576   439061 
  627000   0.87086973   -2.8239758   -2.8239758   -1.5176742  0.083366904   -2.8239758    1.3063016   439061 
  628000   0.87284431   -2.8262904   -2.8262904   -1.5170269  0.085107678   -2.8262904    1.3092635   439061 
  629000   0.87291268   -2.8254382   -2.8254382   -1.5160721  0.082857553   -2.8254382     1.309366   439061 
  630000   0.87342566   -2.8277219   -2.8277219   -1.5175864  0.080118805   -2.8277219    1.3101355   439061 
  631000   0.87186239   -2.8264167   -2.8264167   -1.5186261   0.08024208   -2.8264167    1.3077906   439061 
  632000    0.8725906   -2.8280344   -2.8280344   -1.5191514  0.079883635   -2.8280344    1.3088829   439061 
  633000   0.87261888   -2.8272547   -2.8272547   -1.5183294  0.081261475   -2.8272547    1.3089253   439061 
  634000   0.87271205   -2.8280008   -2.8280008   -1.5189357  0.077695638   -2.8280008    1.3090651   439061 
  635000   0.87232288   -2.8278436   -2.8278436   -1.5193623  0.084284426   -2.8278436    1.3084813   439061 
  636000   0.87169031   -2.8274617   -2.8274617   -1.5199292  0.080951413   -2.8274617    1.3075325   439061 
  637000   0.87130184   -2.8282095   -2.8282095   -1.5212598  0.078320702   -2.8282095    1.3069498   439061 
  638000   0.87076375   -2.8269372   -2.8269372   -1.5207946  0.082944053   -2.8269372    1.3061426   439061 
  639000    0.8710108   -2.8282804   -2.8282804   -1.5217672  0.079475485   -2.8282804    1.3065132   439061 
  640000    0.8712101   -2.8282689   -2.8282689   -1.5214567  0.081750952   -2.8282689    1.3068122   439061 
  641000   0.87046949   -2.8289388   -2.8289388   -1.5232375  0.080071261   -2.8289388    1.3057013   439061 
  642000   0.87159186   -2.8311216   -2.8311216   -1.5237368  0.080424665   -2.8311216    1.3073848   439061 
  643000   0.86984439   -2.8301054   -2.8301054   -1.5253418  0.077535908   -2.8301054    1.3047636   439061 
  644000   0.87035402   -2.8314678   -2.8314678   -1.5259397  0.078259371   -2.8314678    1.3055281   439061 
  645000   0.87189187     -2.83301     -2.83301   -1.5251752  0.078583924     -2.83301    1.3078348   439061 
  646000   0.87058474   -2.8312077   -2.8312077   -1.5253335  0.084387244   -2.8312077    1.3058741   439061 
  647000   0.87217059    -2.834384    -2.834384   -1.5261311  0.080658414    -2.834384    1.3082529   439061 
  648000   0.87267083   -2.8345114   -2.8345114   -1.5255081  0.083876759   -2.8345114    1.3090033   439061 
  649000   0.87203826   -2.8328354   -2.8328354    -1.524781  0.088602484   -2.8328354    1.3080544   439061 
  650000   0.87330538   -2.8356197   -2.8356197   -1.5256646  0.082588596   -2.8356197    1.3099551   439061 
  651000   0.87243916   -2.8341342   -2.8341342   -1.5254785  0.086003212   -2.8341342    1.3086558   439061 
  652000   0.87223326   -2.8344048   -2.8344048   -1.5260578  0.080013901   -2.8344048    1.3083469   439061 
  653000   0.87125264   -2.8345563   -2.8345563   -1.5276803  0.076648663   -2.8345563     1.306876   439061 
  654000   0.87043825     -2.83365     -2.83365   -1.5279956  0.083198239     -2.83365    1.3056544   439061 
  655000    0.8692935   -2.8333504   -2.8333504   -1.5294132  0.076154872   -2.8333504    1.3039373   439061 
  656000   0.87115844   -2.8345548   -2.8345548   -1.5278201  0.076797537   -2.8345548    1.3067347   439061 
  657000   0.86883663   -2.8305863   -2.8305863   -1.5273343  0.079259282   -2.8305863     1.303252   439061 
  658000   0.86893068   -2.8319013   -2.8319013   -1.5285082  0.075432751   -2.8319013     1.303393   439061 
  659000   0.86952365   -2.8335789   -2.8335789   -1.5292964  0.077713058   -2.8335789    1.3042825   439061 
  660000   0.86803754   -2.8323839   -2.8323839   -1.5303306  0.081660369   -2.8323839    1.3020533   439061 
  661000   0.86994668   -2.8358611   -2.8358611   -1.5309441  0.076858524   -2.8358611    1.3049171   439061 
  662000   0.86940356   -2.8350098   -2.8350098   -1.5309074  0.077762774   -2.8350098    1.3041024   439061 
  663000    0.8706469   -2.8369789   -2.8369789   -1.5310116  0.080960681   -2.8369789    1.3059674   439061 
  664000   0.86942386   -2.8349489   -2.8349489   -1.5308161  0.086169348   -2.8349489    1.3041328   439061 
  665000   0.87008996   -2.8384933   -2.8384933   -1.5333614  0.079336607   -2.8384933     1.305132   439061 
  666000   0.87067168   -2.8401729   -2.8401729   -1.5341684  0.078682352   -2.8401729    1.3060045   439061 
  667000   0.87090402   -2.8400419   -2.8400419   -1.5336888  0.083257093   -2.8400419    1.3063531   439061 
  668000   0.87073852   -2.8404926   -2.8404926   -1.5343878  0.078620885   -2.8404926    1.3061048   439061 
  669000   0.86864767   -2.8382266   -2.8382266   -1.5352581  0.084775443   -2.8382266    1.3029685   439061 
  670000   0.86931589   -2.8399981   -2.8399981   -1.5360273  0.087216445   -2.8399981    1.3039709   439061 
  671000   0.87058448   -2.8437512   -2.8437512   -1.5378774  0.079208251   -2.8437512    1.3058737   439061 
  672000   0.86903023   -2.8424792   -2.8424792   -1.5389369  0.078906655   -2.8424792    1.3035424   439061 
  673000   0.86769592   -2.8406861   -2.8406861   -1.5391452  0.076849915   -2.8406861    1.3015409   439061 
  674000   0.86944574   -2.8439951   -2.8439951   -1.5398295  0.073531135   -2.8439951    1.3041656   439061 
  675000   0.86792992   -2.8419907   -2.8419907   -1.5400988  0.080052838   -2.8419907    1.3018919   439061 
  676000   0.86669004   -2.8402959   -2.8402959   -1.5402638  0.078008751   -2.8402959    1.3000321   439061 
  677000   0.86755155   -2.8412981   -2.8412981   -1.5399738  0.077383899   -2.8412981    1.3013244   439061 
  678000   0.86703411   -2.8415875   -2.8415875   -1.5410393  0.078013476   -2.8415875    1.3005482   439061 
  679000   0.86717184   -2.8425388   -2.8425388    -1.541784  0.070422208   -2.8425388    1.3007548   439061 
  680000   0.86855329   -2.8429934   -2.8429934   -1.5401664   0.07660534   -2.8429934     1.302827   439061 
  681000   0.86763346   -2.8429515   -2.8429515   -1.5415043    0.0726836   -2.8429515    1.3014472   439061 
  682000   0.86804269   -2.8428783   -2.8428783   -1.5408172  0.080759791   -2.8428783    1.3020611   439061 
  683000   0.86808574   -2.8427926   -2.8427926    -1.540667  0.079548073   -2.8427926    1.3021257   439061 
  684000   0.86986921   -2.8443604   -2.8443604   -1.5395595   0.07731995   -2.8443604    1.3048008   439061 
  685000   0.86860426   -2.8443506   -2.8443506   -1.5414472  0.083056134   -2.8443506    1.3029034   439061 
  686000   0.86764069   -2.8435505   -2.8435505   -1.5420924   0.07941261   -2.8435505    1.3014581   439061 
  687000   0.86857733   -2.8468705   -2.8468705   -1.5440075  0.078257165   -2.8468705     1.302863   439061 
  688000    0.8702744   -2.8499978   -2.8499978   -1.5445892  0.076463103   -2.8499978    1.3054086   439061 
  689000   0.86790686   -2.8461926   -2.8461926   -1.5443353  0.079618867   -2.8461926    1.3018573   439061 
  690000   0.86838102   -2.8482127   -2.8482127   -1.5456441  0.074468325   -2.8482127    1.3025686   439061 
  691000   0.86814159   -2.8487878   -2.8487878   -1.5465784  0.075053866   -2.8487878    1.3022094   439061 
  692000   0.86990986   -2.8508698   -2.8508698    -1.546008  0.076438264   -2.8508698    1.3048618   439061 
  693000   0.86761706   -2.8470593   -2.8470593   -1.5456367  0.077361071   -2.8470593    1.3014226   439061 
  694000   0.86772282    -2.849808    -2.849808   -1.5482267  0.076640437    -2.849808    1.3015813   439061 
  695000    0.8663905   -2.8489459   -2.8489459   -1.5493631  0.075489638   -2.8489459    1.2995828   439061 
  696000   0.86779993   -2.8499856   -2.8499856   -1.5482887  0.081436387   -2.8499856    1.3016969   439061 
  697000   0.86630907   -2.8481945   -2.8481945   -1.5487339  0.075683616   -2.8481945    1.2994606   439061 
  698000   0.86636448   -2.8494762   -2.8494762   -1.5499325  0.076297977   -2.8494762    1.2995438   439061 
  699000   0.86664334   -2.8500486   -2.8500486   -1.5500865  0.076366918   -2.8500486    1.2999621   439061 
  700000   0.86597934   -2.8500791   -2.8500791    -1.551113  0.079927036   -2.8500791    1.2989661   439061 
  701000   0.86799949   -2.8529326   -2.8529326   -1.5509364  0.076209557   -2.8529326    1.3019963   439061 
  702000   0.86638674   -2.8506116   -2.8506116   -1.5510345  0.074462765   -2.8506116    1.2995772   439061 
  703000   0.86775951   -2.8533286   -2.8533286   -1.5516923  0.076397063   -2.8533286    1.3016363   439061 
  704000   0.86757396   -2.8533574   -2.8533574   -1.5519994  0.079198389   -2.8533574     1.301358   439061 
  705000   0.86738003   -2.8534452   -2.8534452   -1.5523781  0.076716006   -2.8534452    1.3010671   439061 
  706000   0.86844802   -2.8551704   -2.8551704   -1.5525013  0.077188312   -2.8551704    1.3026691   439061 
  707000   0.86801292   -2.8561282   -2.8561282   -1.5541118  0.076663567   -2.8561282    1.3020164   439061 
  708000   0.86885077   -2.8580236   -2.8580236   -1.5547504  0.077405967   -2.8580236    1.3032732   439061 
  709000   0.86865529   -2.8583141   -2.8583141   -1.5553341  0.079654736   -2.8583141      1.30298   439061 
  710000   0.86706989    -2.856197    -2.856197   -1.5555951  0.080715588    -2.856197    1.3006019   439061 
  711000   0.86740173   -2.8574299   -2.8574299   -1.5563303  0.081084018   -2.8574299    1.3010996   439061 
  712000   0.86655692   -2.8567455   -2.8567455    -1.556913  0.075771164   -2.8567455    1.2998324   439061 
  713000   0.86722858   -2.8580737   -2.8580737   -1.5572338  0.076354751   -2.8580737    1.3008399   439061 
  714000   0.86710332   -2.8584439   -2.8584439   -1.5577919  0.077736063   -2.8584439     1.300652   439061 
  715000   0.86614829   -2.8587333   -2.8587333   -1.5595138  0.074481053   -2.8587333    1.2992195   439061 
  716000   0.86674731   -2.8596945   -2.8596945   -1.5595765  0.078380552   -2.8596945     1.300118   439061 
  717000   0.86644826   -2.8601484   -2.8601484    -1.560479  0.077165022   -2.8601484    1.2996694   439061 
  718000    0.8663521   -2.8603572   -2.8603572   -1.5608321  0.073868965   -2.8603572    1.2995252   439061 
  719000   0.86547483   -2.8585462   -2.8585462    -1.560337  0.078020839   -2.8585462    1.2982093   439061 
  720000    0.8666757   -2.8610668   -2.8610668   -1.5610563   0.07632946   -2.8610668    1.3000106   439061 
  721000    0.8664082   -2.8616722   -2.8616722   -1.5620628  0.075994525   -2.8616722    1.2996093   439061 
  722000   0.86482748    -2.858105    -2.858105   -1.5608667  0.080049738    -2.858105    1.2972383   439061 
  723000   0.86620972   -2.8608076   -2.8608076    -1.561496  0.076862798   -2.8608076    1.2993116   439061 
  724000   0.86613006   -2.8606011   -2.8606011   -1.5614089  0.080810022   -2.8606011    1.2991921   439061 
  725000   0.86595485   -2.8618907   -2.8618907   -1.5629614  0.078651377   -2.8618907    1.2989293   439061 
  726000   0.86756987   -2.8629975   -2.8629975   -1.5616456  0.082057714   -2.8629975    1.3013518   439061 
  727000   0.86706958   -2.8629949   -2.8629949   -1.5623935  0.079591994   -2.8629949    1.3006014   439061 
  728000   0.86722724   -2.8639447   -2.8639447   -1.5631068   0.07958622   -2.8639447    1.3008379   439061 
  729000   0.86758923   -2.8644333   -2.8644333   -1.5630524  0.079005582   -2.8644333    1.3013809   439061 
  730000   0.86732627   -2.8645268   -2.8645268   -1.5635404  0.079173601   -2.8645268    1.3009864   439061 
  731000   0.86712121   -2.8636496   -2.8636496   -1.5629707  0.077649211   -2.8636496    1.3006789   439061 
  732000   0.86531941   -2.8635874   -2.8635874   -1.5656113   0.07886945   -2.8635874    1.2979762   439061 
  733000   0.86388996   -2.8627065   -2.8627065   -1.5668745  0.077018478   -2.8627065     1.295832   439061 
  734000   0.86562195    -2.864583    -2.864583    -1.566153  0.075388095    -2.864583      1.29843   439061 
  735000   0.86467844   -2.8629682   -2.8629682   -1.5659535  0.076958654   -2.8629682    1.2970147   439061 
  736000   0.86591721   -2.8657093   -2.8657093   -1.5668364  0.073804924   -2.8657093    1.2988729   439061 
  737000   0.86330863    -2.863666    -2.863666    -1.568706  0.070832468    -2.863666      1.29496   439061 
  738000   0.86360472   -2.8641772   -2.8641772    -1.568773  0.074642952   -2.8641772    1.2954041   439061 
  739000    0.8640967   -2.8652905   -2.8652905   -1.5691484  0.072687681   -2.8652905    1.2961421   439061 
  740000   0.86384128   -2.8656009   -2.8656009   -1.5698419  0.073139579   -2.8656009     1.295759   439061 
  741000   0.86430952    -2.865205    -2.865205   -1.5687437  0.074197392    -2.865205    1.2964613   439061 
  742000    0.8648388   -2.8671517   -2.8671517   -1.5698965  0.072845171   -2.8671517    1.2972552   439061 
  743000   0.86257515   -2.8643731   -2.8643731   -1.5705133  0.075292149   -2.8643731    1.2938598   439061 
  744000   0.86336959   -2.8663628   -2.8663628   -1.5713113  0.073828959   -2.8663628    1.2950514   439061 
  745000   0.86482386   -2.8685818   -2.8685818   -1.5713489  0.071168315   -2.8685818    1.2972328   439061 
  746000   0.86618771   -2.8698699   -2.8698699   -1.5705913  0.078686287   -2.8698699    1.2992786   439061 
  747000   0.86493054   -2.8689343   -2.8689343   -1.5715415  0.078465732   -2.8689343    1.2973929   439061 
  748000    0.8661109   -2.8701337   -2.8701337   -1.5709703    0.0727881   -2.8701337    1.2991634   439061 
  749000   0.86533525   -2.8689106   -2.8689106   -1.5709107  0.078938285   -2.8689106    1.2979999   439061 
  750000   0.86533536   -2.8690422   -2.8690422   -1.5710421  0.077156243   -2.8690422    1.2980001   439061 
  751000   0.86540131   -2.8711546   -2.8711546   -1.5730556  0.075403042   -2.8711546     1.298099   439061 
  752000   0.86497052    -2.872149    -2.872149   -1.5746962  0.077518329    -2.872149    1.2974528   439061 
  753000   0.86352239   -2.8702211   -2.8702211   -1.5749405  0.071583991   -2.8702211    1.2952806   439061 
  754000    0.8654285   -2.8729497   -2.8729497   -1.5748099  0.075300316   -2.8729497    1.2981398   439061 
  755000   0.86452666   -2.8716417   -2.8716417   -1.5748547   0.07737315   -2.8716417     1.296787   439061 
  756000   0.86622222   -2.8753145   -2.8753145   -1.5759841  0.074365967   -2.8753145    1.2993304   439061 
  757000   0.86528004   -2.8737128   -2.8737128   -1.5757957  0.075577883   -2.8737128    1.2979171   439061 
  758000    0.8653828   -2.8748442   -2.8748442    -1.576773  0.077488643   -2.8748442    1.2980712   439061 
  759000   0.86557091   -2.8759139   -2.8759139   -1.5775605  0.079761182   -2.8759139    1.2983534   439061 
  760000   0.86438197   -2.8738283   -2.8738283   -1.5772583   0.07784479   -2.8738283      1.29657   439061 
  761000   0.86614115   -2.8766616   -2.8766616   -1.5774528  0.075563554   -2.8766616    1.2992088   439061 
  762000   0.86482058   -2.8763702   -2.8763702   -1.5791423  0.077787885   -2.8763702    1.2972279   439061 
  763000   0.86459071   -2.8773751   -2.8773751    -1.580492  0.079241951   -2.8773751    1.2968831   439061 
  764000   0.86571127   -2.8789315   -2.8789315   -1.5803675  0.075878188   -2.8789315     1.298564   439061 
  765000    0.8634927   -2.8774199   -2.8774199   -1.5821838  0.073989288   -2.8774199    1.2952361   439061 
  766000   0.86357466   -2.8783791   -2.8783791   -1.5830201  0.076346075   -2.8783791     1.295359   439061 
  767000   0.86341041   -2.8782684   -2.8782684   -1.5831558  0.078114246   -2.8782684    1.2951127   439061 
  768000   0.86328032   -2.8776106   -2.8776106   -1.5826931  0.073348318   -2.8776106    1.2949175   439061 
  769000   0.86293462   -2.8764072   -2.8764072   -1.5820082  0.076321189   -2.8764072     1.294399   439061 
  770000   0.86387593   -2.8792782   -2.8792782   -1.5834673  0.072250555   -2.8792782    1.2958109   439061 
  771000   0.86317505   -2.8787335   -2.8787335   -1.5839739  0.069958688   -2.8787335    1.2947596   439061 
  772000   0.86215238   -2.8772049   -2.8772049   -1.5839793  0.073858113   -2.8772049    1.2932256   439061 
  773000   0.86330137   -2.8777502   -2.8777502   -1.5828011  0.076328653   -2.8777502    1.2949491   439061 
  774000    0.8641864   -2.8811001   -2.8811001   -1.5848235  0.071574367   -2.8811001    1.2962766   439061 
  775000    0.8628214    -2.879161    -2.879161   -1.5849319  0.076202697    -2.879161    1.2942291   439061 
  776000   0.86335421   -2.8791582   -2.8791582   -1.5841299  0.075171225   -2.8791582    1.2950284   439061 
  777000   0.86207719    -2.879921    -2.879921   -1.5868081   0.07447343    -2.879921    1.2931128   439061 
  778000   0.86271803   -2.8815007   -2.8815007   -1.5874266  0.073789894   -2.8815007    1.2940741   439061 
  779000   0.86266008   -2.8807371   -2.8807371     -1.58675  0.077705861   -2.8807371    1.2939872   439061 
  780000   0.86321913   -2.8824215   -2.8824215   -1.5875958  0.073102599   -2.8824215    1.2948258   439061 
  781000   0.86268225   -2.8819614   -2.8819614    -1.587941  0.082384527   -2.8819614    1.2940204   439061 
  782000    0.8626461    -2.882304    -2.882304   -1.5883378  0.072775767    -2.882304    1.2939662   439061 
  783000   0.86353142    -2.882137    -2.882137   -1.5868428   0.07504463    -2.882137    1.2952942   439061 
  784000   0.86225395   -2.8812845   -2.8812845   -1.5879065  0.078391103   -2.8812845     1.293378   439061 
  785000   0.86334225   -2.8837029   -2.8837029   -1.5886925  0.076583267   -2.8837029    1.2950104   439061 
  786000   0.86232056   -2.8827191   -2.8827191   -1.5892412  0.073999348   -2.8827191    1.2934779   439061 
  787000   0.86223587   -2.8832321   -2.8832321   -1.5898813  0.075763554   -2.8832321    1.2933509   439061 
  788000    0.8607808   -2.8832437   -2.8832437   -1.5920755  0.070447132   -2.8832437    1.2911683   439061 
  789000    0.8621969   -2.8847726   -2.8847726   -1.5914802  0.070650488   -2.8847726    1.2932924   439061 
  790000   0.86096343   -2.8832621   -2.8832621   -1.5918199  0.072132948   -2.8832621    1.2914422   439061 
  791000   0.86098712   -2.8839532   -2.8839532   -1.5924755  0.072778173   -2.8839532    1.2914777   439061 
  792000    0.8618994   -2.8866135   -2.8866135   -1.5937674  0.073373918   -2.8866135    1.2928462   439061 
  793000   0.86109514    -2.885279    -2.885279   -1.5936393  0.072322161    -2.885279    1.2916398   439061 
  794000   0.86219778    -2.887032    -2.887032   -1.5937383    0.0715855    -2.887032    1.2932937   439061 
  795000   0.86158268   -2.8869743   -2.8869743   -1.5946033  0.072531795   -2.8869743    1.2923711   439061 
  796000   0.86193779   -2.8880802   -2.8880802   -1.5951764  0.069609844   -2.8880802    1.2929037   439061 
  797000   0.86161871   -2.8891569   -2.8891569   -1.5967318  0.071010823   -2.8891569    1.2924251   439061 
  798000   0.86147537   -2.8888591   -2.8888591    -1.596649  0.071428267   -2.8888591    1.2922101   439061 
  799000   0.86174763   -2.8902285   -2.8902285     -1.59761  0.071328163   -2.8902285    1.2926185   439061 
  800000   0.86346801   -2.8927232   -2.8927232   -1.5975241  0.072381275   -2.8927232    1.2951991   439061 
  801000   0.86178724   -2.8904984   -2.8904984   -1.5978205  0.078122809   -2.8904984    1.2926779   439061 
  802000   0.86134746    -2.891318    -2.891318   -1.5992998  0.075427284    -2.891318    1.2920183   439061 
  803000   0.86249439   -2.8924238   -2.8924238   -1.5986851  0.074422359   -2.8924238    1.2937386   439061 
  804000   0.86187331   -2.8930341   -2.8930341   -1.6002271  0.073852142   -2.8930341     1.292807   439061 
  805000   0.86194509   -2.8934884   -2.8934884   -1.6005737  0.075782949   -2.8934884    1.2929147   439061 
  806000   0.86063877   -2.8928079   -2.8928079   -1.6018527  0.071355103   -2.8928079    1.2909552   439061 
  807000   0.86181667   -2.8934848   -2.8934848   -1.6007627  0.074965896   -2.8934848    1.2927221   439061 
  808000   0.86288168   -2.8953371   -2.8953371   -1.6010175  0.073911861   -2.8953371    1.2943196   439061 
  809000   0.86237904    -2.894381    -2.894381   -1.6008154  0.076886715    -2.894381    1.2935656   439061 
  810000    0.8617457   -2.8934976   -2.8934976    -1.600882  0.071598215   -2.8934976    1.2926156   439061 
  811000   0.86210259   -2.8945853   -2.8945853   -1.6014344  0.073303244   -2.8945853    1.2931509   439061 
  812000   0.86037254   -2.8928234   -2.8928234   -1.6022675  0.076658223   -2.8928234    1.2905559   439061 
  813000    0.8602851   -2.8928957   -2.8928957    -1.602471  0.076844022   -2.8928957    1.2904247   439061 
  814000   0.86157177   -2.8946468   -2.8946468   -1.6022921  0.076967016   -2.8946468    1.2923547   439061 
  815000   0.86043687   -2.8944453   -2.8944453   -1.6037929  0.067648284   -2.8944453    1.2906524   439061 
  816000   0.86140035   -2.8948966   -2.8948966    -1.602799  0.070577205   -2.8948966    1.2920976   439061 
  817000   0.86003258   -2.8947991   -2.8947991   -1.6047532  0.074200381   -2.8947991    1.2900459   439061 
  818000   0.86074329   -2.8958416   -2.8958416   -1.6047296  0.070285171   -2.8958416     1.291112   439061 
  819000   0.86187255   -2.8970497   -2.8970497   -1.6042438  0.076772856   -2.8970497    1.2928059   439061 
  820000   0.86070103   -2.8965434   -2.8965434   -1.6054948  0.075208882   -2.8965434    1.2910486   439061 
  821000   0.86083284    -2.897162    -2.897162   -1.6059157  0.078163249    -2.897162    1.2912463   439061 
  822000   0.86134975   -2.8991519   -2.8991519   -1.6071302  0.068297192   -2.8991519    1.2920217   439061 
  823000   0.85994136   -2.8974093   -2.8974093   -1.6075002  0.073766326   -2.8974093    1.2899091   439061 
  824000   0.86009341   -2.8975395   -2.8975395   -1.6074024   0.06722867   -2.8975395    1.2901372   439061 
  825000   0.86113701   -2.8990484   -2.8990484   -1.6073458  0.076427913   -2.8990484    1.2917026   439061 
  826000   0.85984017   -2.8977488   -2.8977488   -1.6079915  0.076000427   -2.8977488    1.2897573   439061 
  827000   0.86010468   -2.8980897   -2.8980897   -1.6079356  0.073405459   -2.8980897    1.2901541   439061 
  828000   0.86046051   -2.8989223   -2.8989223   -1.6082344  0.070669971   -2.8989223    1.2906878   439061 
  829000   0.86042569   -2.8986074   -2.8986074   -1.6079718  0.071189501   -2.8986074    1.2906356   439061 
  830000   0.86122308    -2.899905    -2.899905   -1.6080734  0.073111082    -2.899905    1.2918317   439061 
  831000    0.8617505   -2.9006131   -2.9006131   -1.6079903  0.077643844   -2.9006131    1.2926228   439061 
  832000   0.86080083   -2.9002233   -2.9002233    -1.609025  0.071869136   -2.9002233    1.2911983   439061 
  833000   0.86091035   -2.9013718   -2.9013718   -1.6100092   0.07035845   -2.9013718    1.2913626   439061 
  834000   0.86024975   -2.9002231   -2.9002231   -1.6098514  0.076263573   -2.9002231    1.2903717   439061 
  835000   0.86082418   -2.9015096   -2.9015096   -1.6102763  0.072488355   -2.9015096    1.2912333   439061 
  836000   0.86096856   -2.9016808   -2.9016808   -1.6102309  0.069700899   -2.9016808    1.2914499   439061 
  837000   0.85935448   -2.9008305   -2.9008305   -1.6118017  0.074629476   -2.9008305    1.2890288   439061 
  838000   0.86128238    -2.902348    -2.902348   -1.6104274  0.066338086    -2.902348    1.2919206   439061 
  839000   0.85981178   -2.9007387   -2.9007387    -1.611024  0.071756631   -2.9007387    1.2897147   439061 
  840000   0.86063375   -2.9009665   -2.9009665   -1.6100188  0.074399729   -2.9009665    1.2909477   439061 
  841000   0.85965446   -2.9006678   -2.9006678    -1.611189  0.071225658   -2.9006678    1.2894788   439061 
  842000   0.86004168    -2.900916    -2.900916   -1.6108565  0.069813915    -2.900916    1.2900596   439061 
  843000    0.8597373   -2.9001754   -2.9001754   -1.6105723  0.070888244   -2.9001754     1.289603   439061 
  844000   0.85930199   -2.9004555   -2.9004555   -1.6115055  0.073507687   -2.9004555    1.2889501   439061 
  845000   0.85924956   -2.9011975   -2.9011975    -1.612326  0.071013922   -2.9011975    1.2888714   439061 
  846000   0.86055533   -2.9032845   -2.9032845   -1.6124544  0.070968183   -2.9032845    1.2908301   439061 
  847000   0.85906793   -2.9020786   -2.9020786   -1.6134796  0.072574197   -2.9020786     1.288599   439061 
  848000   0.85915775   -2.9037314   -2.9037314   -1.6149977  0.074115664   -2.9037314    1.2887337   439061 
  849000   0.85912496   -2.9043413   -2.9043413   -1.6156568  0.071262297   -2.9043413    1.2886845   439061 
  850000    0.8602531    -2.905938    -2.905938   -1.6155613  0.069854779    -2.905938    1.2903767   439061 
  851000   0.85890731   -2.9047109   -2.9047109   -1.6163528  0.072951828   -2.9047109     1.288358   439061 
  852000   0.85919882   -2.9049366   -2.9049366   -1.6161413  0.068984275   -2.9049366    1.2887953   439061 
  853000    0.8586805   -2.9049128   -2.9049128    -1.616895  0.077673726   -2.9049128    1.2880178   439061 
  854000   0.85999566   -2.9078886   -2.9078886    -1.617898  0.073884681   -2.9078886    1.2899906   439061 
  855000   0.85988108    -2.907433    -2.907433   -1.6176143  0.074372216    -2.907433    1.2898187   439061 
  856000   0.86016426   -2.9075423   -2.9075423   -1.6172988  0.077821416   -2.9075423    1.2902435   439061 
  857000   0.86056947   -2.9093928   -2.9093928   -1.6185415  0.074356988   -2.9093928    1.2908513   439061 
  858000   0.85841833   -2.9069902   -2.9069902   -1.6193656  0.073892105   -2.9069902    1.2876246   439061 
  859000   0.85840711   -2.9076177   -2.9076177     -1.62001  0.069393347   -2.9076177    1.2876077   439061 
  860000    0.8596501   -2.9097218   -2.9097218   -1.6202496  0.070575684   -2.9097218    1.2894722   439061 
  861000   0.85824173   -2.9081648   -2.9081648   -1.6208051  0.066871769   -2.9081648    1.2873597   439061 
  862000   0.85807119   -2.9084487   -2.9084487   -1.6213448  0.069731282   -2.9084487    1.2871039   439061 
  863000   0.85822315   -2.9094102   -2.9094102   -1.6220784   0.06409276   -2.9094102    1.2873318   439061 
  864000   0.85816399   -2.9081217   -2.9081217   -1.6208787  0.071007876   -2.9081217    1.2872431   439061 
  865000   0.85760827   -2.9065276   -2.9065276   -1.6201181  0.070681372   -2.9065276    1.2864095   439061 
  866000   0.85881846   -2.9072518   -2.9072518    -1.619027  0.071030589   -2.9072518    1.2882248   439061 
  867000   0.85859392   -2.9073065   -2.9073065   -1.6194186  0.073801027   -2.9073065     1.287888   439061 
  868000   0.85882503   -2.9078069   -2.9078069   -1.6195723  0.071801702   -2.9078069    1.2882346   439061 
  869000   0.85792844    -2.907846    -2.907846   -1.6209563  0.071813966    -2.907846    1.2868897   439061 
  870000   0.85787793   -2.9077562   -2.9077562   -1.6209422  0.068795973   -2.9077562     1.286814   439061 
  871000   0.85880332   -2.9108739   -2.9108739   -1.6226718  0.073610604   -2.9108739     1.288202   439061 
  872000    0.8598205    -2.911819    -2.911819   -1.6220912  0.072093474    -2.911819    1.2897278   439061 
  873000   0.85925963   -2.9115684   -2.9115684   -1.6226818  0.070616408   -2.9115684    1.2888865   439061 
  874000   0.85825614   -2.9100251   -2.9100251   -1.6226438  0.070279754   -2.9100251    1.2873813   439061 
  875000   0.85891529   -2.9116339   -2.9116339   -1.6232639  0.071969688   -2.9116339      1.28837   439061 
  876000   0.85942704   -2.9131764   -2.9131764   -1.6240388  0.072160367   -2.9131764    1.2891376   439061 
  877000   0.85928518   -2.9133474   -2.9133474   -1.6244226  0.070070926   -2.9133474    1.2889248   439061 
  878000   0.85798682   -2.9125208   -2.9125208   -1.6255435   0.06769759   -2.9125208    1.2869773   439061 
  879000   0.85932023   -2.9140897   -2.9140897   -1.6251122   0.07039038   -2.9140897    1.2889774   439061 
  880000   0.85814686   -2.9124635   -2.9124635   -1.6252462  0.070548382   -2.9124635    1.2872174   439061 
  881000   0.85900795   -2.9143989   -2.9143989     -1.62589  0.069566974   -2.9143989     1.288509   439061 
  882000   0.85712962   -2.9123338   -2.9123338   -1.6266423  0.070533802   -2.9123338    1.2856915   439061 
  883000   0.85818718   -2.9142273   -2.9142273   -1.6269494  0.071083269   -2.9142273    1.2872778   439061 
  884000   0.85753912   -2.9147729   -2.9147729   -1.6284671  0.069491564   -2.9147729    1.2863057   439061 
  885000   0.85792912   -2.9153077   -2.9153077    -1.628417  0.068704396   -2.9153077    1.2868908   439061 
  886000   0.85862358   -2.9160815   -2.9160815    -1.628149  0.068880042   -2.9160815    1.2879324   439061 
  887000   0.85814075    -2.916452    -2.916452   -1.6292438  0.070743036    -2.916452    1.2872082   439061 
  888000   0.85852749   -2.9167143   -2.9167143    -1.628926  0.071063412   -2.9167143    1.2877883   439061 
  889000   0.85803816   -2.9161518   -2.9161518   -1.6290975  0.069209322   -2.9161518    1.2870543   439061 
  890000    0.8571787    -2.915999    -2.915999   -1.6302339  0.075592899    -2.915999    1.2857651   439061 
  891000   0.85847125   -2.9182828   -2.9182828   -1.6305788  0.071246671   -2.9182828    1.2877039   439061 
  892000   0.85660451   -2.9161597   -2.9161597   -1.6312559  0.068593952   -2.9161597    1.2849038   439061 
  893000   0.85675688   -2.9162944   -2.9162944    -1.631162  0.070603347   -2.9162944    1.2851324   439061 
  894000   0.85614025   -2.9147942   -2.9147942   -1.6305867  0.069991793   -2.9147942    1.2842075   439061 
  895000   0.85705047    -2.917112    -2.917112   -1.6315393  0.069134886    -2.917112    1.2855728   439061 
  896000   0.85795005   -2.9185108   -2.9185108   -1.6315887  0.066352044   -2.9185108    1.2869222   439061 
  897000   0.85616959   -2.9166493   -2.9166493   -1.6323979  0.069863731   -2.9166493    1.2842515   439061 
  898000   0.85606379   -2.9178381   -2.9178381   -1.6337454  0.074717288   -2.9178381    1.2840928   439061 
  899000   0.85710054   -2.9182854   -2.9182854   -1.6326375  0.073330708   -2.9182854    1.2856479   439061 
  900000   0.85624759   -2.9167268   -2.9167268   -1.6323583  0.070616274   -2.9167268    1.2843685   439061 
  901000   0.85819399   -2.9197789   -2.9197789   -1.6324909  0.072721883   -2.9197789     1.287288   439061 
  902000   0.85763168   -2.9197985   -2.9197985   -1.6333539  0.071244327   -2.9197985    1.2864446   439061 
  903000   0.85757638   -2.9201813   -2.9201813   -1.6338197  0.073096777   -2.9201813    1.2863616   439061 
  904000   0.85792131   -2.9209999   -2.9209999   -1.6341209  0.071853564   -2.9209999     1.286879   439061 
  905000   0.85839741   -2.9219601   -2.9219601   -1.6343669  0.072532123   -2.9219601    1.2875932   439061 
  906000   0.85622294   -2.9199852   -2.9199852   -1.6356537  0.075640051   -2.9199852    1.2843315   439061 
  907000   0.85669487   -2.9201752   -2.9201752   -1.6351358  0.070992244   -2.9201752    1.2850394   439061 
  908000   0.85784139    -2.922553    -2.922553   -1.6357939  0.071699448    -2.922553    1.2867591   439061 
  909000   0.85748087   -2.9225167   -2.9225167   -1.6362983   0.07267514   -2.9225167    1.2862184   439061 
  910000     0.857724   -2.9224142   -2.9224142   -1.6358311  0.072221679   -2.9224142    1.2865831   439061 
  911000   0.85762739   -2.9236545   -2.9236545   -1.6372164  0.068369278   -2.9236545    1.2864382   439061 
  912000    0.8571443   -2.9226427   -2.9226427   -1.6369292  0.071185754   -2.9226427    1.2857135   439061 
  913000   0.85637873   -2.9231009   -2.9231009   -1.6385358  0.067561074   -2.9231009    1.2845652   439061 
  914000   0.85612249    -2.922401    -2.922401   -1.6382202  0.071499958    -2.922401    1.2841808   439061 
  915000   0.85638211   -2.9228716   -2.9228716   -1.6383014  0.066613088   -2.9228716    1.2845702   439061 
  916000   0.85692245   -2.9234353   -2.9234353   -1.6380546  0.067637801   -2.9234353    1.2853808   439061 
  917000   0.85563937    -2.922174    -2.922174   -1.6387179   0.06769528    -2.922174    1.2834561   439061 
  918000   0.85586873   -2.9224351   -2.9224351   -1.6386349  0.068590614   -2.9224351    1.2838002   439061 
  919000   0.85466345   -2.9224719   -2.9224719   -1.6404797  0.066093572   -2.9224719    1.2819923   439061 
  920000   0.85422874    -2.922314    -2.922314   -1.6409738  0.069892704    -2.922314    1.2813402   439061 
  921000   0.85575516   -2.9248079   -2.9248079   -1.6411781  0.067384248   -2.9248079    1.2836298   439061 
  922000   0.85504989   -2.9238641   -2.9238641   -1.6412922  0.069766415   -2.9238641    1.2825719   439061 
  923000   0.85649091     -2.92523     -2.92523   -1.6404966  0.069473423     -2.92523    1.2847334   439061 
  924000    0.8566285   -2.9261992   -2.9261992   -1.6412594  0.072618808   -2.9261992    1.2849398   439061 
  925000   0.85655481   -2.9271848   -2.9271848   -1.6423555  0.071548713   -2.9271848    1.2848293   439061 
  926000   0.85651801   -2.9285436   -2.9285436   -1.6437695    0.0664323   -2.9285436    1.2847741   439061 
  927000   0.85638853   -2.9292681   -2.9292681   -1.6446882  0.071190987   -2.9292681    1.2845799   439061 
  928000   0.85607059    -2.929043    -2.929043   -1.6449401  0.070083161    -2.929043     1.284103   439061 
  929000   0.85593902   -2.9307378   -2.9307378   -1.6468322  0.069186556   -2.9307378    1.2839056   439061 
  930000   0.85537122   -2.9289224   -2.9289224   -1.6458685  0.075095736   -2.9289224    1.2830539   439061 
  931000   0.85730455   -2.9322909   -2.9322909    -1.646337  0.072287053   -2.9322909    1.2859539   439061 
  932000   0.85694561   -2.9333209   -2.9333209   -1.6479054  0.071588726   -2.9333209    1.2854155   439061 
  933000   0.85865419   -2.9352509   -2.9352509   -1.6472725  0.071948833   -2.9352509    1.2879784   439061 
  934000   0.85409137    -2.930277    -2.930277   -1.6491428  0.071223799    -2.930277    1.2811341   439061 
  935000   0.85438025    -2.931374    -2.931374   -1.6498065   0.07122065    -2.931374    1.2815675   439061 
  936000    0.8547286   -2.9321219   -2.9321219    -1.650032  0.071675448   -2.9321219      1.28209   439061 
  937000   0.85422042   -2.9314478   -2.9314478   -1.6501201  0.072670696   -2.9314478    1.2813277   439061 
  938000   0.85550582   -2.9332519   -2.9332519   -1.6499961  0.068481735   -2.9332519    1.2832558   439061 
  939000   0.85453324   -2.9336668   -2.9336668   -1.6518698  0.065872002   -2.9336668    1.2817969   439061 
  940000   0.85481787   -2.9340496   -2.9340496   -1.6518257  0.067183564   -2.9340496    1.2822239   439061 
  941000   0.85486494   -2.9339796   -2.9339796   -1.6516851  0.065960277   -2.9339796    1.2822945   439061 
  942000   0.85396631   -2.9326278   -2.9326278   -1.6516813  0.067669949   -2.9326278    1.2809465   439061 
  943000   0.85374211   -2.9325876   -2.9325876   -1.6519774  0.064425994   -2.9325876    1.2806103   439061 
  944000   0.85516185   -2.9350856   -2.9350856   -1.6523457   0.06676018   -2.9350856    1.2827398   439061 
  945000   0.85351517   -2.9328101   -2.9328101   -1.6525402  0.067347997   -2.9328101    1.2802698   439061 
  946000   0.85311942   -2.9317908   -2.9317908   -1.6521146  0.070043391   -2.9317908    1.2796762   439061 
  947000    0.8547602   -2.9341512   -2.9341512   -1.6520138  0.069259205   -2.9341512    1.2821374   439061 
  948000   0.85496256   -2.9341353   -2.9341353   -1.6516944  0.068889584   -2.9341353    1.2824409   439061 
  949000   0.85587473   -2.9352461   -2.9352461   -1.6514369   0.06936358   -2.9352461    1.2838092   439061 
  950000   0.85580005    -2.934325    -2.934325   -1.6506278   0.07102944    -2.934325    1.2836972   439061 
  951000   0.85512184   -2.9362469   -2.9362469   -1.6535671  0.064103516   -2.9362469    1.2826798   439061 
  952000   0.85333407    -2.934241    -2.934241   -1.6542428  0.070950598    -2.934241    1.2799982   439061 
  953000   0.85435814   -2.9367769   -2.9367769   -1.6552426  0.064964825   -2.9367769    1.2815343   439061 
  954000    0.8546453   -2.9362772   -2.9362772   -1.6543121  0.065180767   -2.9362772     1.281965   439061 
  955000   0.85477593   -2.9358961   -2.9358961   -1.6537352  0.069410313   -2.9358961     1.282161   439061 
  956000   0.85475811   -2.9361232   -2.9361232    -1.653989  0.072840257   -2.9361232    1.2821342   439061 
  957000   0.85513292   -2.9361737   -2.9361737   -1.6534772  0.070297971   -2.9361737    1.2826965   439061 
  958000   0.85510183   -2.9373553   -2.9373553   -1.6547055  0.067441441   -2.9373553    1.2826498   439061 
  959000     0.854669   -2.9386569   -2.9386569   -1.6566563  0.067252805   -2.9386569    1.2820006   439061 
  960000   0.85620259   -2.9398517   -2.9398517   -1.6555508  0.065095204   -2.9398517     1.284301   439061 
  961000    0.8548337   -2.9388372   -2.9388372   -1.6565895  0.064368062   -2.9388372    1.2822476   439061 
  962000   0.85547296   -2.9393023   -2.9393023   -1.6560958   0.06759525   -2.9393023    1.2832065   439061 
  963000   0.85517772     -2.93983     -2.93983   -1.6570663  0.068860877     -2.93983    1.2827637   439061 
  964000   0.85436464   -2.9392334   -2.9392334   -1.6576894   0.06894872   -2.9392334     1.281544   439061 
  965000    0.8541042   -2.9388058   -2.9388058   -1.6576524  0.073302036   -2.9388058    1.2811534   439061 
  966000    0.8550136   -2.9405305   -2.9405305    -1.658013  0.063885353   -2.9405305    1.2825175   439061 
  967000   0.85407411   -2.9404782   -2.9404782     -1.65937  0.065817994   -2.9404782    1.2811082   439061 
  968000   0.85497349   -2.9411794   -2.9411794   -1.6587221  0.071820131   -2.9411794    1.2824573   439061 
  969000   0.85414769   -2.9428104   -2.9428104   -1.6615918  0.069156001   -2.9428104    1.2812186   439061 
  970000   0.85525268   -2.9441366   -2.9441366   -1.6612605  0.068453675   -2.9441366    1.2828761   439061 
  971000    0.8534304   -2.9428784   -2.9428784   -1.6627357  0.069702769   -2.9428784    1.2801427   439061 
  972000   0.85434525   -2.9441046   -2.9441046   -1.6625897  0.067112116   -2.9441046     1.281515   439061 
  973000   0.85311761   -2.9439196   -2.9439196   -1.6642461  0.067514982   -2.9439196    1.2796735   439061 
  974000   0.85390498   -2.9457251   -2.9457251   -1.6648705  0.071815332   -2.9457251    1.2808545   439061 
  975000   0.85363488   -2.9472116   -2.9472116   -1.6667622  0.065252197   -2.9472116    1.2804494   439061 
  976000   0.85378868   -2.9465671   -2.9465671    -1.665887  0.070656079   -2.9465671    1.2806801   439061 
  977000   0.85476209     -2.94745     -2.94745   -1.6653097  0.064806363     -2.94745    1.2821402   439061 
  978000   0.85296125   -2.9453807   -2.9453807   -1.6659417  0.070326829   -2.9453807     1.279439   439061 
  979000   0.85474655   -2.9477009   -2.9477009    -1.665584  0.068936067   -2.9477009    1.2821169   439061 
  980000   0.85389652   -2.9473342   -2.9473342   -1.6664923  0.068548944   -2.9473342    1.2808419   439061 
  981000   0.85568526   -2.9488998   -2.9488998   -1.6653749  0.069625669   -2.9488998     1.283525   439061 
  982000   0.85434062   -2.9473311   -2.9473311   -1.6658231  0.071439031   -2.9473311     1.281508   439061 
  983000   0.85513896   -2.9477289   -2.9477289   -1.6650234  0.071788005   -2.9477289    1.2827055   439061 
  984000    0.8551544   -2.9478451   -2.9478451   -1.6651164  0.069234897   -2.9478451    1.2827287   439061 
  985000   0.85476321   -2.9477779   -2.9477779    -1.665636  0.073209625   -2.9477779    1.2821419   439061 
  986000   0.85467408   -2.9488076   -2.9488076   -1.6667994  0.067175354   -2.9488076    1.2820082   439061 
  987000   0.85525382   -2.9492597   -2.9492597   -1.6663819   0.06840817   -2.9492597    1.2828778   439061 
  988000   0.85370921   -2.9479642   -2.9479642   -1.6674033  0.064475813   -2.9479642    1.2805609   439061 
  989000   0.85206569   -2.9463352   -2.9463352   -1.6682396  0.067916688   -2.9463352    1.2780956   439061 
  990000   0.85232666   -2.9468362   -2.9468362   -1.6683492  0.067535169   -2.9468362    1.2784871   439061 
  991000   0.85462769   -2.9507639   -2.9507639   -1.6688253  0.061769669   -2.9507639    1.2819386   439061 
  992000   0.85341835   -2.9493684   -2.9493684   -1.6692438  0.065061648   -2.9493684    1.2801246   439061 
  993000   0.85372962   -2.9491723   -2.9491723   -1.6685808  0.068648987   -2.9491723    1.2805915   439061 
  994000   0.85287542   -2.9485372   -2.9485372   -1.6692269  0.065352067   -2.9485372    1.2793102   439061 
  995000   0.85242252   -2.9491773   -2.9491773   -1.6705465  0.065035395   -2.9491773    1.2786309   439061 
  996000   0.85220569   -2.9491499   -2.9491499   -1.6708443   0.07095571   -2.9491499    1.2783056   439061 
  997000   0.85332542   -2.9510888   -2.9510888   -1.6711035  0.066290133   -2.9510888    1.2799852   439061 
  998000   0.85263327   -2.9505129   -2.9505129   -1.6715659  0.066350506   -2.9505129     1.278947   439061 
  999000   0.85313436   -2.9515865   -2.9515865   -1.6718878  0.067731173   -2.9515865    1.2796986   439061 
 1000000   0.85378017   -2.9511741   -2.9511741   -1.6705067  0.066341322   -2.9511741    1.2806673   439061 
 1001000   0.85180495   -2.9491832   -2.9491832   -1.6714787  0.070923888   -2.9491832    1.2777045   439061 
 1002000   0.85364297   -2.9528092   -2.9528092   -1.6723477  0.070913463   -2.9528092    1.2804615   439061 
 1003000   0.85085654    -2.949439    -2.949439   -1.6731571  0.070123165    -2.949439    1.2762819   439061 
 1004000     0.853027   -2.9518479   -2.9518479   -1.6723103  0.071869554   -2.9518479    1.2795376   439061 
 1005000   0.85347783   -2.9526609   -2.9526609   -1.6724471  0.065420819   -2.9526609    1.2802138   439061 
 1006000   0.85224614   -2.9514072   -2.9514072   -1.6730409  0.064502665   -2.9514072    1.2783663   439061 
 1007000   0.85167691   -2.9526161   -2.9526161   -1.6751036  0.065180099   -2.9526161    1.2775125   439061 
 1008000   0.85256377   -2.9532934   -2.9532934   -1.6744506  0.063908143   -2.9532934    1.2788427   439061 
 1009000   0.85311295   -2.9539192   -2.9539192   -1.6742527  0.071077767   -2.9539192    1.2796665   439061 
 1010000   0.85213231   -2.9538773   -2.9538773   -1.6756818  0.068960391   -2.9538773    1.2781955   439061 
 1011000   0.85172669   -2.9525272   -2.9525272   -1.6749401  0.066798456   -2.9525272    1.2775871   439061 
 1012000   0.85305241   -2.9539676   -2.9539676   -1.6743919  0.071410479   -2.9539676    1.2795757   439061 
 1013000   0.85283681    -2.954204    -2.954204   -1.6749517  0.071686785    -2.954204    1.2792523   439061 
 1014000   0.85428729   -2.9568699   -2.9568699   -1.6754419  0.068151187   -2.9568699     1.281428   439061 
 1015000    0.8534272   -2.9555597   -2.9555597   -1.6754218  0.067210697   -2.9555597    1.2801379   439061 
 1016000   0.85444068   -2.9575784   -2.9575784   -1.6759203   0.06806528   -2.9575784    1.2816581   439061 
 1017000   0.85294423   -2.9560161   -2.9560161   -1.6766027  0.068145972   -2.9560161    1.2794134   439061 
 1018000    0.8539023   -2.9568724   -2.9568724   -1.6760219  0.069840765   -2.9568724    1.2808505   439061 
 1019000   0.85359371    -2.957173    -2.957173   -1.6767853  0.072803384    -2.957173    1.2803876   439061 
 1020000   0.85407593   -2.9576088   -2.9576088   -1.6764978  0.067031276   -2.9576088     1.281111   439061 
 1021000   0.85289524    -2.958031    -2.958031    -1.678691  0.063767027    -2.958031    1.2793399   439061 
 1022000   0.85209082   -2.9581255   -2.9581255   -1.6799922  0.067231826   -2.9581255    1.2781333   439061 
 1023000    0.8531264   -2.9594633   -2.9594633   -1.6797766  0.067294623   -2.9594633    1.2796867   439061 
 1024000   0.85167605   -2.9578828   -2.9578828   -1.6803716   0.06577294   -2.9578828    1.2775112   439061 
 1025000   0.85346256   -2.9612481   -2.9612481   -1.6810572  0.066096326   -2.9612481    1.2801909   439061 
 1026000   0.85234664   -2.9591862   -2.9591862   -1.6806692  0.067901324   -2.9591862     1.278517   439061 
 1027000   0.85265931   -2.9597566   -2.9597566   -1.6807705  0.069359478   -2.9597566     1.278986   439061 
 1028000   0.85102163   -2.9583932   -2.9583932   -1.6818637  0.069134579   -2.9583932    1.2765295   439061 
 1029000    0.8525919   -2.9590827   -2.9590827   -1.6801977  0.071375186   -2.9590827    1.2788849   439061 
 1030000   0.85347529   -2.9619388   -2.9619388   -1.6817288  0.071780736   -2.9619388      1.28021   439061 
 1031000   0.85348204   -2.9610522   -2.9610522   -1.6808321  0.063964342   -2.9610522    1.2802201   439061 
 1032000   0.85273063    -2.960574    -2.960574    -1.681481  0.067326344    -2.960574     1.279093   439061 
 1033000   0.85190248   -2.9603243   -2.9603243   -1.6824735  0.068679174   -2.9603243    1.2778508   439061 
 1034000   0.85149519   -2.9596967   -2.9596967   -1.6824568  0.071650361   -2.9596967    1.2772399   439061 
 1035000   0.85092752   -2.9602815   -2.9602815   -1.6838931  0.071274632   -2.9602815    1.2763884   439061 
 1036000   0.85054495   -2.9598154   -2.9598154   -1.6840009  0.068621463   -2.9598154    1.2758145   439061 
 1037000   0.85191307   -2.9608653   -2.9608653   -1.6829986   0.06512987   -2.9608653    1.2778667   439061 
 1038000   0.85317453   -2.9631326   -2.9631326   -1.6833737   0.06468513   -2.9631326    1.2797589   439061 
 1039000   0.85269529   -2.9623552   -2.9623552   -1.6833152  0.070318923   -2.9623552      1.27904   439061 
 1040000   0.85263252    -2.963357    -2.963357   -1.6844111  0.065706482    -2.963357    1.2789459   439061 
 1041000   0.85296427   -2.9628181   -2.9628181   -1.6833746  0.067935308   -2.9628181    1.2794435   439061 
 1042000   0.85303055   -2.9637529   -2.9637529     -1.68421  0.065616466   -2.9637529    1.2795429   439061 
 1043000   0.85301101   -2.9643421   -2.9643421   -1.6848285  0.067364257   -2.9643421    1.2795136   439061 
 1044000   0.85252957   -2.9639815   -2.9639815   -1.6851901  0.069437764   -2.9639815    1.2787914   439061 
 1045000   0.85296027   -2.9636249   -2.9636249   -1.6841874  0.072220124   -2.9636249    1.2794375   439061 
 1046000   0.85313392   -2.9665909   -2.9665909   -1.6868929  0.068201818   -2.9665909     1.279698   439061 
 1047000   0.85191051   -2.9649424   -2.9649424   -1.6870795  0.070906447   -2.9649424    1.2778629   439061 
 1048000   0.85242736   -2.9665709   -2.9665709   -1.6879328  0.066138286   -2.9665709    1.2786381   439061 
 1049000   0.85170392   -2.9658583   -2.9658583   -1.6883053  0.068991836   -2.9658583     1.277553   439061 
 1050000   0.85203459   -2.9670123   -2.9670123   -1.6889633  0.066885136   -2.9670123     1.278049   439061 
 1051000   0.85224681   -2.9673995   -2.9673995   -1.6890323  0.069903464   -2.9673995    1.2783673   439061 
 1052000   0.85206987   -2.9678352   -2.9678352   -1.6897333  0.066751664   -2.9678352    1.2781019   439061 
 1053000   0.85170488   -2.9665219   -2.9665219   -1.6889675  0.069288081   -2.9665219    1.2775544   439061 
 1054000   0.85171882   -2.9676938   -2.9676938   -1.6901185  0.064951837   -2.9676938    1.2775753   439061 
 1055000   0.85204532   -2.9673783   -2.9673783   -1.6893132  0.066398965   -2.9673783    1.2780651   439061 
 1056000    0.8504467   -2.9658883   -2.9658883   -1.6902212  0.068442714   -2.9658883    1.2756672   439061 
 1057000    0.8518971   -2.9671879   -2.9671879   -1.6893451  0.068710791   -2.9671879    1.2778427   439061 
 1058000   0.85148009   -2.9670248   -2.9670248   -1.6898076  0.068753209   -2.9670248    1.2772172   439061 
 1059000   0.85135529   -2.9673056   -2.9673056   -1.6902756  0.067541661   -2.9673056      1.27703   439061 
 1060000   0.85275164   -2.9693514   -2.9693514   -1.6902268  0.067302899   -2.9693514    1.2791246   439061 
 1061000   0.85167795   -2.9672746   -2.9672746   -1.6897606  0.068906008   -2.9672746     1.277514   439061 
 1062000   0.85225342   -2.9690144   -2.9690144   -1.6906372  0.064678616   -2.9690144    1.2783772   439061 
 1063000   0.85110819   -2.9660246   -2.9660246   -1.6893652  0.069802804   -2.9660246    1.2766594   439061 
 1064000    0.8511111   -2.9662092   -2.9662092   -1.6895455  0.069312845   -2.9662092    1.2766637   439061 
 1065000   0.85066009   -2.9672374   -2.9672374   -1.6912501  0.068887581   -2.9672374    1.2759872   439061 
 1066000   0.85133878     -2.96889     -2.96889   -1.6918848   0.06712907     -2.96889    1.2770053   439061 
 1067000   0.85082159   -2.9686008   -2.9686008   -1.6923713  0.063127025   -2.9686008    1.2762295   439061 
 1068000   0.84979819   -2.9672345   -2.9672345   -1.6925401  0.066989223   -2.9672345    1.2746944   439061 
 1069000   0.84919191   -2.9671842   -2.9671842   -1.6933992  0.064144541   -2.9671842     1.273785   439061 
 1070000   0.84868399   -2.9678801   -2.9678801    -1.694857  0.062322839   -2.9678801    1.2730231   439061 
 1071000   0.84879258   -2.9673945   -2.9673945   -1.6942085  0.067584752   -2.9673945     1.273186   439061 
 1072000   0.84849367   -2.9681275   -2.9681275   -1.6953899  0.066561095   -2.9681275    1.2727376   439061 
 1073000   0.85010529   -2.9696542   -2.9696542   -1.6944991  0.068511288   -2.9696542     1.275155   439061 
 1074000   0.84996647   -2.9703863   -2.9703863   -1.6954395   0.07114676   -2.9703863    1.2749468   439061 
 1075000   0.84960694   -2.9712531   -2.9712531   -1.6968456  0.066860138   -2.9712531    1.2744075   439061 
 1076000   0.85002681   -2.9710379   -2.9710379   -1.6960006  0.064061115   -2.9710379    1.2750373   439061 
 1077000   0.85045203   -2.9724698   -2.9724698   -1.6967947  0.066195102   -2.9724698    1.2756751   439061 
 1078000   0.85053233   -2.9723655   -2.9723655   -1.6965699  0.068911593   -2.9723655    1.2757956   439061 
 1079000   0.85077533   -2.9732849   -2.9732849   -1.6971248   0.06622651   -2.9732849    1.2761601   439061 
 1080000    0.8495645   -2.9728026   -2.9728026   -1.6984588  0.070471147   -2.9728026    1.2743438   439061 
 1081000   0.84989543   -2.9729995   -2.9729995   -1.6981593  0.067426761   -2.9729995    1.2748402   439061 
 1082000   0.85062484   -2.9757564   -2.9757564   -1.6998221  0.064583058   -2.9757564    1.2759344   439061 
 1083000   0.85013175   -2.9747897   -2.9747897   -1.6995949  0.063473405   -2.9747897    1.2751947   439061 
 1084000    0.8508087   -2.9774688   -2.9774688   -1.7012586   0.06715199   -2.9774688    1.2762102   439061 
 1085000   0.84967966   -2.9753138   -2.9753138   -1.7007973  0.065899515   -2.9753138    1.2745166   439061 
 1086000    0.8503325   -2.9764953   -2.9764953   -1.7009995  0.067785088   -2.9764953    1.2754958   439061 
 1087000   0.84960588   -2.9762629   -2.9762629    -1.701857  0.067670111   -2.9762629    1.2744059   439061 
 1088000    0.8491898   -2.9752052   -2.9752052   -1.7014234  0.068679445   -2.9752052    1.2737818   439061 
 1089000   0.85019612   -2.9765073   -2.9765073   -1.7012161   0.06555262   -2.9765073    1.2752913   439061 
 1090000   0.85040231   -2.9770402   -2.9770402   -1.7014397  0.068185033   -2.9770402    1.2756006   439061 
 1091000   0.85156381   -2.9779953   -2.9779953   -1.7006525  0.064637439   -2.9779953    1.2773428   439061 
 1092000   0.85070748   -2.9781122   -2.9781122   -1.7020539  0.064447287   -2.9781122    1.2760583   439061 
 1093000   0.85065518   -2.9786155   -2.9786155   -1.7026357  0.067566454   -2.9786155    1.2759799   439061 
 1094000   0.84925184   -2.9760388   -2.9760388   -1.7021639   0.06427468   -2.9760388    1.2738749   439061 
 1095000   0.85020108   -2.9773094   -2.9773094   -1.7020107  0.060251838   -2.9773094    1.2752987   439061 
 1096000   0.84984928   -2.9780068   -2.9780068   -1.7032358  0.068454418   -2.9780068     1.274771   439061 
 1097000   0.84958958   -2.9768701   -2.9768701   -1.7024886  0.069347641   -2.9768701    1.2743815   439061 
 1098000   0.84986966   -2.9778646   -2.9778646    -1.703063  0.060997721   -2.9778646    1.2748016   439061 
 1099000   0.84967952   -2.9784612   -2.9784612   -1.7039449  0.065970163   -2.9784612    1.2745164   439061 
 1100000   0.85125027   -2.9800532   -2.9800532   -1.7031807  0.059279275   -2.9800532    1.2768725   439061 
 1101000   0.84949311   -2.9777343   -2.9777343   -1.7034976  0.069396685   -2.9777343    1.2742368   439061 
 1102000   0.85006121   -2.9792571   -2.9792571   -1.7041681  0.065109316   -2.9792571    1.2750889   439061 
 1103000   0.85027466   -2.9791002   -2.9791002   -1.7036911  0.069295323   -2.9791002    1.2754091   439061 
 1104000   0.85036499   -2.9790704   -2.9790704   -1.7035258  0.069872272   -2.9790704    1.2755446   439061 
 1105000   0.84981834   -2.9777911   -2.9777911   -1.7030665  0.065790821   -2.9777911    1.2747246   439061 
 1106000   0.84963689   -2.9780482   -2.9780482   -1.7035957  0.067450386   -2.9780482    1.2744524   439061 
 1107000   0.85070079   -2.9795171   -2.9795171   -1.7034688  0.065411342   -2.9795171    1.2760483   439061 
 1108000   0.85085509   -2.9807538   -2.9807538   -1.7044741  0.062225385   -2.9807538    1.2762797   439061 
 1109000   0.84883628   -2.9782368   -2.9782368   -1.7049852  0.067241582   -2.9782368    1.2732515   439061 
 1110000   0.85025952   -2.9808852   -2.9808852   -1.7054988  0.063301955   -2.9808852    1.2753864   439061 
 1111000   0.84978204   -2.9802414   -2.9802414   -1.7055712  0.063941091   -2.9802414    1.2746702   439061 
 1112000   0.84831472    -2.979108    -2.979108   -1.7066389  0.065645542    -2.979108    1.2724692   439061 
 1113000   0.84833831   -2.9805456   -2.9805456    -1.708041   0.05836354   -2.9805456    1.2725046   439061 
 1114000   0.84842259   -2.9804688   -2.9804688   -1.7078378  0.066279452   -2.9804688     1.272631   439061 
 1115000   0.84928892   -2.9805804   -2.9805804     -1.70665  0.063087508   -2.9805804    1.2739305   439061 
 1116000   0.85032003   -2.9812374   -2.9812374   -1.7057602  0.066560259   -2.9812374    1.2754771   439061 
 1117000   0.84991275   -2.9800397   -2.9800397   -1.7051735  0.064549576   -2.9800397    1.2748662   439061 
 1118000   0.84942492   -2.9792858   -2.9792858   -1.7051514  0.071436316   -2.9792858    1.2741345   439061 
 1119000    0.8498962    -2.980075    -2.980075   -1.7052336  0.072107604    -2.980075    1.2748414   439061 
 1120000   0.84907801   -2.9812399   -2.9812399   -1.7076258  0.065042775   -2.9812399    1.2736141   439061 
 1121000   0.84860196   -2.9823794   -2.9823794   -1.7094794  0.062657016   -2.9823794       1.2729   439061 
 1122000   0.84765496   -2.9809833   -2.9809833   -1.7095037  0.061817751   -2.9809833    1.2714795   439061 
 1123000   0.84804207   -2.9819882   -2.9819882    -1.709928  0.065069941   -2.9819882    1.2720602   439061 
 1124000   0.84799726   -2.9823757   -2.9823757   -1.7103828  0.063694475   -2.9823757     1.271993   439061 
 1125000   0.84952989   -2.9845647   -2.9845647   -1.7102728   0.06406886   -2.9845647    1.2742919   439061 
 1126000   0.84751747   -2.9824964   -2.9824964   -1.7112231  0.065624253   -2.9824964    1.2712733   439061 
 1127000    0.8472225   -2.9824796   -2.9824796   -1.7116487  0.068316891   -2.9824796    1.2708308   439061 
 1128000   0.84868674    -2.984627    -2.984627   -1.7115998    0.0637636    -2.984627    1.2730272   439061 
 1129000   0.84873642   -2.9857832   -2.9857832   -1.7126815  0.063534306   -2.9857832    1.2731017   439061 
 1130000   0.84999858   -2.9863021   -2.9863021   -1.7113071  0.067049612   -2.9863021     1.274995   439061 
 1131000   0.84821339   -2.9844131   -2.9844131   -1.7120959   0.06349827   -2.9844131    1.2723172   439061 
 1132000   0.84845433   -2.9859948   -2.9859948   -1.7133162  0.066072734   -2.9859948    1.2726786   439061 
 1133000   0.84952131   -2.9873808   -2.9873808   -1.7131017  0.066551161   -2.9873808    1.2742791   439061 
 1134000   0.84850785   -2.9861064   -2.9861064   -1.7133475  0.066615333   -2.9861064    1.2727589   439061 
 1135000   0.84982171   -2.9890215   -2.9890215   -1.7142918  0.064125711   -2.9890215    1.2747297   439061 
 1136000   0.84883985   -2.9871322   -2.9871322   -1.7138754  0.067287663   -2.9871322    1.2732569   439061 
 1137000   0.84740965   -2.9860705   -2.9860705   -1.7149589  0.063840231   -2.9860705    1.2711116   439061 
 1138000   0.84803467   -2.9872805   -2.9872805   -1.7152314  0.066227896   -2.9872805    1.2720491   439061 
 1139000   0.84864978   -2.9891167   -2.9891167   -1.7161449  0.062960199   -2.9891167    1.2729718   439061 
 1140000   0.84840412   -2.9892896   -2.9892896   -1.7166863  0.066110486   -2.9892896    1.2726033   439061 
 1141000   0.84817802   -2.9898232   -2.9898232   -1.7175591  0.066426556   -2.9898232    1.2722641   439061 
 1142000   0.84846897   -2.9898886   -2.9898886    -1.717188  0.065522911   -2.9898886    1.2727006   439061 
 1143000   0.84724677   -2.9881595   -2.9881595   -1.7172922  0.066749811   -2.9881595    1.2708673   439061 
 1144000   0.84797048    -2.990291    -2.990291   -1.7183381  0.069159341    -2.990291    1.2719528   439061 
 1145000    0.8478675   -2.9905594   -2.9905594    -1.718761  0.066157611   -2.9905594    1.2717984   439061 
 1146000   0.84879989   -2.9916102   -2.9916102   -1.7184133  0.062900894   -2.9916102    1.2731969   439061 
 1147000   0.84850946   -2.9922037   -2.9922037   -1.7194424  0.064517935   -2.9922037    1.2727613   439061 
 1148000   0.84781232   -2.9907234   -2.9907234   -1.7190078  0.068197916   -2.9907234    1.2717156   439061 
 1149000    0.8483408   -2.9916202   -2.9916202   -1.7191119  0.066269154   -2.9916202    1.2725083   439061 
 1150000   0.84792419   -2.9925073   -2.9925073   -1.7206239  0.064562054   -2.9925073    1.2718834   439061 
 1151000   0.84710522   -2.9910158   -2.9910158   -1.7203609  0.062890039   -2.9910158    1.2706549   439061 
 1152000   0.84715928   -2.9918368   -2.9918368   -1.7211008  0.064879417   -2.9918368     1.270736   439061 
 1153000   0.84691823   -2.9914651   -2.9914651   -1.7210906  0.065630832   -2.9914651    1.2703745   439061 
 1154000    0.8478285   -2.9912938   -2.9912938   -1.7195539  0.068769252   -2.9912938    1.2717399   439061 
 1155000   0.84901019    -2.993624    -2.993624   -1.7201116  0.061463042    -2.993624    1.2735124   439061 
 1156000   0.84816179   -2.9921605   -2.9921605   -1.7199207   0.06441297   -2.9921605    1.2722398   439061 
 1157000   0.84740161   -2.9914514   -2.9914514   -1.7203519    0.0656691   -2.9914514    1.2710995   439061 
 1158000   0.84809538   -2.9934537   -2.9934537   -1.7213135  0.064001302   -2.9934537    1.2721402   439061 
 1159000   0.84708387   -2.9932642   -2.9932642   -1.7226413  0.063100316   -2.9932642    1.2706229   439061 
 1160000   0.84669464   -2.9928888   -2.9928888   -1.7228497  0.066726885   -2.9928888    1.2700391   439061 
 1161000   0.84673754   -2.9929024   -2.9929024    -1.722799  0.066656701   -2.9929024    1.2701034   439061 
 1162000   0.84659237   -2.9942344   -2.9942344   -1.7243488  0.062592483   -2.9942344    1.2698857   439061 
 1163000   0.84646868   -2.9940354   -2.9940354   -1.7243353  0.060918745   -2.9940354    1.2697001   439061 
 1164000   0.84592351     -2.99306     -2.99306   -1.7241776  0.063948388     -2.99306    1.2688824   439061 
 1165000   0.84721945   -2.9954758   -2.9954758   -1.7246496   0.06093368   -2.9954758    1.2708263   439061 
 1166000   0.84567471   -2.9946658   -2.9946658   -1.7261566  0.063704775   -2.9946658    1.2685092   439061 
 1167000   0.84639937   -2.9963932   -2.9963932    -1.726797  0.064300056   -2.9963932    1.2695962   439061 
 1168000   0.84605726   -2.9965198   -2.9965198   -1.7274368  0.063555602   -2.9965198     1.269083   439061 
 1169000    0.8472012   -2.9976776   -2.9976776   -1.7268787  0.059455184   -2.9976776    1.2707989   439061 
 1170000   0.84769499   -2.9986555   -2.9986555   -1.7271159  0.066532645   -2.9986555    1.2715396   439061 
 1171000   0.84704162   -2.9992692   -2.9992692   -1.7287096  0.062839481   -2.9992692    1.2705595   439061 
 1172000   0.84865103   -3.0009717   -3.0009717   -1.7279981  0.065215776   -3.0009717    1.2729736   439061 
 1173000   0.84819679   -3.0000923   -3.0000923      -1.7278  0.065910755   -3.0000923    1.2722923   439061 
 1174000   0.84788575   -2.9993463   -2.9993463   -1.7275206  0.066736037   -2.9993463    1.2718257   439061 
 1175000   0.84749689   -3.0003506   -3.0003506   -1.7291082  0.063324399   -3.0003506    1.2712424   439061 
 1176000   0.84584055   -2.9988718   -2.9988718   -1.7301139  0.062110045   -2.9988718    1.2687579   439061 
 1177000   0.84519402   -2.9982754   -2.9982754   -1.7304872  0.064897636   -2.9982754    1.2677881   439061 
 1178000   0.84700221   -2.9996736   -2.9996736   -1.7291732   0.06341846   -2.9996736    1.2705004   439061 
 1179000   0.84648701   -3.0001595   -3.0001595   -1.7304318  0.066530781   -3.0001595    1.2697276   439061 
 1180000    0.8466952   -3.0007196   -3.0007196   -1.7306797   0.06385099   -3.0007196    1.2700399   439061 
 1181000   0.84619421   -3.0005648   -3.0005648   -1.7312763  0.062800127   -3.0005648    1.2692884   439061 
 1182000   0.84597828   -3.0002461   -3.0002461   -1.7312816  0.062675241   -3.0002461    1.2689645   439061 
 1183000   0.84667551   -3.0014063   -3.0014063   -1.7313959  0.058617191   -3.0014063    1.2700104   439061 
 1184000   0.84652454   -3.0012937   -3.0012937   -1.7315098  0.057881498   -3.0012937    1.2697839   439061 
 1185000   0.84722673   -3.0020522   -3.0020522    -1.731215  0.063282993   -3.0020522    1.2708372   439061 
 1186000   0.84622385   -3.0008479   -3.0008479    -1.731515  0.067043189   -3.0008479    1.2693329   439061 
 1187000   0.84578455   -3.0007234   -3.0007234   -1.7320495  0.064425704   -3.0007234    1.2686739   439061 
 1188000   0.84632369   -3.0013007   -3.0013007   -1.7318181  0.065392536   -3.0013007    1.2694826   439061 
 1189000   0.84707115   -3.0035608   -3.0035608    -1.732957  0.059001435   -3.0035608    1.2706038   439061 
 1190000   0.84550547    -3.001291    -3.001291   -1.7330357  0.061421563    -3.001291    1.2682553   439061 
 1191000   0.84558338   -3.0017899   -3.0017899   -1.7334178  0.067193245   -3.0017899    1.2683722   439061 
 1192000   0.84625276   -3.0028453   -3.0028453   -1.7334691  0.066297394   -3.0028453    1.2693762   439061 
 1193000   0.84709971   -3.0028675   -3.0028675   -1.7322208  0.061975793   -3.0028675    1.2706467   439061 
 1194000   0.84733783   -3.0031699   -3.0031699   -1.7321661  0.063255831   -3.0031699    1.2710038   439061 
 1195000   0.84836863   -3.0055637   -3.0055637   -1.7330137  0.066518431   -3.0055637    1.2725501   439061 
 1196000   0.84905563   -3.0066994   -3.0066994   -1.7331189  0.060408708   -3.0066994    1.2735805   439061 
 1197000   0.84721533   -3.0041543   -3.0041543   -1.7333342  0.063412714   -3.0041543    1.2708201   439061 
 1198000    0.8469718   -3.0039696   -3.0039696   -1.7335148  0.066920859   -3.0039696    1.2704548   439061 
 1199000   0.84681678   -3.0046259   -3.0046259   -1.7344036  0.063236015   -3.0046259    1.2702223   439061 
 1200000   0.84703109   -3.0046277   -3.0046277   -1.7340839  0.068286954   -3.0046277    1.2705437   439061 
 1201000   0.84673427    -3.005395    -3.005395   -1.7352965  0.060479167    -3.005395    1.2700985   439061 
 1202000   0.84561604   -3.0043821   -3.0043821   -1.7359609  0.068454453   -3.0043821    1.2684212   439061 
 1203000   0.84448118   -3.0030899   -3.0030899    -1.736371  0.062579087   -3.0030899    1.2667189   439061 
 1204000   0.84642214   -3.0064966   -3.0064966   -1.7368663  0.060376089   -3.0064966    1.2696303   439061 
 1205000   0.84649903   -3.0065253   -3.0065253   -1.7367797  0.059510602   -3.0065253    1.2697457   439061 
 1206000   0.84591214   -3.0052402   -3.0052402   -1.7363749  0.064796346   -3.0052402    1.2688653   439061 
 1207000   0.84618844     -3.00497     -3.00497   -1.7356903  0.066847501     -3.00497    1.2692798   439061 
 1208000   0.84687005   -3.0063905   -3.0063905   -1.7360884  0.066308259   -3.0063905    1.2703022   439061 
 1209000   0.84580874   -3.0045308   -3.0045308   -1.7358206  0.066042486   -3.0045308    1.2687102   439061 
 1210000   0.84748196   -3.0058655   -3.0058655   -1.7346455   0.06001262   -3.0058655      1.27122   439061 
 1211000   0.84605549   -3.0038035   -3.0038035   -1.7347232    0.0658081   -3.0038035    1.2690803   439061 
 1212000   0.84662837   -3.0056623   -3.0056623   -1.7357226  0.063104953   -3.0056623    1.2699397   439061 
 1213000   0.84603841   -3.0051881   -3.0051881   -1.7361333   0.06240232   -3.0051881    1.2690547   439061 
 1214000   0.84633032   -3.0053423   -3.0053423   -1.7358497   0.06735021   -3.0053423    1.2694926   439061 
 1215000    0.8465856   -3.0045903   -3.0045903   -1.7347148  0.062906409   -3.0045903    1.2698755   439061 
 1216000   0.84540388   -3.0039574   -3.0039574   -1.7358545    0.0649939   -3.0039574    1.2681029   439061 
 1217000   0.84560674   -3.0052741   -3.0052741   -1.7368668  0.065409753   -3.0052741    1.2684072   439061 
 1218000   0.84624736   -3.0065679   -3.0065679   -1.7371997  0.062917607   -3.0065679    1.2693682   439061 
 1219000   0.84604514   -3.0067422   -3.0067422   -1.7376773  0.059743929   -3.0067422    1.2690648   439061 
 1220000   0.84567865   -3.0061856   -3.0061856   -1.7376706  0.058665346   -3.0061856    1.2685151   439061 
 1221000   0.84540185   -3.0059908   -3.0059908    -1.737891  0.059893969   -3.0059908    1.2680999   439061 
 1222000   0.84474617   -3.0070811   -3.0070811   -1.7399647  0.060193462   -3.0070811    1.2671164   439061 
 1223000   0.84461899   -3.0056561   -3.0056561   -1.7387305  0.065165754   -3.0056561    1.2669256   439061 
 1224000   0.84477926   -3.0078547   -3.0078547   -1.7406887   0.05777435   -3.0078547     1.267166   439061 
 1225000   0.84656516   -3.0112941   -3.0112941   -1.7414493  0.058465034   -3.0112941    1.2698448   439061 
 1226000   0.84440536   -3.0086609   -3.0086609   -1.7420557  0.066044056   -3.0086609    1.2666052   439061 
 1227000   0.84619754   -3.0114593   -3.0114593   -1.7421659  0.063698946   -3.0114593    1.2692934   439061 
 1228000   0.84649904    -3.012745    -3.012745   -1.7429993   0.05952081    -3.012745    1.2697457   439061 
 1229000   0.84712618    -3.013384    -3.013384   -1.7426977  0.064291012    -3.013384    1.2706864   439061 
 1230000   0.84680257   -3.0148934   -3.0148934   -1.7446924  0.062297998   -3.0148934     1.270201   439061 
 1231000   0.84708239   -3.0157198   -3.0157198   -1.7450991  0.062795494   -3.0157198    1.2706207   439061 
 1232000   0.84729105   -3.0147202   -3.0147202   -1.7437865  0.065095155   -3.0147202    1.2709337   439061 
 1233000    0.8474441   -3.0162618   -3.0162618   -1.7450985   0.06011527   -3.0162618    1.2711632   439061 
 1234000   0.84586721   -3.0123959   -3.0123959    -1.743598  0.072618792   -3.0123959    1.2687979   439061 
 1235000   0.84755085   -3.0163215   -3.0163215   -1.7449981   0.06767233   -3.0163215    1.2713234   439061 
 1236000   0.84643984   -3.0149278   -3.0149278   -1.7452709   0.06402705   -3.0149278    1.2696569   439061 
 1237000   0.84637519   -3.0152711   -3.0152711   -1.7457112   0.06667733   -3.0152711    1.2695599   439061 
 1238000   0.84497193   -3.0149154   -3.0149154   -1.7474604  0.066102179   -3.0149154     1.267455   439061 
 1239000    0.8446773   -3.0151755   -3.0151755   -1.7481625  0.061810943   -3.0151755    1.2670131   439061 
 1240000   0.84481667   -3.0162837   -3.0162837   -1.7490616  0.061136304   -3.0162837    1.2672221   439061 
 1241000   0.84384148   -3.0154108   -3.0154108   -1.7496514  0.056801786   -3.0154108    1.2657593   439061 
 1242000   0.84449223   -3.0151398   -3.0151398   -1.7484043  0.061096582   -3.0151398    1.2667355   439061 
 1243000   0.84475808   -3.0168813   -3.0168813    -1.749747  0.061299684   -3.0168813    1.2671342   439061 
 1244000   0.84470784   -3.0160037   -3.0160037   -1.7489448  0.061573304   -3.0160037    1.2670589   439061 
 1245000   0.84383338   -3.0146666   -3.0146666   -1.7489194  0.065680183   -3.0146666    1.2657472   439061 
 1246000   0.84541228   -3.0181513   -3.0181513   -1.7500357   0.05820708   -3.0181513    1.2681155   439061 
 1247000   0.84447363   -3.0169077   -3.0169077   -1.7502001  0.063400408   -3.0169077    1.2667076   439061 
 1248000   0.84543524   -3.0176439   -3.0176439    -1.749494  0.063913244   -3.0176439      1.26815   439061 
 1249000   0.84466382   -3.0176116   -3.0176116   -1.7506187  0.062228174   -3.0176116    1.2669928   439061 
 1250000   0.84490857    -3.018679    -3.018679    -1.751319  0.061820062    -3.018679      1.26736   439061 
 1251000   0.84553803   -3.0183724   -3.0183724   -1.7500682  0.060296734   -3.0183724    1.2683042   439061 
 1252000   0.84662007   -3.0214667   -3.0214667   -1.7515395  0.059645113   -3.0214667    1.2699272   439061 
 1253000   0.84408663   -3.0176881   -3.0176881    -1.751561  0.066938997   -3.0176881    1.2661271   439061 
 1254000   0.84532133   -3.0194927   -3.0194927   -1.7515136  0.062868306   -3.0194927    1.2679791   439061 
 1255000   0.84504292   -3.0192793   -3.0192793   -1.7517178  0.064158872   -3.0192793    1.2675615   439061 
 1256000   0.84360303    -3.017813    -3.017813   -1.7524113   0.06172621    -3.017813    1.2654017   439061 
 1257000   0.84543309   -3.0206524   -3.0206524   -1.7525056  0.057471441   -3.0206524    1.2681467   439061 
 1258000   0.84320367   -3.0182344   -3.0182344   -1.7534317  0.060463354   -3.0182344    1.2648026   439061 
 1259000   0.84209558   -3.0184475   -3.0184475    -1.755307  0.059512268   -3.0184475    1.2631405   439061 
 1260000   0.84217469   -3.0188742   -3.0188742    -1.755615  0.059840104   -3.0188742    1.2632592   439061 
 1261000   0.84239649   -3.0184527   -3.0184527   -1.7548609   0.05621276   -3.0184527    1.2635919   439061 
 1262000   0.84190748   -3.0182581   -3.0182581   -1.7553997  0.062261075   -3.0182581    1.2628583   439061 
 1263000   0.84326307   -3.0200678   -3.0200678   -1.7551761  0.057731598   -3.0200678    1.2648917   439061 
 1264000   0.84294001   -3.0189198   -3.0189198   -1.7545127  0.061719759   -3.0189198    1.2644071   439061 
 1265000   0.84469677   -3.0208711   -3.0208711   -1.7538288  0.062115434   -3.0208711    1.2670423   439061 
 1266000   0.84497037   -3.0212405   -3.0212405   -1.7537879  0.059889976   -3.0212405    1.2674527   439061 
 1267000   0.84440759   -3.0202754   -3.0202754    -1.753667   0.06365237   -3.0202754    1.2666085   439061 
 1268000   0.84469325   -3.0213797   -3.0213797   -1.7543427  0.066384881   -3.0213797     1.267037   439061 
 1269000   0.84598584   -3.0223161   -3.0223161   -1.7533402  0.062550513   -3.0223161    1.2689759   439061 
 1270000   0.84657176   -3.0237651   -3.0237651   -1.7539104  0.060016052   -3.0237651    1.2698547   439061 
 1271000   0.84425469   -3.0215811   -3.0215811    -1.755202  0.067228861   -3.0215811    1.2663792   439061 
 1272000     0.844274   -3.0229463   -3.0229463   -1.7565382  0.064607784   -3.0229463    1.2664081   439061 
 1273000   0.84384055   -3.0232841   -3.0232841   -1.7575261  0.058497355   -3.0232841    1.2657579   439061 
 1274000   0.84393254   -3.0238849   -3.0238849    -1.757989   0.06220532   -3.0238849    1.2658959   439061 
 1275000   0.84322216   -3.0237059   -3.0237059   -1.7588755  0.059284011   -3.0237059    1.2648304   439061 
 1276000   0.84328081   -3.0236156   -3.0236156   -1.7586972  0.060977246   -3.0236156    1.2649183   439061 
 1277000   0.84417756   -3.0244099   -3.0244099   -1.7581464  0.056311015   -3.0244099    1.2662635   439061 
 1278000   0.84337963   -3.0240769   -3.0240769   -1.7590103  0.058408556   -3.0240769    1.2650666   439061 
 1279000   0.84328958   -3.0240773   -3.0240773   -1.7591458  0.060577463   -3.0240773    1.2649315   439061 
 1280000   0.84325092   -3.0244552   -3.0244552   -1.7595817  0.061783301   -3.0244552    1.2648735   439061 
 1281000   0.84421194   -3.0252985   -3.0252985   -1.7589835   0.06144036   -3.0252985     1.266315   439061 
 1282000   0.84442398   -3.0267536   -3.0267536   -1.7601205  0.060386921   -3.0267536    1.2666331   439061 
 1283000   0.84364016   -3.0247208   -3.0247208   -1.7592634   0.06153328   -3.0247208    1.2654574   439061 
 1284000   0.84284501   -3.0234798   -3.0234798   -1.7592152  0.066201857   -3.0234798    1.2642646   439061 
 1285000   0.84387833   -3.0262011   -3.0262011   -1.7603865  0.058824788   -3.0262011    1.2658146   439061 
 1286000   0.84230811    -3.024065    -3.024065   -1.7606058   0.06184998    -3.024065    1.2634593   439061 
 1287000   0.84225785   -3.0239411   -3.0239411   -1.7605572  0.059826095   -3.0239411    1.2633839   439061 
 1288000   0.84270303   -3.0237208   -3.0237208   -1.7596692  0.056408939   -3.0237208    1.2640517   439061 
 1289000   0.84297159   -3.0237459   -3.0237459   -1.7592914  0.059447538   -3.0237459    1.2644545   439061 
 1290000    0.8429224   -3.0253283   -3.0253283   -1.7609476  0.058906062   -3.0253283    1.2643807   439061 
 1291000   0.84346957   -3.0255069   -3.0255069   -1.7603055  0.058243479   -3.0255069    1.2652015   439061 
 1292000   0.84229649   -3.0246745   -3.0246745   -1.7612326  0.058141687   -3.0246745    1.2634419   439061 
 1293000   0.84228595   -3.0236676   -3.0236676   -1.7602415  0.063111817   -3.0236676     1.263426   439061 
 1294000   0.84337175   -3.0251942   -3.0251942   -1.7601394   0.06232952   -3.0251942    1.2650547   439061 
 1295000   0.84462346   -3.0263118   -3.0263118   -1.7593795  0.060501785   -3.0263118    1.2669323   439061 
 1296000   0.84433675   -3.0277939   -3.0277939   -1.7612917  0.055627082   -3.0277939    1.2665022   439061 
 1297000   0.84346723   -3.0268414   -3.0268414   -1.7616435   0.05713354   -3.0268414     1.265198   439061 
 1298000    0.8433849   -3.0261187   -3.0261187   -1.7610442  0.060546096   -3.0261187    1.2650745   439061 
 1299000   0.84237775   -3.0251867   -3.0251867   -1.7616229   0.06426716   -3.0251867    1.2635638   439061 
 1300000   0.84365303   -3.0275248   -3.0275248   -1.7620482   0.06105362   -3.0275248    1.2654767   439061 
 1301000   0.84381644   -3.0268382   -3.0268382   -1.7611164  0.066663848   -3.0268382    1.2657218   439061 
 1302000   0.84278684   -3.0261789   -3.0261789   -1.7620015   0.06452609   -3.0261789    1.2641774   439061 
 1303000   0.84339779   -3.0279126   -3.0279126   -1.7628188   0.06340944   -3.0279126    1.2650938   439061 
 1304000   0.84271988   -3.0274537   -3.0274537   -1.7633767   0.06325363   -3.0274537    1.2640769   439061 
 1305000   0.84227679   -3.0274461   -3.0274461   -1.7640338  0.061466933   -3.0274461    1.2634123   439061 
 1306000   0.84247413   -3.0278693   -3.0278693    -1.764161  0.060310669   -3.0278693    1.2637083   439061 
 1307000   0.84323893    -3.029363    -3.029363   -1.7645075   0.06402897    -3.029363    1.2648555   439061 
 1308000   0.84353737   -3.0301644   -3.0301644   -1.7648612  0.060277028   -3.0301644    1.2653032   439061 
 1309000   0.84390903    -3.029731    -3.029731   -1.7638703   0.05846654    -3.029731    1.2658607   439061 
 1310000   0.84343874   -3.0296177   -3.0296177   -1.7644625  0.067967286   -3.0296177    1.2651552   439061 
 1311000   0.84183551   -3.0288142   -3.0288142   -1.7660638  0.057819221   -3.0288142    1.2627504   439061 
 1312000   0.84257044   -3.0288208   -3.0288208   -1.7649681  0.063778591   -3.0288208    1.2638528   439061 
 1313000   0.84310376   -3.0294752   -3.0294752   -1.7648224  0.066104336   -3.0294752    1.2646528   439061 
 1314000     0.842344   -3.0284078   -3.0284078   -1.7648946  0.064013372   -3.0284078    1.2635131   439061 
 1315000    0.8423487    -3.029423    -3.029423   -1.7659028  0.058298724    -3.029423    1.2635202   439061 
 1316000   0.84329798   -3.0312649   -3.0312649   -1.7663209  0.057083231   -3.0312649    1.2649441   439061 
 1317000   0.84266193   -3.0326955   -3.0326955   -1.7687055  0.057850169   -3.0326955      1.26399   439061 
 1318000   0.84197639   -3.0316464   -3.0316464   -1.7686847  0.062364553   -3.0316464    1.2629617   439061 
 1319000   0.84129736   -3.0306048   -3.0306048   -1.7686616  0.064637031   -3.0306048    1.2619432   439061 
 1320000   0.84204753   -3.0313759   -3.0313759   -1.7683075  0.059439699   -3.0313759    1.2630684   439061 
 1321000   0.84280882   -3.0322527   -3.0322527   -1.7680423  0.062248997   -3.0322527    1.2642104   439061 
 1322000   0.84276449   -3.0333615   -3.0333615   -1.7692176  0.065559948   -3.0333615    1.2641439   439061 
 1323000    0.8421885   -3.0337858   -3.0337858    -1.770506   0.06125563   -3.0337858    1.2632799   439061 
 1324000   0.84129786   -3.0329663   -3.0329663   -1.7710224  0.058375851   -3.0329663    1.2619439   439061 
 1325000   0.84211429   -3.0353672   -3.0353672   -1.7721986  0.059512579   -3.0353672    1.2631686   439061 
 1326000   0.84272608   -3.0356613   -3.0356613   -1.7715751  0.060831207   -3.0356613    1.2640862   439061 
 1327000   0.84271519   -3.0363589   -3.0363589    -1.772289  0.060034787   -3.0363589    1.2640699   439061 
 1328000   0.84295884   -3.0362897   -3.0362897   -1.7718543  0.063859943   -3.0362897    1.2644354   439061 
 1329000   0.84369612   -3.0373904   -3.0373904   -1.7718491  0.062356035   -3.0373904    1.2655413   439061 
 1330000   0.84253326   -3.0375226   -3.0375226   -1.7737256  0.063244999   -3.0375226     1.263797   439061 
 1331000   0.84299442   -3.0379049   -3.0379049   -1.7734161  0.062369167   -3.0379049    1.2644887   439061 
 1332000   0.84407707   -3.0384931   -3.0384931   -1.7723803  0.067459773   -3.0384931    1.2661127   439061 
 1333000   0.84215658    -3.037129    -3.037129    -1.773897  0.066294543    -3.037129     1.263232   439061 
 1334000   0.84339753   -3.0400565   -3.0400565   -1.7749631  0.060424732   -3.0400565    1.2650934   439061 
 1335000   0.84336209   -3.0398587   -3.0398587   -1.7748184  0.060454661   -3.0398587    1.2650403   439061 
 1336000   0.84261752   -3.0387562   -3.0387562   -1.7748328  0.061716764   -3.0387562    1.2639234   439061 
 1337000   0.84057585    -3.037059    -3.037059   -1.7761981  0.063716378    -3.037059    1.2608609   439061 
 1338000   0.84333577   -3.0399751   -3.0399751   -1.7749743  0.063131434   -3.0399751    1.2650008   439061 
 1339000   0.84347235   -3.0398298   -3.0398298   -1.7746242   0.06405385   -3.0398298    1.2652056   439061 
 1340000   0.84221017    -3.039418    -3.039418   -1.7761056  0.066144075    -3.039418    1.2633124   439061 
 1341000   0.84211427   -3.0391766   -3.0391766    -1.776008  0.064251679   -3.0391766    1.2631685   439061 
 1342000   0.84169334   -3.0386301   -3.0386301    -1.776093  0.060058404   -3.0386301    1.2625371   439061 
 1343000   0.84203265   -3.0395789   -3.0395789   -1.7765328  0.063849052   -3.0395789    1.2630461   439061 
 1344000   0.84173905   -3.0383053   -3.0383053   -1.7756996  0.060860943   -3.0383053    1.2626057   439061 
 1345000   0.84288658   -3.0393537   -3.0393537   -1.7750267  0.063208399   -3.0393537     1.264327   439061 
 1346000   0.84336213     -3.04102     -3.04102   -1.7759796  0.063056354     -3.04102    1.2650403   439061 
 1347000   0.84250632   -3.0400394   -3.0400394   -1.7762828  0.057769533   -3.0400394    1.2637566   439061 
 1348000   0.84246066   -3.0398061   -3.0398061    -1.776118  0.055717297   -3.0398061    1.2636881   439061 
 1349000   0.84150989   -3.0378581   -3.0378581   -1.7755961  0.056455453   -3.0378581     1.262262   439061 
 1350000   0.84233644   -3.0398495   -3.0398495   -1.7763477  0.058036528   -3.0398495    1.2635018   439061 
 1351000   0.84093586   -3.0388666   -3.0388666   -1.7774657  0.059021099   -3.0388666    1.2614009   439061 
 1352000   0.84000438   -3.0375648   -3.0375648   -1.7775611  0.058154323   -3.0375648    1.2600037   439061 
 1353000   0.84153222   -3.0395941   -3.0395941   -1.7772987  0.055955526   -3.0395941    1.2622955   439061 
 1354000   0.84024521   -3.0381762   -3.0381762   -1.7778112  0.055951615   -3.0381762    1.2603649   439061 
 1355000   0.84079597   -3.0394392   -3.0394392   -1.7782481  0.056493881   -3.0394392    1.2611911   439061 
 1356000   0.84108462   -3.0416489   -3.0416489   -1.7800249  0.050268131   -3.0416489    1.2616241   439061 
 1357000   0.83878392   -3.0396168   -3.0396168   -1.7814438  0.056114061   -3.0396168     1.258173   439061 
 1358000   0.83853819   -3.0394669   -3.0394669   -1.7816625  0.058841746   -3.0394669    1.2578044   439061 
 1359000   0.83898243   -3.0398325   -3.0398325   -1.7813617  0.058575826   -3.0398325    1.2584708   439061 
 1360000   0.84068467   -3.0416348   -3.0416348   -1.7806107  0.060642534   -3.0416348    1.2610241   439061 
 1361000   0.84055943   -3.0421921   -3.0421921   -1.7813558  0.061398194   -3.0421921    1.2608363   439061 
 1362000   0.84248483   -3.0452914   -3.0452914    -1.781567  0.058222875   -3.0452914    1.2637244   439061 
 1363000    0.8419475   -3.0459627   -3.0459627   -1.7830443  0.060666758   -3.0459627    1.2629184   439061 
 1364000   0.84201749   -3.0445918   -3.0445918   -1.7815685  0.059751084   -3.0445918    1.2630234   439061 
 1365000   0.84224278   -3.0455783   -3.0455783    -1.782217  0.064917957   -3.0455783    1.2633613   439061 
 1366000    0.8426473   -3.0472473   -3.0472473   -1.7832792   0.06194561   -3.0472473    1.2639681   439061 
 1367000   0.84171588   -3.0453833   -3.0453833   -1.7828124  0.057764368   -3.0453833    1.2625709   439061 
 1368000   0.84153196   -3.0459046   -3.0459046   -1.7836095  0.066275488   -3.0459046    1.2622951   439061 
 1369000   0.84153673   -3.0468349   -3.0468349   -1.7845327   0.06221123   -3.0468349    1.2623022   439061 
 1370000   0.84200892   -3.0495964   -3.0495964   -1.7865859  0.059969806   -3.0495964    1.2630105   439061 
 1371000   0.84126495   -3.0478656   -3.0478656   -1.7859711   0.06131647   -3.0478656    1.2618945   439061 
 1372000   0.84165293   -3.0494769   -3.0494769   -1.7870004  0.062004724   -3.0494769    1.2624765   439061 
 1373000   0.84203664   -3.0505459   -3.0505459   -1.7874938   0.05796489   -3.0505459    1.2630521   439061 
 1374000   0.84155672   -3.0494777   -3.0494777   -1.7871455  0.063624397   -3.0494777    1.2623322   439061 
 1375000   0.84078102   -3.0490697   -3.0490697    -1.787901  0.058421365   -3.0490697    1.2611687   439061 
 1376000   0.84070288   -3.0483481   -3.0483481   -1.7872966  0.067141861   -3.0483481    1.2610514   439061 
 1377000    0.8404956   -3.0495393   -3.0495393   -1.7887988  0.061788235   -3.0495393    1.2607405   439061 
 1378000   0.84053948   -3.0503104   -3.0503104    -1.789504  0.056260843   -3.0503104    1.2608063   439061 
 1379000   0.84065116   -3.0497917   -3.0497917   -1.7888178  0.060454535   -3.0497917    1.2609739   439061 
 1380000   0.83936117   -3.0490794   -3.0490794   -1.7900405  0.056491002   -3.0490794    1.2590389   439061 
 1381000    0.8403994   -3.0508231   -3.0508231   -1.7902268  0.057547335   -3.0508231    1.2605962   439061 
 1382000   0.83947406   -3.0484582   -3.0484582   -1.7892499  0.059764367   -3.0484582    1.2592082   439061 
 1383000   0.84152637     -3.05216     -3.05216   -1.7898733  0.058325523     -3.05216    1.2622867   439061 
 1384000   0.83996491   -3.0491453   -3.0491453   -1.7892009  0.058607313   -3.0491453    1.2599445   439061 
 1385000   0.84075093   -3.0516779   -3.0516779   -1.7905544  0.061104247   -3.0516779    1.2611235   439061 
 1386000   0.83987738   -3.0505986   -3.0505986   -1.7907854  0.059212261   -3.0505986    1.2598132   439061 
 1387000   0.83908735   -3.0504463   -3.0504463   -1.7918182  0.061649114   -3.0504463    1.2586282   439061 
 1388000   0.83887776   -3.0506045   -3.0506045   -1.7922908  0.055711793   -3.0506045    1.2583138   439061 
 1389000   0.84117185   -3.0533893   -3.0533893   -1.7916344  0.059493095   -3.0533893    1.2617549   439061 
 1390000    0.8409803   -3.0535996   -3.0535996    -1.792132  0.060416432   -3.0535996    1.2614676   439061 
 1391000   0.84148619   -3.0544879   -3.0544879   -1.7922615  0.059032659   -3.0544879    1.2622264   439061 
 1392000   0.84036842   -3.0546371   -3.0546371   -1.7940874  0.060805703   -3.0546371    1.2605498   439061 
 1393000   0.84052812    -3.054602    -3.054602   -1.7938127  0.061017875    -3.054602    1.2607893   439061 
 1394000   0.83994074   -3.0538918   -3.0538918   -1.7939836  0.057774597   -3.0538918    1.2599082   439061 
 1395000   0.84062467    -3.054338    -3.054338   -1.7934038  0.063309882    -3.054338    1.2609341   439061 
 1396000   0.84109516   -3.0567347   -3.0567347   -1.7950948  0.064109218   -3.0567347    1.2616399   439061 
 1397000   0.84018718   -3.0567206   -3.0567206   -1.7964427  0.061805523   -3.0567206    1.2602779   439061 
 1398000   0.84055792   -3.0557948   -3.0557948   -1.7949608  0.065216639   -3.0557948     1.260834   439061 
 1399000   0.84125473   -3.0568874   -3.0568874   -1.7950082  0.059130826   -3.0568874    1.2618792   439061 
 1400000   0.84162213   -3.0573563   -3.0573563   -1.7949259  0.060748801   -3.0573563    1.2624303   439061 
 1401000    0.8399379   -3.0552324   -3.0552324   -1.7953284  0.062619865   -3.0552324     1.259904   439061 
 1402000   0.84145207   -3.0561991   -3.0561991   -1.7940238  0.062352824   -3.0561991    1.2621752   439061 
 1403000   0.84206789   -3.0583147   -3.0583147   -1.7952158  0.061380342   -3.0583147     1.263099   439061 
 1404000   0.83911863   -3.0534356   -3.0534356   -1.7947605  0.064288051   -3.0534356    1.2586751   439061 
 1405000   0.83956499   -3.0545948   -3.0545948   -1.7952502  0.058140913   -3.0545948    1.2593446   439061 
 1406000   0.83994557   -3.0554205   -3.0554205    -1.795505  0.059485103   -3.0554205    1.2599155   439061 
 1407000   0.84005425   -3.0557752   -3.0557752   -1.7956967  0.057690655   -3.0557752    1.2600785   439061 
 1408000   0.84031383   -3.0545934   -3.0545934   -1.7941256  0.060713306   -3.0545934    1.2604679   439061 
 1409000   0.83906222   -3.0532454   -3.0532454   -1.7946549  0.055117443   -3.0532454    1.2585905   439061 
 1410000   0.83945249   -3.0538848   -3.0538848   -1.7947089  0.054730423   -3.0538848    1.2591759   439061 
 1411000   0.83807075   -3.0521524   -3.0521524   -1.7950492  0.057117547   -3.0521524    1.2571033   439061 
 1412000    0.8392948   -3.0533451   -3.0533451   -1.7944058  0.058616804   -3.0533451    1.2589393   439061 
 1413000   0.83921561   -3.0542209   -3.0542209   -1.7954003  0.059520093   -3.0542209    1.2588205   439061 
 1414000   0.83774807   -3.0521807   -3.0521807   -1.7955615  0.059952914   -3.0521807    1.2566193   439061 
 1415000   0.84071816   -3.0561297   -3.0561297   -1.7950554  0.054800614   -3.0561297    1.2610744   439061 
 1416000   0.83961841   -3.0547029   -3.0547029   -1.7952781  0.056156816   -3.0547029    1.2594247   439061 
 1417000   0.84126039   -3.0582222   -3.0582222   -1.7963344  0.055290632   -3.0582222    1.2618877   439061 
 1418000   0.83958768   -3.0555863   -3.0555863   -1.7962076  0.059403173   -3.0555863    1.2593787   439061 
 1419000   0.83947723   -3.0553622   -3.0553622   -1.7961493  0.060250257   -3.0553622     1.259213   439061 
 1420000   0.83939161   -3.0556263   -3.0556263   -1.7965417  0.061470165   -3.0556263    1.2590845   439061 
 1421000   0.84030784   -3.0574381   -3.0574381   -1.7969792  0.062914721   -3.0574381    1.2604589   439061 
 1422000   0.84025816   -3.0584003   -3.0584003   -1.7980159  0.059292617   -3.0584003    1.2603844   439061 
 1423000    0.8389101   -3.0573148   -3.0573148   -1.7989525  0.062111988   -3.0573148    1.2583623   439061 
 1424000   0.84037748   -3.0594711   -3.0594711   -1.7989077  0.058683829   -3.0594711    1.2605634   439061 
 1425000   0.83992694   -3.0604113   -3.0604113   -1.8005237  0.057042729   -3.0604113    1.2598875   439061 
 1426000   0.84027313   -3.0612268   -3.0612268   -1.8008199  0.058177441   -3.0612268    1.2604068   439061 
 1427000   0.83892385   -3.0598596   -3.0598596   -1.8014767  0.056819497   -3.0598596    1.2583829   439061 
 1428000    0.8387285   -3.0597989   -3.0597989    -1.801709  0.059685419   -3.0597989    1.2580899   439061 
 1429000   0.83901043   -3.0612521   -3.0612521   -1.8027393  0.064242207   -3.0612521    1.2585128   439061 
 1430000   0.83809146   -3.0605024   -3.0605024   -1.8033681  0.059984944   -3.0605024    1.2571343   439061 
 1431000   0.83855579   -3.0613037   -3.0613037   -1.8034729  0.057504611   -3.0613037    1.2578308   439061 
 1432000   0.83942909   -3.0615636   -3.0615636   -1.8024228  0.058479331   -3.0615636    1.2591408   439061 
 1433000   0.84003584   -3.0624572   -3.0624572   -1.8024063  0.059460472   -3.0624572    1.2600509   439061 
 1434000   0.84066567   -3.0624364   -3.0624364   -1.8014407  0.064001351   -3.0624364    1.2609956   439061 
 1435000   0.84084446   -3.0640955   -3.0640955   -1.8028317  0.059046746   -3.0640955    1.2612638   439061 
 1436000   0.84068283   -3.0638362   -3.0638362   -1.8028148  0.057062664   -3.0638362    1.2610214   439061 
 1437000   0.83980717   -3.0623932   -3.0623932   -1.8026853  0.062370518   -3.0623932    1.2597079   439061 
 1438000   0.84113846   -3.0656377   -3.0656377   -1.8039329  0.056790212   -3.0656377    1.2617048   439061 
 1439000   0.83922166    -3.062649    -3.062649   -1.8038193  0.060370835    -3.062649    1.2588296   439061 
 1440000   0.83975222   -3.0633575   -3.0633575    -1.803732  0.059870643   -3.0633575    1.2596255   439061 
 1441000   0.84018052   -3.0642862   -3.0642862   -1.8040183  0.056094909   -3.0642862    1.2602679   439061 
 1442000   0.83788831   -3.0616552   -3.0616552   -1.8048256   0.06077106   -3.0616552    1.2568296   439061 
 1443000   0.83937515   -3.0634753   -3.0634753   -1.8044155  0.057235145   -3.0634753    1.2590599   439061 
 1444000     0.839442   -3.0645595   -3.0645595   -1.8053993  0.058411577   -3.0645595    1.2591601   439061 
 1445000   0.83763606   -3.0615647   -3.0615647   -1.8051135  0.062379576   -3.0615647    1.2564512   439061 
 1446000   0.83833135   -3.0624023   -3.0624023   -1.8049081  0.056712368   -3.0624023    1.2574942   439061 
 1447000   0.83847621   -3.0636566   -3.0636566   -1.8059452  0.060332374   -3.0636566    1.2577115   439061 
 1448000   0.83788024   -3.0629463   -3.0629463   -1.8061288   0.05933434   -3.0629463    1.2568175   439061 
 1449000   0.83749957   -3.0632537   -3.0632537   -1.8070072  0.063777251   -3.0632537    1.2562465   439061 
 1450000    0.8390399   -3.0650715   -3.0650715   -1.8065145  0.060643392   -3.0650715     1.258557   439061 
 1451000   0.83866381   -3.0642134   -3.0642134   -1.8062205   0.06028517   -3.0642134    1.2579929   439061 
 1452000   0.83856612   -3.0642751   -3.0642751   -1.8064288  0.060023842   -3.0642751    1.2578463   439061 
 1453000    0.8394821    -3.065577    -3.065577   -1.8063567   0.06216963    -3.065577    1.2592203   439061 
 1454000   0.83939045   -3.0661125   -3.0661125   -1.8070296  0.057613547   -3.0661125    1.2590828   439061 
 1455000   0.83956535   -3.0664923   -3.0664923   -1.8071472  0.054833178   -3.0664923    1.2593452   439061 
 1456000   0.83773761    -3.065429    -3.065429   -1.8088255  0.058767591    -3.065429    1.2566036   439061 
 1457000   0.83771336   -3.0651497   -3.0651497   -1.8085825  0.060402175   -3.0651497    1.2565672   439061 
 1458000   0.83863145   -3.0665083   -3.0665083    -1.808564  0.053116606   -3.0665083    1.2579443   439061 
 1459000   0.83790502   -3.0652296   -3.0652296   -1.8083749  0.056844259   -3.0652296    1.2568547   439061 
 1460000   0.83840015   -3.0660002   -3.0660002   -1.8084029  0.055313064   -3.0660002    1.2575974   439061 
 1461000   0.83766092   -3.0670912   -3.0670912   -1.8106027  0.055513773   -3.0670912    1.2564885   439061 
 1462000   0.83686909   -3.0651532   -3.0651532   -1.8098525  0.057948068   -3.0651532    1.2553008   439061 
 1463000   0.83693509   -3.0659888   -3.0659888    -1.810589  0.051333223   -3.0659888    1.2553998   439061 
 1464000   0.83758395   -3.0660281   -3.0660281   -1.8096551  0.056172079   -3.0660281    1.2563731   439061 
 1465000   0.83738588   -3.0661912   -3.0661912   -1.8101153  0.063266533   -3.0661912     1.256076   439061 
 1466000   0.83904613   -3.0686076   -3.0686076   -1.8100413  0.055995475   -3.0686076    1.2585663   439061 
 1467000   0.83734245   -3.0663069   -3.0663069   -1.8102961  0.052726406   -3.0663069    1.2560108   439061 
 1468000   0.83827782   -3.0676845   -3.0676845   -1.8102706   0.05824355   -3.0676845    1.2574139   439061 
 1469000    0.8384588   -3.0682395   -3.0682395   -1.8105542  0.056240473   -3.0682395    1.2576853   439061 
 1470000   0.83910052   -3.0691072   -3.0691072   -1.8104593  0.055745971   -3.0691072    1.2586479   439061 
 1471000   0.83774076   -3.0680197   -3.0680197   -1.8114114  0.055902132   -3.0680197    1.2566083   439061 
 1472000    0.8386112   -3.0697189   -3.0697189    -1.811805  0.055030367   -3.0697189    1.2579139   439061 
 1473000   0.83826456   -3.0691792   -3.0691792   -1.8117852   0.05389116   -3.0691792     1.257394   439061 
 1474000   0.83956885   -3.0704929   -3.0704929   -1.8111425  0.059047843   -3.0704929    1.2593504   439061 
 1475000   0.83779106   -3.0681947   -3.0681947    -1.811511  0.056782373   -3.0681947    1.2566837   439061 
 1476000    0.8383951    -3.069337    -3.069337   -1.8117472  0.059443968    -3.069337    1.2575898   439061 
 1477000   0.83759817   -3.0673908   -3.0673908   -1.8109964   0.06351503   -3.0673908    1.2563944   439061 
 1478000   0.83968729   -3.0721957   -3.0721957   -1.8126676  0.055027196   -3.0721957    1.2595281   439061 
 1479000   0.83826644   -3.0690625   -3.0690625   -1.8116657   0.05739859   -3.0690625    1.2573968   439061 
 1480000   0.83821976   -3.0691348   -3.0691348   -1.8118081  0.056082945   -3.0691348    1.2573268   439061 
 1481000   0.83711267   -3.0685741   -3.0685741   -1.8129079  0.056776047   -3.0685741    1.2556662   439061 
 1482000   0.83818674   -3.0709204   -3.0709204   -1.8136432   0.05285046   -3.0709204    1.2572772   439061 
 1483000   0.83709519   -3.0701371   -3.0701371   -1.8144972    0.0588715   -3.0701371    1.2556399   439061 
 1484000   0.83796477    -3.070912    -3.070912   -1.8139677  0.051955449    -3.070912    1.2569443   439061 
 1485000    0.8359644   -3.0683703   -3.0683703   -1.8144266  0.054207673   -3.0683703    1.2539437   439061 
 1486000   0.83722781   -3.0718241   -3.0718241   -1.8159852  0.051473147   -3.0718241    1.2558388   439061 
 1487000   0.83549447   -3.0691782   -3.0691782   -1.8159394  0.057461266   -3.0691782    1.2532389   439061 
 1488000   0.83695428   -3.0710709   -3.0710709   -1.8156423  0.054134201   -3.0710709    1.2554286   439061 
 1489000   0.83534731   -3.0695119   -3.0695119   -1.8164938  0.058643641   -3.0695119    1.2530181   439061 
 1490000   0.83763075   -3.0714041   -3.0714041   -1.8149608  0.057591055   -3.0714041    1.2564433   439061 
 1491000   0.83863916    -3.072914    -3.072914   -1.8149582  0.052325169    -3.072914    1.2579559   439061 
 1492000   0.83731464   -3.0719277   -3.0719277   -1.8159586  0.052357294   -3.0719277    1.2559691   439061 
 1493000   0.83851593   -3.0727729   -3.0727729   -1.8150019  0.059098352   -3.0727729     1.257771   439061 
 1494000   0.83654907   -3.0702491   -3.0702491   -1.8154283  0.056779084   -3.0702491    1.2548207   439061 
 1495000    0.8383106   -3.0722248   -3.0722248   -1.8147618  0.055080478   -3.0722248     1.257463   439061 
 1496000   0.83763054   -3.0718457   -3.0718457   -1.8154028  0.057696124   -3.0718457     1.256443   439061 
 1497000   0.83613487   -3.0704146   -3.0704146   -1.8162151  0.063853509   -3.0704146    1.2541994   439061 
 1498000   0.83806744   -3.0736746   -3.0736746   -1.8165763  0.058113562   -3.0736746    1.2570983   439061 
 1499000   0.83687234   -3.0720405   -3.0720405   -1.8167349   0.05476417   -3.0720405    1.2553056   439061 
 1500000   0.83635115   -3.0715341   -3.0715341   -1.8170103  0.059239721   -3.0715341    1.2545239   439061 
 1501000   0.83541204   -3.0708896   -3.0708896   -1.8177744  0.058289567   -3.0708896    1.2531152   439061 
 1502000   0.83564806    -3.072487    -3.072487   -1.8190177  0.055198072    -3.072487    1.2534692   439061 
 1503000   0.83630018   -3.0741883   -3.0741883   -1.8197409  0.054172896   -3.0741883    1.2544474   439061 
 1504000   0.83487449   -3.0725275   -3.0725275   -1.8202186  0.053921023   -3.0725275    1.2523089   439061 
 1505000   0.83611194   -3.0749434   -3.0749434   -1.8207783  0.054486651   -3.0749434    1.2541651   439061 
 1506000   0.83598053   -3.0744503   -3.0744503   -1.8204823   0.05515825   -3.0744503    1.2539679   439061 
 1507000   0.83547382   -3.0747302   -3.0747302   -1.8215224  0.051384473   -3.0747302    1.2532079   439061 
 1508000   0.83709481   -3.0768976   -3.0768976   -1.8212582  0.051855906   -3.0768976    1.2556394   439061 
 1509000   0.83774285    -3.077772    -3.077772   -1.8211606  0.055821895    -3.077772    1.2566114   439061 
 1510000   0.83669462   -3.0760303   -3.0760303   -1.8209912  0.056020055   -3.0760303    1.2550391   439061 
 1511000   0.83809058   -3.0777096   -3.0777096   -1.8205766  0.055243913   -3.0777096     1.257133   439061 
 1512000   0.83721568   -3.0774969   -3.0774969   -1.8216762   0.05930845   -3.0774969    1.2558207   439061 
 1513000   0.83656273   -3.0773726   -3.0773726   -1.8225314  0.056918292   -3.0773726    1.2548412   439061 
 1514000   0.83570563   -3.0757909   -3.0757909   -1.8222353  0.058445783   -3.0757909    1.2535556   439061 
 1515000    0.8368891   -3.0790542   -3.0790542   -1.8237234   0.06252021   -3.0790542    1.2553308   439061 
 1516000   0.83693068   -3.0794514   -3.0794514   -1.8240582  0.059742298   -3.0794514    1.2553932   439061 
 1517000   0.83618504   -3.0794477   -3.0794477    -1.825173  0.059430507   -3.0794477    1.2542747   439061 
 1518000   0.83595883   -3.0796176   -3.0796176   -1.8256822  0.057652443   -3.0796176    1.2539354   439061 
 1519000   0.83682754    -3.081725    -3.081725   -1.8264866  0.056022691    -3.081725    1.2552384   439061 
 1520000   0.83575526   -3.0810607   -3.0810607   -1.8274307  0.062513933   -3.0810607      1.25363   439061 
 1521000    0.8358587   -3.0815224   -3.0815224   -1.8277372  0.057377511   -3.0815224    1.2537852   439061 
 1522000   0.83628622   -3.0823562   -3.0823562   -1.8279298  0.056368549   -3.0823562    1.2544265   439061 
 1523000   0.83596418   -3.0817249   -3.0817249   -1.8277815  0.059468718   -3.0817249    1.2539434   439061 
 1524000   0.83643627   -3.0813431   -3.0813431   -1.8266916  0.059330649   -3.0813431    1.2546515   439061 
 1525000   0.83671223   -3.0818805   -3.0818805    -1.826815  0.059281644   -3.0818805    1.2550655   439061 
 1526000   0.83564334   -3.0811718   -3.0811718   -1.8277097  0.057753719   -3.0811718    1.2534622   439061 
 1527000   0.83569281   -3.0803792   -3.0803792   -1.8268428  0.056937058   -3.0803792    1.2535364   439061 
 1528000   0.83648042   -3.0818205   -3.0818205   -1.8271027  0.058158831   -3.0818205    1.2547178   439061 
 1529000   0.83650855   -3.0818552   -3.0818552   -1.8270953  0.058019522   -3.0818552      1.25476   439061 
 1530000   0.83639276   -3.0816594   -3.0816594   -1.8270731  0.059107513   -3.0816594    1.2545863   439061 
 1531000   0.83670117   -3.0819958   -3.0819958   -1.8269469  0.056259832   -3.0819958    1.2550489   439061 
 1532000   0.83606669   -3.0822471   -3.0822471   -1.8281499  0.054242563   -3.0822471    1.2540972   439061 
 1533000   0.83521104   -3.0799574   -3.0799574   -1.8271437   0.05275055   -3.0799574    1.2528137   439061 
 1534000    0.8350836   -3.0785434   -3.0785434   -1.8259209  0.055525294   -3.0785434    1.2526225   439061 
 1535000    0.8344397   -3.0787778   -3.0787778   -1.8271211  0.054523759   -3.0787778    1.2516567   439061 
 1536000   0.83540921   -3.0805028   -3.0805028   -1.8273918  0.052440175   -3.0805028     1.253111   439061 
 1537000   0.83469747   -3.0796898   -3.0796898   -1.8276465  0.047753726   -3.0796898    1.2520434   439061 
 1538000   0.83507286   -3.0805983   -3.0805983   -1.8279919  0.054170728   -3.0805983    1.2526064   439061 
 1539000   0.83612461   -3.0813508   -3.0813508   -1.8271667  0.052424454   -3.0813508    1.2541841   439061 
 1540000   0.83751447   -3.0835099   -3.0835099   -1.8272411  0.052659286   -3.0835099    1.2562688   439061 
 1541000    0.8361489   -3.0811812   -3.0811812   -1.8269607  0.051857691   -3.0811812    1.2542205   439061 
 1542000   0.83627073   -3.0821787   -3.0821787   -1.8277754  0.056903899   -3.0821787    1.2544032   439061 
 1543000   0.83506659    -3.080796    -3.080796    -1.828199  0.059564981    -3.080796     1.252597   439061 
 1544000   0.83713794   -3.0825418   -3.0825418   -1.8268377  0.054092616   -3.0825418    1.2557041   439061 
 1545000   0.83523065   -3.0818111   -3.0818111    -1.828968  0.059769316   -3.0818111    1.2528431   439061 
 1546000   0.83527929   -3.0815673   -3.0815673   -1.8286512  0.055111278   -3.0815673    1.2529161   439061 
 1547000   0.83511585   -3.0831175   -3.0831175   -1.8304465  0.053222917   -3.0831175    1.2526709   439061 
 1548000   0.83587689   -3.0848443   -3.0848443   -1.8310319  0.054011572   -3.0848443    1.2538125   439061 
 1549000   0.83497127   -3.0829452   -3.0829452   -1.8304912  0.053659908   -3.0829452     1.252454   439061 
 1550000    0.8350531   -3.0846775   -3.0846775   -1.8321007  0.055385317   -3.0846775    1.2525768   439061 
 1551000   0.83567799   -3.0843926   -3.0843926   -1.8308784  0.056360125   -3.0843926    1.2535141   439061 
 1552000    0.8352573   -3.0851826   -3.0851826   -1.8322995  0.060400098   -3.0851826    1.2528831   439061 
 1553000   0.83524072   -3.0856248   -3.0856248   -1.8327666  0.058285763   -3.0856248    1.2528582   439061 
 1554000   0.83560897   -3.0864038   -3.0864038   -1.8329932  0.054940991   -3.0864038    1.2534106   439061 
 1555000   0.83577477   -3.0866862   -3.0866862   -1.8330269  0.057254694   -3.0866862    1.2536593   439061 
 1556000   0.83385472   -3.0852377   -3.0852377   -1.8344585  0.057868812   -3.0852377    1.2507792   439061 
 1557000   0.83462924    -3.087815    -3.087815    -1.835874  0.049916225    -3.087815     1.251941   439061 
 1558000   0.83406146   -3.0870777   -3.0870777   -1.8359884  0.050987493   -3.0870777    1.2510893   439061 
 1559000   0.83420029   -3.0884782   -3.0884782   -1.8371806  0.050056223   -3.0884782    1.2512976   439061 
 1560000   0.83547286   -3.0905129   -3.0905129   -1.8373064  0.053619198   -3.0905129    1.2532064   439061 
 1561000   0.83487481   -3.0900931   -3.0900931   -1.8377838  0.060588206   -3.0900931    1.2523094   439061 
 1562000   0.83590869   -3.0919693   -3.0919693   -1.8381091   0.04980186   -3.0919693    1.2538602   439061 
 1563000   0.83524933   -3.0910062   -3.0910062    -1.838135  0.056267122   -3.0910062    1.2528711   439061 
 1564000   0.83531179   -3.0910422   -3.0910422   -1.8380774  0.061354072   -3.0910422    1.2529648   439061 
 1565000   0.83529077   -3.0913132   -3.0913132   -1.8383799   0.06073048   -3.0913132    1.2529333   439061 
 1566000   0.83708626   -3.0939785   -3.0939785   -1.8383519   0.05702258   -3.0939785    1.2556265   439061 
 1567000   0.83628843   -3.0931536   -3.0931536   -1.8387238  0.057166209   -3.0931536    1.2544298   439061 
 1568000   0.83632992   -3.0936903   -3.0936903   -1.8391983  0.059481856   -3.0936903     1.254492   439061 
 1569000   0.83583912   -3.0926284   -3.0926284   -1.8388726  0.055418229   -3.0926284    1.2537558   439061 
 1570000    0.8345998   -3.0933797   -3.0933797   -1.8414829   0.05516337   -3.0933797    1.2518968   439061 
 1571000   0.83504744   -3.0929484   -3.0929484   -1.8403801   0.05499507   -3.0929484    1.2525683   439061 
 1572000   0.83603662   -3.0939751   -3.0939751   -1.8399231  0.061560326   -3.0939751    1.2540521   439061 
 1573000   0.83336187   -3.0906966   -3.0906966   -1.8406566  0.057496498   -3.0906966      1.25004   439061 
 1574000   0.83499638   -3.0921265   -3.0921265   -1.8396348  0.055200079   -3.0921265    1.2524917   439061 
 1575000   0.83501981   -3.0918273   -3.0918273   -1.8393005  0.058453246   -3.0918273    1.2525269   439061 
 1576000   0.83453234   -3.0901545   -3.0901545   -1.8383588  0.056140413   -3.0901545    1.2517957   439061 
 1577000   0.83444276   -3.0917545   -3.0917545   -1.8400932  0.056417955   -3.0917545    1.2516613   439061 
 1578000   0.83369705   -3.0916554   -3.0916554   -1.8411126  0.054362038   -3.0916554    1.2505427   439061 
 1579000   0.83529165   -3.0930291   -3.0930291   -1.8400944  0.053088688   -3.0930291    1.2529346   439061 
 1580000   0.83399475   -3.0911611   -3.0911611   -1.8401718  0.053047187   -3.0911611    1.2509893   439061 
 1581000   0.83456053   -3.0919525   -3.0919525   -1.8401146  0.055951416   -3.0919525    1.2518379   439061 
 1582000    0.8356666    -3.093247    -3.093247     -1.83975   0.05399972    -3.093247     1.253497   439061 
 1583000   0.83358462   -3.0902426   -3.0902426   -1.8398685  0.056649389   -3.0902426    1.2503741   439061 
 1584000   0.83457467   -3.0925345   -3.0925345   -1.8406753   0.05712505   -3.0925345    1.2518592   439061 
 1585000   0.83454657   -3.0930443   -3.0930443   -1.8412273  0.057527888   -3.0930443     1.251817   439061 
 1586000   0.83552978   -3.0947391   -3.0947391   -1.8414473   0.05604831   -3.0947391    1.2532918   439061 
 1587000   0.83494423   -3.0937887   -3.0937887   -1.8413752  0.055934338   -3.0937887    1.2524135   439061 
 1588000   0.83653253   -3.0955156   -3.0955156   -1.8407196  0.058032874   -3.0955156    1.2547959   439061 
 1589000   0.83572478   -3.0947516   -3.0947516   -1.8411673  0.051999094   -3.0947516    1.2535843   439061 
 1590000   0.83429362   -3.0942587   -3.0942587   -1.8428212  0.060938116   -3.0942587    1.2514376   439061 
 1591000   0.83537382   -3.0964836   -3.0964836   -1.8434258   0.05177989   -3.0964836    1.2530579   439061 
 1592000   0.83394268    -3.094188    -3.094188   -1.8432768  0.056447637    -3.094188    1.2509112   439061 
 1593000    0.8355049   -3.0973033   -3.0973033   -1.8440488  0.058165953   -3.0973033    1.2532545   439061 
 1594000   0.83472167   -3.0963316   -3.0963316   -1.8442519  0.057838714   -3.0963316    1.2520796   439061 
 1595000   0.83445365   -3.0960093   -3.0960093   -1.8443317  0.053153175   -3.0960093    1.2516776   439061 
 1596000   0.83430572   -3.0976748   -3.0976748    -1.846219  0.054919274   -3.0976748    1.2514557   439061 
 1597000   0.83424079   -3.0976547   -3.0976547   -1.8462963  0.052365002   -3.0976547    1.2513583   439061 
 1598000   0.83422714   -3.0977817   -3.0977817   -1.8464439  0.055857219   -3.0977817    1.2513379   439061 
 1599000   0.83485499   -3.0985955   -3.0985955   -1.8463158  0.054249681   -3.0985955    1.2522796   439061 
 1600000   0.83595666   -3.0998608   -3.0998608   -1.8459286      0.05039   -3.0998608    1.2539321   439061 
 1601000    0.8351099   -3.0992441   -3.0992441   -1.8465821  0.055275162   -3.0992441     1.252662   439061 
 1602000   0.83548008   -3.0992224   -3.0992224   -1.8460051  0.059468539   -3.0992224    1.2532173   439061 
 1603000   0.83661249   -3.0999304   -3.0999304   -1.8450145  0.061001839   -3.0999304    1.2549159   439061 
 1604000   0.83560342   -3.0994689   -3.0994689   -1.8460666  0.057235327   -3.0994689    1.2534023   439061 
 1605000    0.8366238   -3.1023509   -3.1023509   -1.8474181     0.052618   -3.1023509    1.2549328   439061 
 1606000   0.83373727   -3.0989696   -3.0989696   -1.8483666  0.057938232   -3.0989696     1.250603   439061 
 1607000   0.83331309   -3.0982312   -3.0982312   -1.8482644  0.054753986   -3.0982312    1.2499668   439061 
 1608000   0.83377222   -3.0984616   -3.0984616   -1.8478061  0.058427317   -3.0984616    1.2506555   439061 
 1609000   0.83520067   -3.1001189   -3.1001189   -1.8473208  0.053947456   -3.1001189    1.2527982   439061 
 1610000   0.83437979   -3.0995053   -3.0995053   -1.8479385  0.058589069   -3.0995053    1.2515668   439061 
 1611000   0.83447793   -3.0993394   -3.0993394   -1.8476253  0.054118196   -3.0993394     1.251714   439061 
 1612000    0.8343615   -3.0999953   -3.0999953   -1.8484559  0.056307582   -3.0999953    1.2515394   439061 
 1613000   0.83358918   -3.0994613   -3.0994613   -1.8490804    0.0567026   -3.0994613    1.2503809   439061 
 1614000   0.83451126    -3.099775    -3.099775    -1.848011  0.055383363    -3.099775     1.251764   439061 
 1615000   0.83321408   -3.0990153   -3.0990153   -1.8491971  0.055986609   -3.0990153    1.2498183   439061 
 1616000   0.83355357   -3.1003413   -3.1003413   -1.8500138  0.057782193   -3.1003413    1.2503275   439061 
 1617000   0.83394269    -3.101186    -3.101186   -1.8502748  0.053935857    -3.101186    1.2509112   439061 
 1618000   0.83403531   -3.1013674   -3.1013674   -1.8503172  0.052380002   -3.1013674    1.2510501   439061 
 1619000   0.83214194   -3.0992796   -3.0992796   -1.8510696  0.058775651   -3.0992796    1.2482101   439061 
 1620000   0.83334565   -3.1002831   -3.1002831   -1.8502675  0.056671796   -3.1002831    1.2500156   439061 
 1621000   0.83408846   -3.1020119   -3.1020119   -1.8508821  0.049762307   -3.1020119    1.2511298   439061 
 1622000   0.83408553   -3.1026314   -3.1026314    -1.851506  0.053146702   -3.1026314    1.2511255   439061 
 1623000   0.83216177   -3.1006275   -3.1006275   -1.8523877  0.049735048   -3.1006275    1.2482398   439061 
 1624000   0.83240646     -3.10088     -3.10088   -1.8522731  0.056881016     -3.10088    1.2486068   439061 
 1625000   0.83543497   -3.1043942   -3.1043942   -1.8512446  0.052437497   -3.1043942    1.2531496   439061 
 1626000   0.83331449   -3.1017559   -3.1017559    -1.851787  0.052705873   -3.1017559    1.2499689   439061 
 1627000   0.83304657   -3.1011012   -3.1011012   -1.8515342  0.057830557   -3.1011012     1.249567   439061 
 1628000   0.83560319   -3.1042121   -3.1042121   -1.8508102  0.055085517   -3.1042121    1.2534019   439061 
 1629000   0.83390516   -3.1024995   -3.1024995   -1.8516446  0.058064687   -3.1024995    1.2508549   439061 
 1630000   0.83340274   -3.1021414   -3.1021414   -1.8520401  0.056261716   -3.1021414    1.2501013   439061 
 1631000   0.83438069   -3.1027755   -3.1027755   -1.8512073  0.053592942   -3.1027755    1.2515682   439061 
 1632000   0.83440142   -3.1041513   -3.1041513    -1.852552  0.052360179   -3.1041513    1.2515993   439061 
 1633000   0.83374565   -3.1038649   -3.1038649   -1.8532493  0.054086916   -3.1038649    1.2506156   439061 
 1634000   0.83420458   -3.1051599   -3.1051599   -1.8538559  0.053552295   -3.1051599     1.251304   439061 
 1635000   0.83365489   -3.1039287   -3.1039287   -1.8534492  0.051922102   -3.1039287    1.2504795   439061 
 1636000   0.83484707   -3.1046376   -3.1046376   -1.8523698  0.053704975   -3.1046376    1.2522678   439061 
 1637000   0.83479248   -3.1046668   -3.1046668   -1.8524809  0.054111484   -3.1046668    1.2521859   439061 
 1638000   0.83437293   -3.1045262   -3.1045262   -1.8529697  0.057125278   -3.1045262    1.2515566   439061 
 1639000   0.83505639   -3.1065628   -3.1065628   -1.8539811  0.056524341   -3.1065628    1.2525817   439061 
 1640000   0.83454853   -3.1049979   -3.1049979   -1.8531779  0.054587469   -3.1049979    1.2518199   439061 
 1641000   0.83439128   -3.1037894   -3.1037894   -1.8522053  0.056649793   -3.1037894    1.2515841   439061 
 1642000   0.83421547    -3.103957    -3.103957   -1.8526367  0.056396578    -3.103957    1.2513204   439061 
 1643000    0.8337534   -3.1045311   -3.1045311   -1.8539038  0.056365376   -3.1045311    1.2506272   439061 
 1644000   0.83378323   -3.1038782   -3.1038782   -1.8532062  0.058862876   -3.1038782     1.250672   439061 
 1645000   0.83171779   -3.1029825   -3.1029825   -1.8554086  0.057744018   -3.1029825    1.2475738   439061 
 1646000   0.83376091   -3.1064258   -3.1064258   -1.8557873  0.050685948   -3.1064258    1.2506385   439061 
 1647000   0.83276039   -3.1047127   -3.1047127   -1.8555749  0.053635049   -3.1047127    1.2491377   439061 
 1648000   0.83332929   -3.1045627   -3.1045627   -1.8545716  0.052334218   -3.1045627    1.2499911   439061 
 1649000   0.83257034   -3.1041745   -3.1041745   -1.8553218    0.0518735   -3.1041745    1.2488527   439061 
 1650000   0.83326576    -3.106175    -3.106175   -1.8562792   0.05287757    -3.106175    1.2498958   439061 
 1651000   0.83173294   -3.1040531   -3.1040531   -1.8564566  0.059104252   -3.1040531    1.2475966   439061 
 1652000   0.83344355   -3.1059996   -3.1059996   -1.8558371  0.051196141   -3.1059996    1.2501625   439061 
 1653000   0.83208039   -3.1049201   -3.1049201   -1.8568024  0.058650161   -3.1049201    1.2481177   439061 
 1654000    0.8324889   -3.1051466   -3.1051466   -1.8564161  0.050862327   -3.1051466    1.2487305   439061 
 1655000   0.83378883   -3.1070662   -3.1070662   -1.8563858  0.057210831   -3.1070662    1.2506804   439061 
 1656000   0.83304511   -3.1076147   -3.1076147   -1.8580499  0.052810988   -3.1076147    1.2495648   439061 
 1657000   0.83280766   -3.1074618   -3.1074618   -1.8582531  0.053207951   -3.1074618    1.2492086   439061 
 1658000   0.83311715   -3.1090911   -3.1090911   -1.8594182  0.052840916   -3.1090911    1.2496729   439061 
 1659000   0.83335514   -3.1097468   -3.1097468   -1.8597169  0.050805904   -3.1097468    1.2500299   439061 
 1660000   0.83345455   -3.1101491   -3.1101491   -1.8599702   0.05174552   -3.1101491     1.250179   439061 
 1661000    0.8346545   -3.1124569   -3.1124569    -1.860478  0.056911624   -3.1124569    1.2519789   439061 
 1662000   0.83355541   -3.1111542   -3.1111542   -1.8608239  0.050582032   -3.1111542    1.2503303   439061 
 1663000   0.83338709   -3.1108271   -3.1108271   -1.8607493   0.05441967   -3.1108271    1.2500778   439061 
 1664000   0.83318015   -3.1109354   -3.1109354    -1.861168  0.058469109   -3.1109354    1.2497674   439061 
 1665000   0.83518157   -3.1130522   -3.1130522   -1.8602827  0.051457713   -3.1130522    1.2527695   439061 
 1666000   0.83451409   -3.1121756   -3.1121756   -1.8604073  0.059075006   -3.1121756    1.2517683   439061 
 1667000   0.83333523   -3.1098156   -3.1098156   -1.8598156   0.05996932   -3.1098156         1.25   439061 
 1668000   0.83436078   -3.1109546   -3.1109546   -1.8594162  0.058431326   -3.1109546    1.2515383   439061 
 1669000   0.83367023   -3.1106831   -3.1106831   -1.8601806   0.05615557   -3.1106831    1.2505025   439061 
 1670000   0.83366307   -3.1101886   -3.1101886   -1.8596968  0.054285075   -3.1101886    1.2504918   439061 
 1671000   0.83407459   -3.1107043   -3.1107043   -1.8595953  0.052079846   -3.1107043     1.251109   439061 
 1672000   0.83165407   -3.1080976   -3.1080976   -1.8606193  0.053631739   -3.1080976    1.2474783   439061 
 1673000   0.83241764    -3.109851    -3.109851   -1.8612273   0.04854027    -3.109851    1.2486236   439061 
 1674000   0.83188849   -3.1090678   -3.1090678   -1.8612379  0.053966177   -3.1090678    1.2478299   439061 
 1675000   0.83227703   -3.1098493   -3.1098493   -1.8614366  0.055547927   -3.1098493    1.2484127   439061 
 1676000   0.83258882   -3.1114374   -3.1114374    -1.862557  0.046187628   -3.1114374    1.2488804   439061 
 1677000   0.83221166   -3.1099793   -3.1099793   -1.8616647  0.051326868   -3.1099793    1.2483146   439061 
 1678000   0.83269772   -3.1107281   -3.1107281   -1.8616843  0.056381484   -3.1107281    1.2490437   439061 
 1679000   0.83188781    -3.109433    -3.109433   -1.8616041  0.050779236    -3.109433    1.2478289   439061 
 1680000   0.83284795   -3.1096917   -3.1096917   -1.8604226   0.05506443   -3.1096917    1.2492691   439061 
 1681000   0.83283804   -3.1095581   -3.1095581   -1.8603039  0.055150042   -3.1095581    1.2492542   439061 
 1682000   0.83384114   -3.1107344   -3.1107344   -1.8599755  0.052037033   -3.1107344    1.2507589   439061 
 1683000   0.83330669    -3.111573    -3.111573   -1.8616158  0.052092165    -3.111573    1.2499572   439061 
 1684000   0.83327276   -3.1120982   -3.1120982   -1.8621919  0.057644365   -3.1120982    1.2499063   439061 
 1685000      0.83187   -3.1103108   -3.1103108   -1.8625086  0.054498678   -3.1103108    1.2478022   439061 
 1686000   0.83312092   -3.1131217   -3.1131217   -1.8634432  0.051333993   -3.1131217    1.2496785   439061 
 1687000   0.83231646   -3.1118983   -3.1118983   -1.8634265   0.05325146   -3.1118983    1.2484718   439061 
 1688000   0.83285771   -3.1130269   -3.1130269   -1.8637432  0.058039014   -3.1130269    1.2492837   439061 
 1689000   0.83269286   -3.1135454   -3.1135454   -1.8645089    0.0508383   -3.1135454    1.2490364   439061 
 1690000   0.83262943   -3.1131111   -3.1131111   -1.8641698  0.054923075   -3.1131111    1.2489413   439061 
 1691000   0.83297139   -3.1137952   -3.1137952   -1.8643409   0.05377271   -3.1137952    1.2494542   439061 
 1692000   0.83283962   -3.1147791   -3.1147791   -1.8655225  0.053380418   -3.1147791    1.2492566   439061 
 1693000   0.83428921   -3.1168842   -3.1168842   -1.8654532  0.049324229   -3.1168842     1.251431   439061 
 1694000   0.83231495   -3.1148634   -3.1148634   -1.8663938  0.051960713   -3.1148634    1.2484696   439061 
 1695000   0.83118303   -3.1141588   -3.1141588   -1.8673871   0.04985689   -3.1141588    1.2467717   439061 
 1696000   0.83152775   -3.1141687   -3.1141687     -1.86688  0.054449719   -3.1141687    1.2472888   439061 
 1697000   0.83391178   -3.1172609   -3.1172609   -1.8663961  0.051468601   -3.1172609    1.2508648   439061 
 1698000   0.83271553    -3.116054    -3.116054   -1.8669836  0.048255243    -3.116054    1.2490704   439061 
 1699000    0.8321887   -3.1145642   -3.1145642    -1.866284  0.053204167   -3.1145642    1.2482802   439061 
 1700000   0.83304453   -3.1158821   -3.1158821   -1.8663182  0.051665153   -3.1158821     1.249564   439061 
 1701000    0.8324624     -3.11664     -3.11664   -1.8679492  0.053632712     -3.11664    1.2486908   439061 
 1702000   0.83344245   -3.1163808   -3.1163808   -1.8662199   0.05334753   -3.1163808    1.2501608   439061 
 1703000   0.83286346   -3.1172715   -3.1172715   -1.8679791  0.053700213   -3.1172715    1.2492923   439061 
 1704000    0.8315906   -3.1164209   -3.1164209   -1.8690379  0.055609163   -3.1164209    1.2473831   439061 
 1705000   0.83207368    -3.118204    -3.118204   -1.8700963   0.05234533    -3.118204    1.2481077   439061 
 1706000   0.83101457   -3.1167882   -3.1167882   -1.8702692  0.053707203   -3.1167882     1.246519   439061 
 1707000   0.83223362   -3.1181848   -3.1181848   -1.8698372  0.051710773   -3.1181848    1.2483476   439061 
 1708000   0.83156946   -3.1179474   -3.1179474    -1.870596  0.054034716   -3.1179474    1.2473513   439061 
 1709000   0.83282804   -3.1186705   -3.1186705   -1.8694313  0.053721469   -3.1186705    1.2492392   439061 
 1710000   0.83188207    -3.118438    -3.118438   -1.8706177  0.052618618    -3.118438    1.2478203   439061 
 1711000   0.83175521   -3.1194442   -3.1194442   -1.8718142  0.053163928   -3.1194442      1.24763   439061 
 1712000   0.83199572     -3.11854     -3.11854   -1.8705493  0.055890982     -3.11854    1.2479907   439061 
 1713000   0.83125817   -3.1185538   -3.1185538   -1.8716694  0.053585541   -3.1185538    1.2468844   439061 
 1714000   0.83214184   -3.1192424   -3.1192424   -1.8710324  0.051302785   -3.1192424    1.2482099   439061 
 1715000   0.83199149   -3.1191061   -3.1191061   -1.8711217  0.053342673   -3.1191061    1.2479844   439061 
 1716000   0.83178362   -3.1184329   -3.1184329   -1.8707604  0.054432134   -3.1184329    1.2476726   439061 
 1717000    0.8323078    -3.119309    -3.119309   -1.8708501  0.055546994    -3.119309    1.2484589   439061 
 1718000   0.83223801   -3.1199941   -3.1199941   -1.8716399  0.054283485   -3.1199941    1.2483542   439061 
 1719000   0.83275101   -3.1200856   -3.1200856    -1.870962  0.054731193   -3.1200856    1.2491237   439061 
 1720000   0.83206524   -3.1204671   -3.1204671   -1.8723721  0.051644835   -3.1204671     1.248095   439061 
 1721000   0.83191709   -3.1187681   -3.1187681   -1.8708953  0.052595926   -3.1187681    1.2478728   439061 
 1722000   0.83070197   -3.1172797   -3.1172797   -1.8712296  0.052319709   -3.1172797    1.2460501   439061 
 1723000    0.8313679   -3.1185582   -3.1185582   -1.8715092  0.055491938   -3.1185582     1.247049   439061 
 1724000   0.83181705   -3.1191641   -3.1191641   -1.8714413  0.052615614   -3.1191641    1.2477227   439061 
 1725000   0.83159954   -3.1203943   -3.1203943   -1.8729978  0.051869741   -3.1203943    1.2473965   439061 
 1726000   0.83162775    -3.120942    -3.120942   -1.8735032  0.052926818    -3.120942    1.2474388   439061 
 1727000   0.83115967   -3.1200957   -3.1200957    -1.873359  0.052980618   -3.1200957    1.2467367   439061 
 1728000   0.83110092   -3.1195643   -3.1195643   -1.8729157  0.052648028   -3.1195643    1.2466485   439061 
 1729000    0.8324206   -3.1217421   -3.1217421   -1.8731141  0.048614003   -3.1217421    1.2486281   439061 
 1730000   0.83077585   -3.1196027   -3.1196027   -1.8734417  0.052585339   -3.1196027    1.2461609   439061 
 1731000   0.83185296   -3.1206465   -3.1206465   -1.8728699  0.060117796   -3.1206465    1.2477766   439061 
 1732000   0.83244782   -3.1223034   -3.1223034   -1.8736345  0.054736996   -3.1223034    1.2486689   439061 
 1733000   0.83352972   -3.1229723   -3.1229723   -1.8726806  0.056601049   -3.1229723    1.2502917   439061 
 1734000   0.83289622   -3.1223616   -3.1223616   -1.8730202  0.057672372   -3.1223616    1.2493415   439061 
 1735000   0.83297911    -3.123305    -3.123305   -1.8738392  0.051664277    -3.123305    1.2494658   439061 
 1736000   0.83091986   -3.1220545   -3.1220545   -1.8756776  0.050809913   -3.1220545     1.246377   439061 
 1737000   0.83115422   -3.1221372   -3.1221372   -1.8754087  0.055500258   -3.1221372    1.2467285   439061 
 1738000   0.83222839   -3.1242638   -3.1242638   -1.8759241  0.051946559   -3.1242638    1.2483397   439061 
 1739000    0.8319532   -3.1251902   -3.1251902   -1.8772633  0.051784498   -3.1251902     1.247927   439061 
 1740000   0.83052747   -3.1241986   -3.1241986   -1.8784103  0.050996964   -3.1241986    1.2457884   439061 
 1741000   0.83074719   -3.1241227   -3.1241227   -1.8780048  0.055592063   -3.1241227    1.2461179   439061 
 1742000   0.83021016   -3.1233539   -3.1233539   -1.8780415  0.055666034   -3.1233539    1.2453124   439061 
 1743000   0.83084029   -3.1241175   -3.1241175   -1.8778599  0.056543939   -3.1241175    1.2462576   439061 
 1744000   0.83045513   -3.1239796   -3.1239796   -1.8782997  0.058078372   -3.1239796    1.2456799   439061 
 1745000   0.83107749   -3.1256679   -3.1256679   -1.8790545  0.053330032   -3.1256679    1.2466134   439061 
 1746000   0.83127727   -3.1260948   -3.1260948   -1.8791818  0.054885559   -3.1260948    1.2469131   439061 
 1747000    0.8320476   -3.1276754   -3.1276754   -1.8796068  0.048024659   -3.1276754    1.2480686   439061 
 1748000   0.83198465   -3.1279888   -3.1279888   -1.8800147  0.054793863   -3.1279888    1.2479741   439061 
 1749000   0.83148328   -3.1270579   -3.1270579   -1.8798358  0.053098145   -3.1270579    1.2472221   439061 
 1750000   0.83342667   -3.1288859   -3.1288859   -1.8787487  0.055527185   -3.1288859    1.2501372   439061 
 1751000   0.83169299   -3.1275387   -3.1275387    -1.880002  0.053906176   -3.1275387    1.2475366   439061 
 1752000   0.83135031   -3.1264652   -3.1264652   -1.8794426  0.056843568   -3.1264652    1.2470226   439061 
 1753000   0.83176361   -3.1272632   -3.1272632   -1.8796206  0.054788161   -3.1272632    1.2476426   439061 
 1754000   0.83154492   -3.1268378   -3.1268378   -1.8795233  0.060371387   -3.1268378    1.2473145   439061 
 1755000   0.83276317   -3.1274231   -3.1274231   -1.8782812  0.053778624   -3.1274231    1.2491419   439061 
 1756000   0.83076943   -3.1258654   -3.1258654   -1.8797141  0.058356305   -3.1258654    1.2461513   439061 
 1757000   0.83054253   -3.1257317   -3.1257317   -1.8799207   0.05554554   -3.1257317     1.245811   439061 
 1758000   0.83103024   -3.1264098   -3.1264098   -1.8798673  0.055384315   -3.1264098    1.2465425   439061 
 1759000   0.83106066   -3.1269719   -3.1269719   -1.8803837  0.054180696   -3.1269719    1.2465881   439061 
 1760000   0.83172745   -3.1272446   -3.1272446   -1.8796562  0.053712142   -3.1272446    1.2475883   439061 
 1761000   0.83055059   -3.1266191   -3.1266191   -1.8807961  0.049299611   -3.1266191     1.245823   439061 
 1762000   0.82974164    -3.125811    -3.125811   -1.8812013  0.044248367    -3.125811    1.2446096   439061 
 1763000   0.83050473   -3.1260569   -3.1260569   -1.8803026  0.045635023   -3.1260569    1.2457543   439061 
 1764000   0.83014458   -3.1259264   -3.1259264   -1.8807124  0.054169473   -3.1259264     1.245214   439061 
 1765000   0.82892178   -3.1254198   -3.1254198     -1.88204  0.053661104   -3.1254198    1.2433798   439061 
 1766000   0.82962581   -3.1255887   -3.1255887   -1.8811528  0.050782809   -3.1255887    1.2444359   439061 
 1767000   0.82930668   -3.1261579   -3.1261579   -1.8822007  0.050916482   -3.1261579    1.2439572   439061 
 1768000   0.83111525   -3.1275854   -3.1275854   -1.8809153  0.051515272   -3.1275854      1.24667   439061 
 1769000   0.83104934   -3.1272146   -3.1272146   -1.8806434  0.051444818   -3.1272146    1.2465712   439061 
 1770000   0.83164282   -3.1283054   -3.1283054    -1.880844  0.053050811   -3.1283054    1.2474614   439061 
 1771000   0.83172025   -3.1287579   -3.1287579   -1.8811804  0.055708333   -3.1287579    1.2475775   439061 
 1772000   0.82961503   -3.1278081   -3.1278081   -1.8833884  0.056521769   -3.1278081    1.2444197   439061 
 1773000   0.82987105   -3.1275981   -3.1275981   -1.8827943  0.053123532   -3.1275981    1.2448037   439061 
 1774000   0.83071383   -3.1305539   -3.1305539    -1.884486  0.049268801   -3.1305539    1.2460679   439061 
 1775000    0.8310745   -3.1300831   -3.1300831   -1.8834742  0.052660427   -3.1300831    1.2466089   439061 
 1776000   0.83128466   -3.1309218   -3.1309218   -1.8839977   0.05571455   -3.1309218    1.2469241   439061 
 1777000    0.8319066   -3.1315206   -3.1315206   -1.8836635  0.054012706   -3.1315206    1.2478571   439061 
 1778000   0.82988753   -3.1296499   -3.1296499   -1.8848214  0.053025921   -3.1296499    1.2448285   439061 
 1779000   0.83124771   -3.1326963   -3.1326963   -1.8858276  0.050890496   -3.1326963    1.2468687   439061 
 1780000   0.83039174   -3.1315463   -3.1315463   -1.8859615  0.051394974   -3.1315463    1.2455848   439061 
 1781000    0.8311506   -3.1331365   -3.1331365   -1.8864134  0.054895925   -3.1331365    1.2467231   439061 
 1782000   0.82943284   -3.1312926   -3.1312926   -1.8871462  0.054003472   -3.1312926    1.2441464   439061 
 1783000   0.83003253   -3.1314736   -3.1314736   -1.8864276   0.05166979   -3.1314736     1.245046   439061 
 1784000   0.82987805   -3.1317761   -3.1317761   -1.8869619  0.051606764   -3.1317761    1.2448142   439061 
 1785000   0.83135702    -3.133484    -3.133484   -1.8864513  0.057162275    -3.133484    1.2470327   439061 
 1786000   0.83017745   -3.1314003   -3.1314003    -1.886137  0.050654545   -3.1314003    1.2452633   439061 
 1787000   0.83093984   -3.1328617   -3.1328617   -1.8864548  0.052408944   -3.1328617    1.2464069   439061 
 1788000   0.82912308   -3.1300587   -3.1300587    -1.886377  0.052894048   -3.1300587    1.2436818   439061 
 1789000   0.83096021   -3.1324573   -3.1324573   -1.8860199  0.048101613   -3.1324573    1.2464375   439061 
 1790000   0.83030824   -3.1321421   -3.1321421   -1.8866826  0.052537675   -3.1321421    1.2454595   439061 
 1791000   0.82982583   -3.1321925   -3.1321925   -1.8874565  0.050896638   -3.1321925    1.2447359   439061 
 1792000    0.8299957   -3.1323532   -3.1323532   -1.8873625  0.047471974   -3.1323532    1.2449907   439061 
 1793000   0.83019992   -3.1321225   -3.1321225   -1.8868254  0.052476633   -3.1321225     1.245297   439061 
 1794000   0.83067845    -3.132358    -3.132358   -1.8863432  0.050420705    -3.132358    1.2460148   439061 
 1795000   0.82957491   -3.1315548   -3.1315548   -1.8871953  0.052072671   -3.1315548    1.2443595   439061 
 1796000   0.83044485   -3.1331344   -3.1331344     -1.88747  0.057561428   -3.1331344    1.2456644   439061 
 1797000   0.82954291   -3.1322096   -3.1322096   -1.8878981  0.053523423   -3.1322096    1.2443115   439061 
 1798000   0.83115389   -3.1342511   -3.1342511   -1.8875231  0.052358099   -3.1342511     1.246728   439061 
 1799000   0.83181549   -3.1356051   -3.1356051   -1.8878847  0.040113785   -3.1356051    1.2477204   439061 
 1800000   0.83028404     -3.13351     -3.13351   -1.8880868   0.04983161     -3.13351    1.2454232   439061 
 1801000   0.83010455   -3.1330131   -3.1330131   -1.8878591  0.052994736   -3.1330131     1.245154   439061 
 1802000   0.83030826   -3.1335588   -3.1335588   -1.8880992  0.052325875   -3.1335588    1.2454595   439061 
 1803000   0.83016227   -3.1343976   -3.1343976   -1.8891571  0.051323636   -3.1343976    1.2452406   439061 
 1804000   0.82959157    -3.135318    -3.135318   -1.8909334  0.050511792    -3.135318    1.2443845   439061 
 1805000   0.82837623   -3.1342394   -3.1342394   -1.8916779  0.053945387   -3.1342394    1.2425615   439061 
 1806000   0.83027343   -3.1350004   -3.1350004   -1.8895931  0.049581523   -3.1350004    1.2454073   439061 
 1807000   0.83081982   -3.1357411   -3.1357411   -1.8895142  0.051719297   -3.1357411    1.2462269   439061 
 1808000   0.83094856   -3.1358147   -3.1358147   -1.8893947  0.053580642   -3.1358147      1.24642   439061 
 1809000   0.83071518   -3.1361913   -3.1361913   -1.8901214  0.048720143   -3.1361913    1.2460699   439061 
 1810000    0.8306098   -3.1367005   -3.1367005   -1.8907886   0.05692241   -3.1367005    1.2459119   439061 
 1811000   0.83114906   -3.1377367   -3.1377367    -1.891016  0.055848362   -3.1377367    1.2467208   439061 
 1812000   0.83148439   -3.1376339   -3.1376339   -1.8904101  0.053475158   -3.1376339    1.2472237   439061 
 1813000   0.83178649   -3.1386486   -3.1386486   -1.8909717  0.050912539   -3.1386486    1.2476769   439061 
 1814000   0.82998951   -3.1364644   -3.1364644   -1.8914829  0.051272133   -3.1364644    1.2449814   439061 
 1815000   0.82977966   -3.1354476   -3.1354476   -1.8907809  0.050956467   -3.1354476    1.2446666   439061 
 1816000    0.8293825   -3.1341512   -3.1341512   -1.8900802  0.051328171   -3.1341512    1.2440709   439061 
 1817000   0.83178526   -3.1378178   -3.1378178   -1.8901427  0.052792606   -3.1378178     1.247675   439061 
 1818000   0.83016103   -3.1356511   -3.1356511   -1.8904124  0.050231721   -3.1356511    1.2452387   439061 
 1819000   0.83003068   -3.1354119   -3.1354119   -1.8903687  0.049208479   -3.1354119    1.2450432   439061 
 1820000   0.82964425   -3.1351231   -3.1351231   -1.8906596  0.055357748   -3.1351231    1.2444635   439061 
 1821000   0.83030941   -3.1369736   -3.1369736   -1.8915123  0.050917136   -3.1369736    1.2454613   439061 
 1822000   0.82979519   -3.1343714   -3.1343714   -1.8896814  0.054841132   -3.1343714      1.24469   439061 
 1823000   0.83137757   -3.1369415   -3.1369415    -1.889878  0.048391176   -3.1369415    1.2470635   439061 
 1824000   0.82962986   -3.1348183   -3.1348183   -1.8903763  0.053028055   -3.1348183     1.244442   439061 
 1825000   0.83002652   -3.1361874   -3.1361874   -1.8911504  0.051792859   -3.1361874    1.2450369   439061 
 1826000   0.82873333   -3.1354202   -3.1354202    -1.892323  0.049190885   -3.1354202    1.2430972   439061 
 1827000   0.82850472   -3.1363269   -3.1363269   -1.8935726  0.051840708   -3.1363269    1.2427543   439061 
 1828000   0.82838389   -3.1358296   -3.1358296   -1.8932566  0.048192149   -3.1358296     1.242573   439061 
 1829000   0.82956605   -3.1365823   -3.1365823    -1.892236  0.048118895   -3.1365823    1.2443462   439061 
 1830000   0.83018779   -3.1379042   -3.1379042   -1.8926254  0.052104053   -3.1379042    1.2452788   439061 
 1831000   0.82956184   -3.1368754   -3.1368754   -1.8925355   0.05096846   -3.1368754    1.2443399   439061 
 1832000   0.83091555   -3.1389018   -3.1389018   -1.8925313  0.046343098   -3.1389018    1.2463705   439061 
 1833000    0.8317821   -3.1407372   -3.1407372   -1.8930669  0.046373293   -3.1407372    1.2476703   439061 
 1834000   0.83094161   -3.1406015   -3.1406015   -1.8941919  0.050405523   -3.1406015    1.2464096   439061 
 1835000   0.82898227   -3.1372519   -3.1372519   -1.8937814  0.055007589   -3.1372519    1.2434706   439061 
 1836000   0.82974642   -3.1401541   -3.1401541   -1.8955373  0.053712098   -3.1401541    1.2446168   439061 
 1837000   0.83060438   -3.1423518   -3.1423518   -1.8964481  0.048294617   -3.1423518    1.2459037   439061 
 1838000   0.82931443   -3.1400425   -3.1400425   -1.8960737  0.058519052   -3.1400425    1.2439688   439061 
 1839000   0.82927905   -3.1406509   -3.1406509   -1.8967352  0.050525793   -3.1406509    1.2439157   439061 
 1840000   0.82934812   -3.1408669   -3.1408669   -1.8968476   0.05236337   -3.1408669    1.2440193   439061 
 1841000   0.82935936   -3.1415736   -3.1415736   -1.8975374  0.052868811   -3.1415736    1.2440362   439061 
 1842000   0.82807302   -3.1398796   -3.1398796   -1.8977729  0.050863909   -3.1398796    1.2421067   439061 
 1843000   0.82850422   -3.1398537   -3.1398537   -1.8971002  0.050657069   -3.1398537    1.2427535   439061 
 1844000   0.82993965   -3.1421496   -3.1421496   -1.8972429   0.05141462   -3.1421496    1.2449066   439061 
 1845000   0.82976121   -3.1418673   -3.1418673   -1.8972284  0.055158606   -3.1418673     1.244639   439061 
 1846000   0.82893954   -3.1418718   -3.1418718   -1.8984653  0.049561392   -3.1418718    1.2434065   439061 
 1847000   0.82877679   -3.1426514   -3.1426514    -1.899489  0.049744787   -3.1426514    1.2431624   439061 
 1848000    0.8289925   -3.1427975   -3.1427975   -1.8993115  0.046333354   -3.1427975    1.2434859   439061 
 1849000   0.82807616   -3.1412213   -3.1412213   -1.8991099  0.052196809   -3.1412213    1.2421114   439061 
 1850000   0.82905895   -3.1435742   -3.1435742   -1.8999886  0.048683302   -3.1435742    1.2435856   439061 
 1851000   0.82895644   -3.1430223   -3.1430223   -1.8995905  0.052850222   -3.1430223    1.2434318   439061 
 1852000   0.82920717   -3.1437819   -3.1437819   -1.8999739  0.048529604   -3.1437819    1.2438079   439061 
 1853000   0.82874988   -3.1428102   -3.1428102   -1.8996882  0.051173765   -3.1428102     1.243122   439061 
 1854000   0.82884903   -3.1408625   -3.1408625   -1.8975918  0.054716828   -3.1408625    1.2432707   439061 
 1855000   0.82873365   -3.1429198   -3.1429198   -1.8998221  0.052934352   -3.1429198    1.2430976   439061 
 1856000   0.82968937   -3.1446328   -3.1446328   -1.9001016  0.050598811   -3.1446328    1.2445312   439061 
 1857000   0.82950056   -3.1439762   -3.1439762   -1.8997282  0.049248069   -3.1439762     1.244248   439061 
 1858000   0.82882588   -3.1442123   -3.1442123   -1.9009763  0.054649739   -3.1442123     1.243236   439061 
 1859000   0.82920941   -3.1441757   -3.1441757   -1.9003644   0.05503571   -3.1441757    1.2438113   439061 
 1860000   0.82844812   -3.1443892   -3.1443892   -1.9017198  0.050816224   -3.1443892    1.2426693   439061 
 1861000    0.8296542   -3.1448935   -3.1448935   -1.9004151  0.047196003   -3.1448935    1.2444785   439061 
 1862000   0.82852142    -3.143643    -3.143643   -1.9008637  0.050389255    -3.143643    1.2427793   439061 
 1863000   0.82876517   -3.1452384   -3.1452384   -1.9020935  0.046923681   -3.1452384    1.2431449   439061 
 1864000   0.82898731   -3.1462043   -3.1462043   -1.9027262   0.04858943   -3.1462043    1.2434781   439061 
 1865000   0.82912697   -3.1455077   -3.1455077   -1.9018201  0.049043368   -3.1455077    1.2436876   439061 
 1866000    0.8296939   -3.1465314   -3.1465314   -1.9019934  0.051508178   -3.1465314     1.244538   439061 
 1867000   0.82840433   -3.1452724   -3.1452724   -1.9026687  0.049846494   -3.1452724    1.2426037   439061 
 1868000   0.83024713   -3.1473844   -3.1473844   -1.9020165  0.048778155   -3.1473844    1.2453679   439061 
 1869000   0.83069728   -3.1474446   -3.1474446   -1.9014015  0.053598435   -3.1474446    1.2460431   439061 
 1870000    0.8282611    -3.144785    -3.144785   -1.9023962  0.052040849    -3.144785    1.2423888   439061 
 1871000   0.82850512   -3.1450895   -3.1450895   -1.9023347  0.046994286   -3.1450895    1.2427549   439061 
 1872000   0.82983549   -3.1457897   -3.1457897   -1.9010393  0.053357853   -3.1457897    1.2447504   439061 
 1873000   0.82888794   -3.1461004   -3.1461004   -1.9027713  0.050316945   -3.1461004    1.2433291   439061 
 1874000   0.82792263   -3.1451554   -3.1451554   -1.9032743  0.051033197   -3.1451554    1.2418811   439061 
 1875000   0.82781206    -3.144663    -3.144663   -1.9029477  0.053414882    -3.144663    1.2417153   439061 
 1876000   0.82781615   -3.1447677   -3.1447677   -1.9030463  0.052822648   -3.1447677    1.2417214   439061 
 1877000   0.82942809   -3.1465961   -3.1465961   -1.9024568  0.049366252   -3.1465961    1.2441393   439061 
 1878000   0.82883642   -3.1454246   -3.1454246   -1.9021728  0.052216689   -3.1454246    1.2432518   439061 
 1879000   0.82802434   -3.1444959   -3.1444959   -1.9024623  0.054314381   -3.1444959    1.2420337   439061 
 1880000   0.82965668   -3.1472333   -3.1472333   -1.9027511  0.049185045   -3.1472333    1.2444822   439061 
 1881000   0.82889025   -3.1451342   -3.1451342   -1.9018016  0.054478314   -3.1451342    1.2433325   439061 
 1882000   0.82899066   -3.1464196   -3.1464196   -1.9029364  0.052877896   -3.1464196    1.2434832   439061 
 1883000   0.82949589   -3.1474006   -3.1474006   -1.9031596  0.049889618   -3.1474006     1.244241   439061 
 1884000   0.82901202   -3.1463277   -3.1463277   -1.9028125  0.053557534   -3.1463277    1.2435152   439061 
 1885000   0.82962905   -3.1459752   -3.1459752   -1.9015345  0.051488725   -3.1459752    1.2444407   439061 
 1886000   0.82963321   -3.1466254   -3.1466254   -1.9021784  0.049184951   -3.1466254     1.244447   439061 
 1887000   0.82928527   -3.1459313   -3.1459313   -1.9020063  0.047287845   -3.1459313    1.2439251   439061 
 1888000   0.82840209   -3.1451368   -3.1451368   -1.9025365  0.048303197   -3.1451368    1.2426003   439061 
 1889000   0.82949996    -3.146493    -3.146493   -1.9022459  0.048765183    -3.146493    1.2442471   439061 
 1890000    0.8279613   -3.1451891   -3.1451891     -1.90325  0.051267013   -3.1451891    1.2419391   439061 
 1891000   0.82959744   -3.1475752   -3.1475752   -1.9031819  0.048219503   -3.1475752    1.2443933   439061 
 1892000   0.82836614   -3.1453001   -3.1453001   -1.9027537  0.048962494   -3.1453001    1.2425464   439061 
 1893000   0.82780375   -3.1442797   -3.1442797   -1.9025769  0.051289759   -3.1442797    1.2417028   439061 
 1894000   0.82830039   -3.1450791   -3.1450791   -1.9026314  0.050801063   -3.1450791    1.2424477   439061 
 1895000   0.82830203   -3.1459255   -3.1459255   -1.9034753  0.052229745   -3.1459255    1.2424502   439061 
 1896000    0.8289165   -3.1472867   -3.1472867   -1.9039147  0.052783206   -3.1472867    1.2433719   439061 
 1897000   0.82891633   -3.1483706   -3.1483706   -1.9049989  0.051398225   -3.1483706    1.2433717   439061 
 1898000   0.82874712   -3.1476369   -3.1476369   -1.9045191  0.051168535   -3.1476369    1.2431179   439061 
 1899000   0.82795314   -3.1469289   -3.1469289    -1.905002  0.050809446   -3.1469289    1.2419269   439061 
 1900000   0.82801089   -3.1483415   -3.1483415    -1.906328  0.048722893   -3.1483415    1.2420135   439061 
 1901000   0.82765827   -3.1477867   -3.1477867   -1.9063022  0.054204391   -3.1477867    1.2414846   439061 
 1902000   0.82776936   -3.1486733   -3.1486733    -1.907022  0.052976298   -3.1486733    1.2416512   439061 
 1903000   0.82818788   -3.1494582   -3.1494582   -1.9071792  0.051296109   -3.1494582     1.242279   439061 
 1904000   0.82826585   -3.1499795   -3.1499795   -1.9075836  0.050289128   -3.1499795    1.2423959   439061 
 1905000    0.8286072   -3.1493757   -3.1493757   -1.9064677  0.054979805   -3.1493757     1.242908   439061 
 1906000   0.82934361   -3.1505537   -3.1505537   -1.9065411  0.050860918   -3.1505537    1.2440126   439061 
 1907000   0.82902281   -3.1506018   -3.1506018   -1.9070704  0.050067053   -3.1506018    1.2435314   439061 
 1908000   0.82875043   -3.1502484   -3.1502484   -1.9071256   0.05347794   -3.1502484    1.2431228   439061 
 1909000   0.82796316   -3.1498109   -3.1498109    -1.907869  0.048006449   -3.1498109    1.2419419   439061 
 1910000   0.82858997   -3.1508285   -3.1508285   -1.9079464  0.053166469   -3.1508285    1.2428821   439061 
 1911000   0.82770328   -3.1485373   -3.1485373   -1.9069852  0.058993844   -3.1485373    1.2415521   439061 
 1912000   0.82843984   -3.1504799   -3.1504799   -1.9078229  0.049518986   -3.1504799    1.2426569   439061 
 1913000   0.82759065   -3.1504428   -3.1504428   -1.9090596  0.046673069   -3.1504428    1.2413832   439061 
 1914000   0.82774987   -3.1501822   -3.1501822   -1.9085602  0.045056308   -3.1501822     1.241622   439061 
 1915000    0.8257409   -3.1467069   -3.1467069   -1.9080983  0.051052167   -3.1467069    1.2386085   439061 
 1916000    0.8274666   -3.1491626   -3.1491626   -1.9079655  0.051166944   -3.1491626    1.2411971   439061 
 1917000   0.82796093   -3.1502442   -3.1502442   -1.9083056  0.050850636   -3.1502442    1.2419386   439061 
 1918000    0.8261084   -3.1476545   -3.1476545   -1.9084947  0.050703294   -3.1476545    1.2391598   439061 
 1919000   0.82887005   -3.1511725   -3.1511725   -1.9078703  0.050225342   -3.1511725    1.2433022   439061 
 1920000   0.82686614   -3.1493498   -3.1493498   -1.9090534  0.048861754   -3.1493498    1.2402964   439061 
 1921000   0.82818084   -3.1504197   -3.1504197   -1.9081513  0.051226155   -3.1504197    1.2422684   439061 
 1922000   0.82874853   -3.1512662   -3.1512662   -1.9081462  0.047365592   -3.1512662      1.24312   439061 
 1923000   0.82783095   -3.1490328   -3.1490328   -1.9072892  0.056380668   -3.1490328    1.2417436   439061 
 1924000   0.82773074    -3.149788    -3.149788   -1.9081948  0.053370352    -3.149788    1.2415933   439061 
 1925000   0.82672571   -3.1494582   -3.1494582   -1.9093724  0.047195642   -3.1494582    1.2400857   439061 
 1926000   0.82657283   -3.1487836   -3.1487836   -1.9089272  0.050419367   -3.1487836    1.2398564   439061 
 1927000   0.82686409   -3.1497793   -3.1497793    -1.909486  0.045317232   -3.1497793    1.2402933   439061 
 1928000   0.82587805   -3.1484455   -3.1484455   -1.9096313  0.051415359   -3.1484455    1.2388142   439061 
 1929000   0.82677285   -3.1502695   -3.1502695    -1.910113  0.047921894   -3.1502695    1.2401564   439061 
 1930000   0.82576781   -3.1503945   -3.1503945   -1.9117456  0.046493382   -3.1503945    1.2386489   439061 
 1931000   0.82529863   -3.1497789   -3.1497789   -1.9118338  0.053674251   -3.1497789    1.2379451   439061 
 1932000   0.82838791   -3.1535695   -3.1535695   -1.9109905  0.045762006   -3.1535695     1.242579   439061 
 1933000   0.82734421    -3.151055    -3.151055   -1.9100415  0.050638185    -3.151055    1.2410135   439061 
 1934000   0.82763292   -3.1526238   -3.1526238   -1.9111773  0.048234861   -3.1526238    1.2414466   439061 
 1935000   0.82721183   -3.1519481   -3.1519481   -1.9111331  0.050674872   -3.1519481    1.2408149   439061 
 1936000   0.82726787   -3.1521587   -3.1521587   -1.9112597  0.050093506   -3.1521587     1.240899   439061 
 1937000   0.82828583   -3.1533355   -3.1533355   -1.9109096  0.053076229   -3.1533355    1.2424259   439061 
 1938000   0.82690409   -3.1527392   -3.1527392   -1.9123859  0.054602834   -3.1527392    1.2403533   439061 
 1939000   0.82809057   -3.1555301   -3.1555301   -1.9133971  0.052978461   -3.1555301     1.242133   439061 
 1940000   0.82617316   -3.1541593   -3.1541593   -1.9149023  0.055033221   -3.1541593    1.2392569   439061 
 1941000   0.82838831   -3.1570589   -3.1570589   -1.9144792  0.049597261   -3.1570589    1.2425796   439061 
 1942000   0.82700292   -3.1551752   -3.1551752   -1.9146736  0.049201714   -3.1551752    1.2405016   439061 
 1943000   0.82788046   -3.1565582   -3.1565582   -1.9147404  0.050865858   -3.1565582    1.2418179   439061 
 1944000    0.8268891   -3.1542672   -3.1542672   -1.9139363  0.055607205   -3.1542672    1.2403308   439061 
 1945000    0.8272914   -3.1549743   -3.1549743     -1.91404  0.048928331   -3.1549743    1.2409343   439061 
 1946000   0.82838808   -3.1574407   -3.1574407   -1.9148614  0.050647945   -3.1574407    1.2425793   439061 
 1947000   0.82612718   -3.1561769   -3.1561769    -1.916989  0.047050864   -3.1561769     1.239188   439061 
 1948000   0.82688481   -3.1557483   -3.1557483   -1.9154239  0.050880714   -3.1557483    1.2403244   439061 
 1949000   0.82787951   -3.1579091   -3.1579091   -1.9160927  0.046772966   -3.1579091    1.2418164   439061 
 1950000    0.8264088    -3.156777    -3.156777   -1.9171666  0.045726976    -3.156777    1.2396104   439061 
 1951000   0.82585397   -3.1553938   -3.1553938   -1.9166157  0.048662762   -3.1553938    1.2387781   439061 
 1952000    0.8278733   -3.1574116   -3.1574116   -1.9156045  0.046687105   -3.1574116    1.2418071   439061 
 1953000   0.82858571   -3.1581737   -3.1581737    -1.915298  0.045874648   -3.1581737    1.2428757   439061 
 1954000   0.82755471   -3.1573597   -3.1573597   -1.9160304    0.0467223   -3.1573597    1.2413292   439061 
 1955000   0.82733476   -3.1555929   -3.1555929   -1.9145936  0.048547305   -3.1555929    1.2409993   439061 
 1956000   0.82669505   -3.1555421   -3.1555421   -1.9155023  0.046554544   -3.1555421    1.2400397   439061 
 1957000   0.82663962   -3.1552847   -3.1552847   -1.9153281  0.049131182   -3.1552847    1.2399566   439061 
 1958000   0.82800274   -3.1575007   -3.1575007   -1.9154994  0.047001127   -3.1575007    1.2420013   439061 
 1959000   0.82693339   -3.1564787   -3.1564787   -1.9160814  0.052774033   -3.1564787    1.2403973   439061 
 1960000   0.82647222    -3.157086    -3.157086   -1.9173805  0.046238749    -3.157086    1.2397055   439061 
 1961000   0.82582301   -3.1559637   -3.1559637    -1.917232  0.047947778   -3.1559637    1.2387317   439061 
 1962000   0.82598334   -3.1549321   -3.1549321   -1.9159599  0.051131858   -3.1549321    1.2389722   439061 
 1963000   0.82662872   -3.1570317   -3.1570317   -1.9170915  0.050834141   -3.1570317    1.2399403   439061 
 1964000   0.82717756   -3.1575518   -3.1575518   -1.9167883  0.052571831   -3.1575518    1.2407635   439061 
 1965000   0.82817893   -3.1590549   -3.1590549   -1.9167893  0.053258721   -3.1590549    1.2422656   439061 
 1966000   0.82720675   -3.1585318   -3.1585318   -1.9177245  0.051833156   -3.1585318    1.2408073   439061 
 1967000   0.82809046   -3.1595482   -3.1595482   -1.9174153  0.052177879   -3.1595482    1.2421329   439061 
 1968000   0.82784398   -3.1608534   -3.1608534   -1.9190903  0.049403232   -3.1608534    1.2417631   439061 
 1969000   0.82675437   -3.1596017   -3.1596017    -1.919473  0.047880761   -3.1596017    1.2401287   439061 
 1970000   0.82780518   -3.1605223   -3.1605223   -1.9188173  0.047687097   -3.1605223    1.2417049   439061 
 1971000   0.82605317   -3.1592137   -3.1592137   -1.9201367  0.048919792   -3.1592137    1.2390769   439061 
 1972000   0.82587535    -3.158852    -3.158852   -1.9200418  0.052499584    -3.158852    1.2388102   439061 
 1973000   0.82741579   -3.1614998   -3.1614998   -1.9203789  0.045375587   -3.1614998    1.2411209   439061 
 1974000    0.8273697   -3.1607547   -3.1607547    -1.919703  0.049019997   -3.1607547    1.2410517   439061 
 1975000   0.82808824   -3.1627558   -3.1627558   -1.9206263  0.050010889   -3.1627558    1.2421295   439061 
 1976000   0.82553387   -3.1607233   -3.1607233   -1.9224253  0.051604536   -3.1607233     1.238298   439061 
 1977000   0.82779093   -3.1632588   -3.1632588   -1.9215752  0.047597313   -3.1632588    1.2416836   439061 
 1978000   0.82724144   -3.1616366   -3.1616366   -1.9207773  0.048338929   -3.1616366    1.2408593   439061 
 1979000   0.82761286   -3.1624375   -3.1624375    -1.921021  0.050291601   -3.1624375    1.2414165   439061 
 1980000   0.82632736   -3.1601841   -3.1601841   -1.9206958  0.050831882   -3.1601841    1.2394882   439061 
 1981000   0.82662095   -3.1616929   -3.1616929   -1.9217643  0.049791976   -3.1616929    1.2399286   439061 
 1982000    0.8265308   -3.1605062   -3.1605062   -1.9207128  0.047484673   -3.1605062    1.2397934   439061 
 1983000   0.82535284   -3.1593529   -3.1593529   -1.9213265  0.049574875   -3.1593529    1.2380264   439061 
 1984000   0.82648898   -3.1622625   -3.1622625   -1.9225318  0.046211612   -3.1622625    1.2397306   439061 
 1985000   0.82614925   -3.1616243   -3.1616243   -1.9224032  0.049793975   -3.1616243    1.2392211   439061 
 1986000   0.82660039   -3.1614837   -3.1614837    -1.921586  0.045508966   -3.1614837    1.2398978   439061 
 1987000   0.82502666    -3.159902    -3.159902   -1.9223648  0.049355725    -3.159902    1.2375372   439061 
 1988000   0.82595428   -3.1606866   -3.1606866    -1.921758  0.045957602   -3.1606866    1.2389286   439061 
 1989000     0.826614    -3.161747    -3.161747   -1.9218288  0.049158922    -3.161747    1.2399182   439061 
 1990000   0.82679861   -3.1623687   -3.1623687   -1.9221736  0.054538885   -3.1623687    1.2401951   439061 
 1991000     0.827595   -3.1634647   -3.1634647    -1.922075  0.049048639   -3.1634647    1.2413897   439061 
 1992000   0.82750138   -3.1629649   -3.1629649   -1.9217157  0.051430934   -3.1629649    1.2412492   439061 
 1993000   0.82763011   -3.1628352   -3.1628352   -1.9213928  0.048219903   -3.1628352    1.2414423   439061 
 1994000   0.82713211   -3.1621563   -3.1621563    -1.921461  0.051916206   -3.1621563    1.2406953   439061 
 1995000   0.82754508   -3.1629354   -3.1629354   -1.9216206  0.049325934   -3.1629354    1.2413148   439061 
 1996000   0.82762286   -3.1637339   -3.1637339   -1.9223024  0.051655016   -3.1637339    1.2414315   439061 
 1997000   0.82751658   -3.1637814   -3.1637814   -1.9225093  0.052133439   -3.1637814     1.241272   439061 
 1998000   0.82630694   -3.1614952   -3.1614952   -1.9220376  0.052271065   -3.1614952    1.2394576   439061 
 1999000   0.82679563   -3.1635225   -3.1635225   -1.9233319  0.051887144   -3.1635225    1.2401906   439061 
 2000000   0.82560685   -3.1621966   -3.1621966   -1.9237892  0.052921838   -3.1621966    1.2384074   439061 
 2001000   0.82742594   -3.1647945   -3.1647945   -1.9236584  0.045695295   -3.1647945    1.2411361   439061 
 2002000   0.82535323   -3.1623293   -3.1623293   -1.9243023  0.048429335   -3.1623293     1.238027   439061 
 2003000   0.82586165    -3.163361    -3.163361   -1.9245713  0.049029357    -3.163361    1.2387896   439061 
 2004000   0.82798573   -3.1651653   -3.1651653   -1.9231896  0.050539214   -3.1651653    1.2419758   439061 
 2005000   0.82765297   -3.1641901   -3.1641901   -1.9227135  0.052801981   -3.1641901    1.2414766   439061 
 2006000   0.82695955   -3.1637047   -3.1637047   -1.9232682  0.051078855   -3.1637047    1.2404365   439061 
 2007000   0.82595337   -3.1626963   -3.1626963   -1.9237691   0.04614827   -3.1626963    1.2389272   439061 
 2008000   0.82610396   -3.1631737   -3.1631737   -1.9240205  0.046168467   -3.1631737    1.2391531   439061 
 2009000   0.82670314   -3.1642387   -3.1642387   -1.9241868  0.047320507   -3.1642387    1.2400519   439061 
 2010000   0.82517657   -3.1619079   -3.1619079   -1.9241459  0.051674872   -3.1619079     1.237762   439061 
 2011000    0.8267936   -3.1628541   -3.1628541   -1.9226665  0.049456415   -3.1628541    1.2401876   439061 
 2012000   0.82692961   -3.1627318   -3.1627318   -1.9223402  0.049881582   -3.1627318    1.2403916   439061 
 2013000   0.82654441   -3.1633477   -3.1633477   -1.9235339  0.052050684   -3.1633477    1.2398138   439061 
 2014000   0.82560332   -3.1627118   -3.1627118   -1.9243097  0.052255571   -3.1627118    1.2384022   439061 
 2015000   0.82633195   -3.1640833   -3.1640833   -1.9245882  0.046400092   -3.1640833    1.2394951   439061 
 2016000    0.8265855    -3.164224    -3.164224   -1.9243486  0.051982112    -3.164224    1.2398754   439061 
 2017000   0.82669536   -3.1649423   -3.1649423   -1.9249021  0.049910049   -3.1649423    1.2400402   439061 
 2018000   0.82570547   -3.1643519   -3.1643519   -1.9257965  0.051667862   -3.1643519    1.2385554   439061 
 2019000   0.82596238   -3.1655998   -3.1655998    -1.926659  0.045325339   -3.1655998    1.2389408   439061 
 2020000   0.82549018    -3.165696    -3.165696   -1.9274636  0.048221214    -3.165696    1.2382325   439061 
 2021000   0.82588289   -3.1657947   -3.1657947   -1.9269732  0.048575926   -3.1657947    1.2388215   439061 
 2022000   0.82579404   -3.1657744   -3.1657744   -1.9270862   0.04687445   -3.1657744    1.2386882   439061 
 2023000   0.82704499   -3.1672981   -3.1672981   -1.9267334  0.049429061   -3.1672981    1.2405647   439061 
 2024000   0.82750528    -3.168879    -3.168879   -1.9276239  0.049455923    -3.168879    1.2412551   439061 
 2025000   0.82664992   -3.1680532   -3.1680532   -1.9280812  0.052898729   -3.1680532    1.2399721   439061 
 2026000   0.82748759   -3.1686566   -3.1686566    -1.927428  0.052103852   -3.1686566    1.2412286   439061 
 2027000   0.82786391    -3.168749    -3.168749   -1.9269559  0.057394016    -3.168749     1.241793   439061 
 2028000   0.82659279   -3.1676587   -3.1676587   -1.9277723  0.055071351   -3.1676587    1.2398864   439061 
 2029000   0.82714435   -3.1693081   -3.1693081   -1.9285944  0.045483436   -3.1693081    1.2407137   439061 
 2030000   0.82794634   -3.1700752   -3.1700752   -1.9281585  0.047664182   -3.1700752    1.2419167   439061 
 2031000   0.82631018    -3.169333    -3.169333   -1.9298705  0.046332826    -3.169333    1.2394625   439061 
 2032000   0.82685228   -3.1700248   -3.1700248   -1.9297492  0.052276277   -3.1700248    1.2402756   439061 
 2033000   0.82602221   -3.1686797   -3.1686797   -1.9296492  0.048510089   -3.1686797    1.2390305   439061 
 2034000   0.82653557   -3.1689864   -3.1689864   -1.9291859  0.050296457   -3.1689864    1.2398005   439061 
 2035000   0.82652093   -3.1692284   -3.1692284   -1.9294498  0.046588598   -3.1692284    1.2397786   439061 
 2036000   0.82494991    -3.168541    -3.168541    -1.931119  0.047791413    -3.168541    1.2374221   439061 
 2037000    0.8250468   -3.1685364   -3.1685364   -1.9309691  0.049039475   -3.1685364    1.2375674   439061 
 2038000   0.82458978   -3.1670962   -3.1670962   -1.9302144  0.045717727   -3.1670962    1.2368818   439061 
 2039000   0.82601727   -3.1687514   -3.1687514   -1.9297283  0.051487548   -3.1687514    1.2390231   439061 
 2040000   0.82541847   -3.1689255   -3.1689255   -1.9308006  0.045606581   -3.1689255    1.2381249   439061 
 2041000   0.82439358   -3.1678637   -3.1678637   -1.9312762  0.051736351   -3.1678637    1.2365876   439061 
 2042000   0.82376008   -3.1678824   -3.1678824   -1.9322451    0.0496677   -3.1678824    1.2356373   439061 
 2043000   0.82447234   -3.1690015   -3.1690015   -1.9322958  0.045988257   -3.1690015    1.2367057   439061 
 2044000   0.82349905   -3.1678312   -3.1678312   -1.9325855  0.046918774   -3.1678312    1.2352458   439061 
 2045000   0.82508686   -3.1695577   -3.1695577   -1.9319302  0.047319341   -3.1695577    1.2376275   439061 
 2046000   0.82481879   -3.1705058   -3.1705058   -1.9332804   0.04293844   -3.1705058    1.2372254   439061 
 2047000   0.82435278   -3.1697768   -3.1697768   -1.9332504  0.044246398   -3.1697768    1.2365264   439061 
 2048000   0.82456829   -3.1702772   -3.1702772   -1.9334276  0.048862113   -3.1702772    1.2368496   439061 
 2049000   0.82372086   -3.1697554   -3.1697554   -1.9341769  0.054325696   -3.1697554    1.2355785   439061 
 2050000   0.82473446   -3.1716682   -3.1716682   -1.9345693  0.047033757   -3.1716682    1.2370989   439061 
 2051000   0.82661664   -3.1738412   -3.1738412   -1.9339191  0.050490078   -3.1738412    1.2399221   439061 
 2052000   0.82583663    -3.172939    -3.172939   -1.9341869  0.051549681    -3.172939    1.2387521   439061 
 2053000   0.82678501   -3.1747539   -3.1747539   -1.9345792  0.048206494   -3.1747539    1.2401747   439061 
 2054000    0.8264276   -3.1746458   -3.1746458   -1.9350073  0.053586832   -3.1746458    1.2396386   439061 
 2055000   0.82503102   -3.1732512   -3.1732512   -1.9357075  0.053762094   -3.1732512    1.2375437   439061 
 2056000    0.8241162   -3.1740653   -3.1740653   -1.9378938   0.04992617   -3.1740653    1.2361715   439061 
 2057000   0.82347447   -3.1736603   -3.1736603   -1.9384514  0.049206443   -3.1736603    1.2352089   439061 
 2058000   0.82462309   -3.1748089   -3.1748089   -1.9378771  0.048533286   -3.1748089    1.2369318   439061 
 2059000   0.82508793   -3.1757348   -3.1757348   -1.9381057  0.045072456   -3.1757348    1.2376291   439061 
 2060000   0.82364754   -3.1737911   -3.1737911   -1.9383226  0.049585736   -3.1737911    1.2354685   439061 
 2061000   0.82473195   -3.1749085   -3.1749085   -1.9378134  0.048521489   -3.1749085    1.2370951   439061 
 2062000   0.82485805   -3.1752213   -3.1752213    -1.937937  0.046009643   -3.1752213    1.2372843   439061 
 2063000   0.82530871   -3.1747199   -3.1747199   -1.9367597  0.049100327   -3.1747199    1.2379602   439061 
 2064000   0.82587459   -3.1741869   -3.1741869   -1.9353779   0.05392964   -3.1741869    1.2388091   439061 
 2065000   0.82576037   -3.1745055   -3.1745055   -1.9358678    0.0534245   -3.1745055    1.2386377   439061 
 2066000   0.82528398   -3.1745398   -3.1745398   -1.9366166  0.048830096   -3.1745398    1.2379232   439061 
 2067000   0.82537885   -3.1742759   -3.1742759   -1.9362104  0.051713321   -3.1742759    1.2380655   439061 
 2068000   0.82441641   -3.1735975   -3.1735975   -1.9369757  0.048454625   -3.1735975    1.2366218   439061 
 2069000   0.82470661   -3.1738763   -3.1738763   -1.9368192  0.049005974   -3.1738763    1.2370571   439061 
 2070000   0.82356196   -3.1732064   -3.1732064   -1.9378662  0.049911285   -3.1732064    1.2353401   439061 
 2071000    0.8239975   -3.1740149   -3.1740149   -1.9380215   0.04364872   -3.1740149    1.2359934   439061 
 2072000   0.82494789   -3.1739027   -3.1739027   -1.9364837  0.047583124   -3.1739027     1.237419   439061 
 2073000   0.82479371   -3.1734062   -3.1734062   -1.9362185  0.040319696   -3.1734062    1.2371878   439061 
 2074000   0.82493749   -3.1739723   -3.1739723   -1.9365689    0.0526781   -3.1739723    1.2374034   439061 
 2075000   0.82595709   -3.1754595   -3.1754595   -1.9365267   0.04484196   -3.1754595    1.2389328   439061 
 2076000   0.82436039   -3.1731347   -3.1731347   -1.9365969   0.05007896   -3.1731347    1.2365378   439061 
 2077000   0.82506175   -3.1749961   -3.1749961   -1.9374063   0.04702447   -3.1749961    1.2375898   439061 
 2078000   0.82426618   -3.1742385   -3.1742385   -1.9378421  0.045461167   -3.1742385    1.2363965   439061 
 2079000   0.82484911   -3.1748462   -3.1748462   -1.9375753  0.046235358   -3.1748462    1.2372709   439061 
 2080000   0.82341159   -3.1741555   -3.1741555   -1.9390409  0.048166062   -3.1741555    1.2351146   439061 
 2081000   0.82407859   -3.1755712   -3.1755712   -1.9394561  0.046839108   -3.1755712    1.2361151   439061 
 2082000   0.82325869   -3.1758081   -3.1758081   -1.9409229  0.048242682   -3.1758081    1.2348852   439061 
 2083000   0.82324791   -3.1758451   -3.1758451   -1.9409761  0.044956879   -3.1758451    1.2348691   439061 
 2084000   0.82266969   -3.1748311   -3.1748311   -1.9408294  0.046482528   -3.1748311    1.2340017   439061 
 2085000   0.82303123   -3.1761283   -3.1761283   -1.9415842  0.049154358   -3.1761283     1.234544   439061 
 2086000   0.82390802   -3.1759629   -3.1759629   -1.9401037  0.046608754   -3.1759629    1.2358592   439061 
 2087000   0.82534862   -3.1789693   -3.1789693   -1.9409492  0.045419925   -3.1789693    1.2380201   439061 
 2088000   0.82523556   -3.1786524   -3.1786524   -1.9408019  0.048127066   -3.1786524    1.2378505   439061 
 2089000   0.82535917   -3.1780314   -3.1780314   -1.9399955  0.051370308   -3.1780314    1.2380359   439061 
 2090000   0.82610373   -3.1785843   -3.1785843   -1.9394316  0.050039627   -3.1785843    1.2391528   439061 
 2091000   0.82557243   -3.1790542   -3.1790542   -1.9406984   0.04997551   -3.1790542    1.2383558   439061 
 2092000   0.82532654   -3.1788917   -3.1788917   -1.9409047   0.05462225   -3.1788917     1.237987   439061 
 2093000   0.82485629    -3.178166    -3.178166   -1.9408844  0.054917435    -3.178166    1.2372816   439061 
 2094000   0.82611777    -3.179936    -3.179936   -1.9407621  0.046702244    -3.179936    1.2391738   439061 
 2095000   0.82602138   -3.1799223   -3.1799223    -1.940893  0.052226928   -3.1799223    1.2390293   439061 
 2096000   0.82428842   -3.1789064   -3.1789064   -1.9424766  0.047918765   -3.1789064    1.2364298   439061 
 2097000   0.82453634   -3.1777365   -3.1777365   -1.9409348   0.04866921   -3.1777365    1.2368017   439061 
 2098000   0.82397205    -3.175737    -3.175737   -1.9397818  0.053869319    -3.175737    1.2359553   439061 
 2099000   0.82371116   -3.1765141   -3.1765141   -1.9409502  0.049317741   -3.1765141    1.2355639   439061 
 2100000   0.82442507   -3.1773617   -3.1773617   -1.9407269  0.051406995   -3.1773617    1.2366348   439061 
 2101000   0.82259654   -3.1747164   -3.1747164   -1.9408244  0.050885901   -3.1747164     1.233892   439061 
 2102000   0.82450596   -3.1780966   -3.1780966   -1.9413405  0.045231315   -3.1780966    1.2367561   439061 
 2103000   0.82201311   -3.1751683   -3.1751683   -1.9421514  0.044585224   -3.1751683    1.2330169   439061 
 2104000   0.82394016   -3.1776837   -3.1776837   -1.9417763  0.042500936   -3.1776837    1.2359074   439061 
 2105000   0.82307426    -3.176548    -3.176548   -1.9419394  0.043728459    -3.176548    1.2346086   439061 
 2106000   0.82186938   -3.1736195   -3.1736195   -1.9408183  0.045956356   -3.1736195    1.2328013   439061 
 2107000    0.8226839   -3.1754911   -3.1754911    -1.941468  0.043918318   -3.1754911     1.234023   439061 
 2108000   0.82265243    -3.176973    -3.176973   -1.9429972  0.043551774    -3.176973    1.2339758   439061 
 2109000   0.82175756   -3.1769223   -3.1769223   -1.9442888  0.044870171   -3.1769223    1.2326335   439061 
 2110000   0.82267731   -3.1780126   -3.1780126   -1.9439994  0.043272594   -3.1780126    1.2340131   439061 
 2111000   0.82338654    -3.178623    -3.178623    -1.943546  0.043122943    -3.178623     1.235077   439061 
 2112000   0.82319801   -3.1786507   -3.1786507   -1.9438564  0.047774102   -3.1786507    1.2347942   439061 
 2113000   0.82266046   -3.1777716   -3.1777716   -1.9437837  0.046387574   -3.1777716    1.2339879   439061 
 2114000   0.82299078   -3.1797096   -3.1797096   -1.9452262  0.047079664   -3.1797096    1.2344834   439061 
 2115000   0.82333527   -3.1807918   -3.1807918   -1.9457917  0.049021183   -3.1807918    1.2350001   439061 
 2116000   0.82369567   -3.1813701   -3.1813701   -1.9458294  0.045609043   -3.1813701    1.2355407   439061 
 2117000   0.82330843   -3.1794869   -3.1794869   -1.9445271   0.05196737   -3.1794869    1.2349598   439061 
 2118000   0.82525899   -3.1833672   -3.1833672   -1.9454815  0.053068535   -3.1833672    1.2378857   439061 
 2119000   0.82535379   -3.1832429   -3.1832429   -1.9452151  0.047876104   -3.1832429    1.2380279   439061 
 2120000   0.82460046   -3.1828414   -3.1828414   -1.9459435  0.049166781   -3.1828414    1.2368979   439061 
 2121000   0.82409676   -3.1816639   -3.1816639   -1.9455216  0.051864947   -3.1816639    1.2361423   439061 
 2122000   0.82530514    -3.184237    -3.184237   -1.9462821  0.054043598    -3.184237    1.2379549   439061 
 2123000   0.82404162   -3.1822219   -3.1822219   -1.9461623  0.048639051   -3.1822219    1.2360596   439061 
 2124000   0.82403303   -3.1833287   -3.1833287   -1.9472819  0.046865788   -3.1833287    1.2360467   439061 
 2125000   0.82389635   -3.1828272   -3.1828272   -1.9469855  0.048141386   -3.1828272    1.2358417   439061 
 2126000   0.82350156   -3.1820416   -3.1820416   -1.9467921  0.047332932   -3.1820416    1.2352495   439061 
 2127000   0.82418807   -3.1824632   -3.1824632   -1.9461839  0.047453884   -3.1824632    1.2362793   439061 
 2128000   0.82257997   -3.1807683   -3.1807683   -1.9469012  0.050976592   -3.1807683    1.2338671   439061 
 2129000   0.82326778   -3.1810799   -3.1810799   -1.9461811  0.048506357   -3.1810799    1.2348989   439061 
 2130000   0.82285106   -3.1811547   -3.1811547   -1.9468809  0.043074326   -3.1811547    1.2342738   439061 
 2131000   0.82386164   -3.1818212   -3.1818212   -1.9460315  0.046674551   -3.1818212    1.2357897   439061 
 2132000   0.82279919   -3.1803452   -3.1803452   -1.9461492  0.048312643   -3.1803452     1.234196   439061 
 2133000   0.82307413   -3.1810087   -3.1810087   -1.9464003  0.045314965   -3.1810087    1.2346084   439061 
 2134000   0.82206042   -3.1806557   -3.1806557   -1.9475679    0.0478483   -3.1806557    1.2330878   439061 
 2135000     0.822634   -3.1797775   -3.1797775   -1.9458293  0.042109046   -3.1797775    1.2339482   439061 
 2136000   0.82154577    -3.178029    -3.178029   -1.9457131  0.046946931    -3.178029    1.2323159   439061 
 2137000   0.82275002   -3.1794757   -3.1794757   -1.9453535  0.044164505   -3.1794757    1.2341222   439061 
 2138000   0.82153191   -3.1789815   -3.1789815   -1.9466864  0.049054237   -3.1789815    1.2322951   439061 
 2139000    0.8229222   -3.1800225   -3.1800225    -1.945642  0.049150809   -3.1800225    1.2343805   439061 
 2140000   0.82194401    -3.179349    -3.179349   -1.9464358  0.041113342    -3.179349    1.2329132   439061 
 2141000   0.82194697   -3.1785603   -3.1785603   -1.9456427  0.048746194   -3.1785603    1.2329176   439061 
 2142000   0.82276306   -3.1798811   -3.1798811   -1.9457393  0.044639366   -3.1798811    1.2341418   439061 
 2143000   0.82251922   -3.1806647   -3.1806647   -1.9468887  0.042300926   -3.1806647     1.233776   439061 
 2144000   0.82105372   -3.1796247   -3.1796247    -1.948047  0.042078404   -3.1796247    1.2315778   439061 
 2145000   0.82332882   -3.1825983   -3.1825983   -1.9476079  0.044826955   -3.1825983    1.2349904   439061 
 2146000   0.82284135   -3.1809009   -3.1809009   -1.9466417  0.051268283   -3.1809009    1.2342592   439061 
 2147000   0.82313331   -3.1818191   -3.1818191    -1.947122  0.047259512   -3.1818191    1.2346972   439061 
 2148000   0.82289719   -3.1812256   -3.1812256   -1.9468826   0.04824588   -3.1812256     1.234343   439061 
 2149000    0.8237723   -3.1828679   -3.1828679   -1.9472123  0.043042514   -3.1828679    1.2356556   439061 
 2150000   0.82405716    -3.184002    -3.184002   -1.9479191  0.050330803    -3.184002    1.2360829   439061 
 2151000   0.82446439   -3.1845776   -3.1845776   -1.9478839  0.048805286   -3.1845776    1.2366938   439061 
 2152000   0.82377184   -3.1839336   -3.1839336   -1.9482787  0.047935916   -3.1839336    1.2356549   439061 
 2153000   0.82410367   -3.1852826   -3.1852826   -1.9491299  0.048875608   -3.1852826    1.2361527   439061 
 2154000   0.82529124   -3.1866778   -3.1866778   -1.9487437  0.048275758   -3.1866778     1.237934   439061 
 2155000   0.82316898   -3.1840023   -3.1840023   -1.9492517  0.044401236   -3.1840023    1.2347507   439061 
 2156000   0.82327585   -3.1847194   -3.1847194   -1.9498084  0.050152911   -3.1847194     1.234911   439061 
 2157000   0.82316275   -3.1839953   -3.1839953    -1.949254  0.046732672   -3.1839953    1.2347413   439061 
 2158000   0.82299675   -3.1861977   -3.1861977   -1.9517054  0.042620206   -3.1861977    1.2344923   439061 
 2159000   0.82281546   -3.1846849   -3.1846849   -1.9504645  0.047040256   -3.1846849    1.2342204   439061 
 2160000   0.82199161   -3.1850432   -3.1850432   -1.9520586  0.045692277   -3.1850432    1.2329846   439061 
 2161000   0.82202354   -3.1846749   -3.1846749   -1.9516425  0.050839063   -3.1846749    1.2330325   439061 
 2162000   0.82190754   -3.1840684   -3.1840684   -1.9512099  0.047390374   -3.1840684    1.2328585   439061 
 2163000   0.82236192   -3.1857582   -3.1857582   -1.9522181  0.048920105   -3.1857582    1.2335401   439061 
 2164000   0.82427983   -3.1873088   -3.1873088   -1.9508919  0.042045856   -3.1873088    1.2364169   439061 
 2165000   0.82286282   -3.1845255   -3.1845255   -1.9502341  0.044163646   -3.1845255    1.2342914   439061 
 2166000    0.8228621   -3.1845466   -3.1845466   -1.9502563  0.045097132   -3.1845466    1.2342903   439061 
 2167000   0.82302376   -3.1854235   -3.1854235   -1.9508906  0.045254371   -3.1854235    1.2345328   439061 
 2168000   0.82160837   -3.1828834   -3.1828834   -1.9504736  0.042881632   -3.1828834    1.2324098   439061 
 2169000   0.82295295   -3.1847777   -3.1847777   -1.9503511  0.047277233   -3.1847777    1.2344266   439061 
 2170000    0.8241299   -3.1864646   -3.1864646   -1.9502726  0.043895096   -3.1864646     1.236192   439061 
 2171000   0.82390336   -3.1863293   -3.1863293   -1.9504771  0.049508219   -3.1863293    1.2358522   439061 
 2172000   0.82266559   -3.1859531   -3.1859531   -1.9519576  0.046445078   -3.1859531    1.2339956   439061 
 2173000   0.82150282   -3.1851907   -3.1851907   -1.9529393  0.046218441   -3.1851907    1.2322514   439061 
 2174000   0.82212364   -3.1846845   -3.1846845   -1.9515018  0.049528435   -3.1846845    1.2331826   439061 
 2175000   0.82173356   -3.1840728   -3.1840728   -1.9514752  0.046304912   -3.1840728    1.2325975   439061 
 2176000   0.82098591   -3.1828189   -3.1828189   -1.9513429  0.047141531   -3.1828189    1.2314761   439061 
 2177000    0.8227388   -3.1867097   -3.1867097   -1.9526043  0.044672667   -3.1867097    1.2341054   439061 
 2178000   0.82442576   -3.1890532   -3.1890532   -1.9524174  0.046858194   -3.1890532    1.2366358   439061 
 2179000   0.82360709   -3.1876044   -3.1876044   -1.9521966  0.048253189   -3.1876044    1.2354078   439061 
 2180000   0.82377499    -3.188807    -3.188807   -1.9531474  0.046678663    -3.188807    1.2356597   439061 
 2181000   0.82231996   -3.1877491   -3.1877491    -1.954272   0.04504865   -3.1877491    1.2334771   439061 
 2182000    0.8225778   -3.1876574   -3.1876574   -1.9537935  0.047310645   -3.1876574    1.2338639   439061 
 2183000    0.8237187   -3.1890381   -3.1890381   -1.9534628  0.046528605   -3.1890381    1.2355752   439061 
 2184000   0.82226326    -3.187791    -3.187791   -1.9543989  0.047951203    -3.187791    1.2333921   439061 
 2185000    0.8224493   -3.1880689   -3.1880689   -1.9543978  0.044657819   -3.1880689    1.2336711   439061 
 2186000   0.82244121   -3.1874928   -3.1874928   -1.9538338   0.04847745   -3.1874928     1.233659   439061 
 2187000   0.82357897   -3.1902619   -3.1902619   -1.9548963  0.045729912   -3.1902619    1.2353656   439061 
 2188000   0.82302396   -3.1889173   -3.1889173   -1.9543842  0.045404898   -3.1889173    1.2345331   439061 
 2189000   0.82322125   -3.1890291   -3.1890291   -1.9542001  0.046184696   -3.1890291    1.2348291   439061 
 2190000    0.8215319    -3.188643    -3.188643   -1.9563479  0.048744316    -3.188643     1.232295   439061 
 2191000   0.82171681   -3.1884175   -3.1884175   -1.9558451  0.047087139   -3.1884175    1.2325724   439061 
 2192000   0.82172864   -3.1895728   -3.1895728   -1.9569827  0.049505512   -3.1895728    1.2325902   439061 
 2193000   0.82244631   -3.1900557   -3.1900557    -1.956389  0.048764997   -3.1900557    1.2336667   439061 
 2194000   0.82295335   -3.1917094   -3.1917094   -1.9572822  0.045407737   -3.1917094    1.2344272   439061 
 2195000   0.82176035   -3.1896552   -3.1896552   -1.9570175  0.047396777   -3.1896552    1.2326377   439061 
 2196000   0.82313648   -3.1918778   -3.1918778   -1.9571759   0.04858876   -3.1918778    1.2347019   439061 
 2197000   0.82036075   -3.1888237   -3.1888237   -1.9582854  0.049225763   -3.1888237    1.2305383   439061 
 2198000   0.82248274   -3.1916687   -3.1916687   -1.9579474  0.044084182   -3.1916687    1.2337213   439061 
 2199000   0.82146538   -3.1909772   -3.1909772   -1.9587819  0.048071619   -3.1909772    1.2321953   439061 
 2200000   0.82156708   -3.1907904   -3.1907904   -1.9584426  0.047832033   -3.1907904    1.2323478   439061 
 2201000   0.82227935   -3.1917592   -3.1917592    -1.958343  0.046909677   -3.1917592    1.2334162   439061 
 2202000   0.82173449   -3.1898552   -3.1898552   -1.9572562  0.047665361   -3.1898552    1.2325989   439061 
 2203000   0.82278724   -3.1923272   -3.1923272   -1.9581491  0.048965292   -3.1923272     1.234178   439061 
 2204000   0.82254178   -3.1919253   -3.1919253   -1.9581154  0.051778569   -3.1919253    1.2338099   439061 
 2205000   0.82207645   -3.1913335   -3.1913335   -1.9582216  0.047644223   -3.1913335    1.2331119   439061 
 2206000   0.82228545   -3.1919831   -3.1919831   -1.9585577  0.044321738   -3.1919831    1.2334254   439061 
 2207000   0.82129249   -3.1912559   -3.1912559   -1.9593199  0.045883964   -3.1912559    1.2319359   439061 
 2208000   0.82134796   -3.1918042   -3.1918042    -1.959785  0.043365003   -3.1918042    1.2320191   439061 
 2209000   0.82033168   -3.1913983   -3.1913983   -1.9609036  0.048971279   -3.1913983    1.2304947   439061 
 2210000   0.82115639   -3.1924294   -3.1924294   -1.9606976  0.045607153   -3.1924294    1.2317318   439061 
 2211000   0.82035671   -3.1922738   -3.1922738   -1.9617415  0.044752852   -3.1922738    1.2305323   439061 
 2212000   0.82104232   -3.1920107   -3.1920107     -1.96045   0.05024881   -3.1920107    1.2315607   439061 
 2213000   0.82261777   -3.1937405   -3.1937405   -1.9598167  0.043159798   -3.1937405    1.2339238   439061 
 2214000    0.8221569    -3.192798    -3.192798   -1.9595655  0.049298926    -3.192798    1.2332325   439061 
 2215000   0.82366504   -3.1933322   -3.1933322   -1.9578374  0.051497524   -3.1933322    1.2354947   439061 
 2216000   0.82428861   -3.1951147   -3.1951147   -1.9586846  0.045857157   -3.1951147    1.2364301   439061 
 2217000    0.8228538    -3.194513    -3.194513   -1.9602351   0.05222019    -3.194513    1.2342779   439061 
 2218000   0.82320405   -3.1959309   -3.1959309   -1.9611276  0.045564449   -3.1959309    1.2348033   439061 
 2219000   0.82173699    -3.192323    -3.192323   -1.9597203  0.051634436    -3.192323    1.2326027   439061 
 2220000   0.82328477   -3.1950044   -3.1950044     -1.96008   0.04838352   -3.1950044    1.2349243   439061 
 2221000   0.82272617   -3.1946753   -3.1946753   -1.9605889  0.047036851   -3.1946753    1.2340864   439061 
 2222000   0.82152575   -3.1945161   -3.1945161   -1.9622303  0.050479232   -3.1945161    1.2322858   439061 
 2223000   0.82251625   -3.1952083   -3.1952083   -1.9614367  0.042872478   -3.1952083    1.2337716   439061 
 2224000   0.82156994   -3.1945336   -3.1945336   -1.9621815  0.046177656   -3.1945336    1.2323521   439061 
 2225000    0.8222254   -3.1944347   -3.1944347   -1.9610994  0.041608214   -3.1944347    1.2333353   439061 
 2226000   0.81980142   -3.1904629   -3.1904629   -1.9607636  0.046667267   -3.1904629    1.2296993   439061 
 2227000   0.82058867   -3.1923504   -3.1923504   -1.9614702  0.042239714   -3.1923504    1.2308802   439061 
 2228000   0.82071389   -3.1927066   -3.1927066   -1.9616385  0.043665466   -3.1927066     1.231068   439061 
 2229000   0.82058309   -3.1919524   -3.1919524   -1.9610805  0.039887693   -3.1919524    1.2308718   439061 
 2230000   0.82107398   -3.1915011   -3.1915011   -1.9598929  0.045665505   -3.1915011    1.2316082   439061 
 2231000   0.82158587   -3.1937202   -3.1937202   -1.9613442  0.044171173   -3.1937202     1.232376   439061 
 2232000   0.82132013   -3.1930236   -3.1930236   -1.9610462  0.045861471   -3.1930236    1.2319774   439061 
 2233000   0.82160567   -3.1935678   -3.1935678   -1.9611621  0.047632234   -3.1935678    1.2324057   439061 
 2234000   0.82133198   -3.1936305   -3.1936305   -1.9616353  0.046758409   -3.1936305    1.2319952   439061 
 2235000   0.82156117   -3.1940367   -3.1940367   -1.9616978  0.046726426   -3.1940367    1.2323389   439061 
 2236000   0.82136507   -3.1944779   -3.1944779   -1.9624331  0.048655381   -3.1944779    1.2320448   439061 
 2237000   0.82227152   -3.1952332   -3.1952332   -1.9618287  0.048637125   -3.1952332    1.2334045   439061 
 2238000   0.82147951   -3.1956433   -3.1956433   -1.9634268  0.044439697   -3.1956433    1.2322165   439061 
 2239000   0.82081349   -3.1945581   -3.1945581   -1.9633407  0.047758836   -3.1945581    1.2312174   439061 
 2240000   0.82149068   -3.1961679   -3.1961679   -1.9639347  0.050902012   -3.1961679    1.2322332   439061 
 2241000   0.82098348   -3.1956525   -3.1956525   -1.9641801  0.051458967   -3.1956525    1.2314724   439061 
 2242000   0.82060258   -3.1965445   -3.1965445   -1.9656435  0.050710685   -3.1965445    1.2309011   439061 
 2243000   0.82133711   -3.1970425   -3.1970425   -1.9650397   0.04338111   -3.1970425    1.2320029   439061 
 2244000    0.8225727   -3.1975875   -3.1975875   -1.9637313  0.045317194   -3.1975875    1.2338562   439061 
 2245000   0.82279217    -3.197705    -3.197705   -1.9635196   0.04716628    -3.197705    1.2341854   439061 
 2246000   0.82231193   -3.1956979   -3.1956979   -1.9622328  0.051481101   -3.1956979    1.2334651   439061 
 2247000    0.8224985   -3.1959272   -3.1959272   -1.9621823  0.051196372   -3.1959272    1.2337449   439061 
 2248000   0.82327575   -3.1969918   -3.1969918    -1.962081  0.047132144   -3.1969918    1.2349108   439061 
 2249000   0.82275207   -3.1964842   -3.1964842   -1.9623589  0.045982433   -3.1964842    1.2341253   439061 
 2250000   0.82196789   -3.1961885   -3.1961885   -1.9632395  0.043384833   -3.1961885     1.232949   439061 
 2251000   0.82131947   -3.1953897   -3.1953897   -1.9634133  0.045426672   -3.1953897    1.2319764   439061 
 2252000   0.81979329   -3.1921241   -3.1921241   -1.9624369  0.045568261   -3.1921241    1.2296871   439061 
 2253000   0.82089876   -3.1943701   -3.1943701   -1.9630248  0.041869296   -3.1943701    1.2313453   439061 
 2254000   0.81965206   -3.1932278   -3.1932278   -1.9637525  0.044084028   -3.1932278    1.2294753   439061 
 2255000   0.82050964   -3.1942969   -3.1942969   -1.9635352  0.042645861   -3.1942969    1.2307617   439061 
 2256000   0.82040694   -3.1954516   -3.1954516    -1.964844  0.039886831   -3.1954516    1.2306076   439061 
 2257000   0.81948827   -3.1939726   -3.1939726    -1.964743  0.044540924   -3.1939726    1.2292296   439061 
 2258000   0.82044239   -3.1939474   -3.1939474   -1.9632866  0.045639059   -3.1939474    1.2306608   439061 
 2259000   0.82050403   -3.1932356   -3.1932356   -1.9624824  0.044565789   -3.1932356    1.2307532   439061 
 2260000   0.82015989   -3.1929258   -3.1929258   -1.9626887  0.044563309   -3.1929258     1.230237   439061 
 2261000   0.81989453   -3.1936831   -3.1936831   -1.9638441   0.04370859   -3.1936831     1.229839   439061 
 2262000   0.82161414   -3.1965111   -3.1965111   -1.9640927  0.044429657   -3.1965111    1.2324184   439061 
 2263000   0.82120535   -3.1970245   -3.1970245   -1.9652193  0.042226942   -3.1970245    1.2318052   439061 
 2264000   0.81864942   -3.1943746   -3.1943746   -1.9664033  0.047572927   -3.1943746    1.2279713   439061 
 2265000   0.82041722   -3.1959836   -3.1959836   -1.9653605   0.04595767   -3.1959836     1.230623   439061 
 2266000   0.82149331   -3.1969581   -3.1969581    -1.964721  0.044855523   -3.1969581    1.2322372   439061 
 2267000   0.82110707   -3.1975824   -3.1975824   -1.9659246  0.043960806   -3.1975824    1.2316578   439061 
 2268000   0.82086514     -3.19675     -3.19675   -1.9654551  0.052060737     -3.19675    1.2312949   439061 
 2269000   0.82190445   -3.1994382   -3.1994382   -1.9665843  0.044353003   -3.1994382    1.2328539   439061 
 2270000   0.82196673    -3.198952    -3.198952   -1.9660047  0.053367337    -3.198952    1.2329473   439061 
 2271000   0.82149321   -3.1989527   -3.1989527   -1.9667157  0.050641952   -3.1989527     1.232237   439061 
 2272000   0.82186313   -3.1997861   -3.1997861   -1.9669942  0.044435305   -3.1997861    1.2327919   439061 
 2273000   0.82169148   -3.1996302   -3.1996302   -1.9670958  0.041573935   -3.1996302    1.2325344   439061 
 2274000   0.82029202   -3.1999137   -3.1999137   -1.9694785  0.044434759   -3.1999137    1.2304352   439061 
 2275000   0.82092351    -3.200765    -3.200765   -1.9693825  0.044065746    -3.200765    1.2313825   439061 
 2276000    0.8203876   -3.2008571   -3.2008571   -1.9702785  0.046654238   -3.2008571    1.2305786   439061 
 2277000   0.82123683   -3.2018385   -3.2018385   -1.9699861  0.042848517   -3.2018385    1.2318524   439061 
 2278000   0.82087798   -3.2003102   -3.2003102   -1.9689961  0.045333357   -3.2003102    1.2313142   439061 
 2279000   0.82186046    -3.201938    -3.201938   -1.9691502  0.046487181    -3.201938    1.2327879   439061 
 2280000   0.82067882   -3.1999467   -3.1999467   -1.9689313  0.047237088   -3.1999467    1.2310154   439061 
 2281000   0.82157225   -3.2020802   -3.2020802   -1.9697247  0.047900911   -3.2020802    1.2323556   439061 
 2282000   0.81927565   -3.2006465   -3.2006465   -1.9717358  0.046806706   -3.2006465    1.2289107   439061 
 2283000    0.8207354   -3.2022691   -3.2022691   -1.9711688  0.044500061   -3.2022691    1.2311003   439061 
 2284000   0.82143994   -3.2030818   -3.2030818   -1.9709247  0.044073118   -3.2030818    1.2321571   439061 
 2285000   0.82009265     -3.20259     -3.20259   -1.9724538  0.040163457     -3.20259    1.2301362   439061 
 2286000   0.82012613    -3.201415    -3.201415   -1.9712286  0.044925278    -3.201415    1.2301864   439061 
 2287000   0.82046949   -3.2020242   -3.2020242   -1.9713228  0.047819108   -3.2020242    1.2307014   439061 
 2288000   0.81977889   -3.2027714   -3.2027714   -1.9731058  0.048830376   -3.2027714    1.2296655   439061 
 2289000   0.82138591   -3.2047829   -3.2047829   -1.9727068  0.046480078   -3.2047829    1.2320761   439061 
 2290000   0.82047824   -3.2029057   -3.2029057   -1.9721911  0.050015373   -3.2029057    1.2307146   439061 
 2291000    0.8205529   -3.2025562   -3.2025562   -1.9717296  0.040369239   -3.2025562    1.2308266   439061 
 2292000   0.82033613    -3.203695    -3.203695   -1.9731936  0.041154267    -3.203695    1.2305014   439061 
 2293000   0.82068608   -3.2041108   -3.2041108   -1.9730845  0.050130287   -3.2041108    1.2310263   439061 
 2294000   0.81966181   -3.2017949   -3.2017949   -1.9723049  0.047772034   -3.2017949    1.2294899   439061 
 2295000   0.82071818   -3.2042897   -3.2042897   -1.9732152  0.045882692   -3.2042897    1.2310745   439061 
 2296000   0.82075619    -3.204646    -3.204646   -1.9735145   0.04767993    -3.204646    1.2311315   439061 
 2297000   0.82196221   -3.2057642   -3.2057642   -1.9728237   0.04527801   -3.2057642    1.2329405   439061 
 2298000   0.82109094   -3.2051764   -3.2051764   -1.9735428  0.042703942   -3.2051764    1.2316336   439061 
 2299000   0.82040632   -3.2027136   -3.2027136   -1.9721069  0.048486313   -3.2027136    1.2306067   439061 
 2300000   0.82047592   -3.2023581   -3.2023581    -1.971647  0.046482151   -3.2023581    1.2307111   439061 
 2301000   0.82168649   -3.2054234   -3.2054234   -1.9728965  0.045306191   -3.2054234    1.2325269   439061 
 2302000   0.81970553   -3.2028354   -3.2028354   -1.9732799  0.044946527   -3.2028354    1.2295555   439061 
 2303000   0.82034948   -3.2043707   -3.2043707   -1.9738492  0.043560357   -3.2043707    1.2305214   439061 
 2304000   0.82069219   -3.2043761   -3.2043761   -1.9733406  0.040723863   -3.2043761    1.2310355   439061 
 2305000   0.81992761   -3.2039721   -3.2039721   -1.9740835  0.040562757   -3.2039721    1.2298886   439061 
 2306000   0.82027876   -3.2048024   -3.2048024    -1.974387   0.03896818   -3.2048024    1.2304153   439061 
 2307000   0.81918449   -3.2028991   -3.2028991   -1.9741252  0.042803463   -3.2028991    1.2287739   439061 
 2308000   0.81823927   -3.2022304   -3.2022304   -1.9748743  0.046812799   -3.2022304    1.2273561   439061 
 2309000   0.82006476   -3.2048172   -3.2048172   -1.9747228  0.041938542   -3.2048172    1.2300943   439061 
 2310000   0.81824471   -3.2031509   -3.2031509   -1.9757866  0.045822745   -3.2031509    1.2273643   439061 
 2311000   0.81923674   -3.2051158   -3.2051158   -1.9762635  0.047338234   -3.2051158    1.2288523   439061 
 2312000   0.81973922     -3.20498     -3.20498    -1.975374  0.045513626     -3.20498     1.229606   439061 
 2313000   0.82021163   -3.2058479   -3.2058479   -1.9755332  0.040156874   -3.2058479    1.2303146   439061 
 2314000   0.82067223    -3.207352    -3.207352   -1.9763465  0.043900127    -3.207352    1.2310055   439061 
 2315000    0.8202573    -3.206833    -3.206833   -1.9764499  0.040709529    -3.206833    1.2303832   439061 
 2316000   0.82082416    -3.206832    -3.206832   -1.9755986  0.043904204    -3.206832    1.2312334   439061 
 2317000   0.82048532   -3.2072451   -3.2072451   -1.9765199  0.046343992   -3.2072451    1.2307252   439061 
 2318000   0.82134149   -3.2082653   -3.2082653   -1.9762559  0.047952115   -3.2082653    1.2320094   439061 
 2319000   0.81997734   -3.2067439   -3.2067439   -1.9767807  0.045757631   -3.2067439    1.2299632   439061 
 2320000   0.82050988   -3.2077318   -3.2077318   -1.9769698  0.043627285   -3.2077318     1.230762   439061 
 2321000    0.8189312   -3.2063562   -3.2063562   -1.9779622  0.046529037   -3.2063562     1.228394   439061 
 2322000   0.81975158   -3.2076685   -3.2076685   -1.9780439  0.044492341   -3.2076685    1.2296246   439061 
 2323000   0.81983267   -3.2068506   -3.2068506   -1.9771044  0.047720977   -3.2068506    1.2297462   439061 
 2324000   0.81908899    -3.206091    -3.206091   -1.9774603   0.04122002    -3.206091    1.2286307   439061 
 2325000   0.81843828   -3.2069279   -3.2069279   -1.9792732  0.044744624   -3.2069279    1.2276546   439061 
 2326000   0.81990513   -3.2086124   -3.2086124   -1.9787575  0.044603481   -3.2086124    1.2298549   439061 
 2327000   0.81862075    -3.207161    -3.207161   -1.9792327  0.042142192    -3.207161    1.2279283   439061 
 2328000   0.82091418   -3.2101878   -3.2101878   -1.9788193  0.042091606   -3.2101878    1.2313685   439061 
 2329000   0.81871426    -3.206607    -3.206607   -1.9785384  0.045898544    -3.206607    1.2280686   439061 
 2330000   0.81935074   -3.2077434   -3.2077434   -1.9787201  0.038770826   -3.2077434    1.2290233   439061 
 2331000   0.81972383   -3.2071303   -3.2071303   -1.9775473  0.042718846   -3.2071303    1.2295829   439061 
 2332000   0.81990234   -3.2080279   -3.2080279   -1.9781771  0.044156874   -3.2080279    1.2298507   439061 
 2333000   0.82104546   -3.2090273   -3.2090273   -1.9774619  0.048801211   -3.2090273    1.2315654   439061 
 2334000   0.82016517   -3.2092469   -3.2092469    -1.979002  0.047636515   -3.2092469    1.2302449   439061 
 2335000   0.81930848   -3.2071428   -3.2071428   -1.9781829  0.042339414   -3.2071428    1.2289599   439061 
 2336000   0.82076741   -3.2086158   -3.2086158   -1.9774675  0.044939011   -3.2086158    1.2311483   439061 
 2337000    0.8195998   -3.2064717   -3.2064717   -1.9770748  0.045147287   -3.2064717    1.2293969   439061 
 2338000   0.81966032   -3.2073041   -3.2073041   -1.9778164  0.048037055   -3.2073041    1.2294877   439061 
 2339000   0.81846536     -3.20731     -3.20731   -1.9796147  0.045882686     -3.20731    1.2276952   439061 
 2340000   0.81925037   -3.2078173   -3.2078173   -1.9789446  0.045958273   -3.2078173    1.2288728   439061 
 2341000   0.81921663   -3.2075069   -3.2075069   -1.9786848  0.043535354   -3.2075069    1.2288221   439061 
 2342000   0.81915947   -3.2061576   -3.2061576   -1.9774212   0.04662094   -3.2061576    1.2287364   439061 
 2343000    0.8221733   -3.2101206   -3.2101206   -1.9768635   0.04015832   -3.2101206    1.2332571   439061 
 2344000   0.81985875    -3.206608    -3.206608   -1.9768227  0.042993684    -3.206608    1.2297853   439061 
 2345000   0.82032751   -3.2079276   -3.2079276   -1.9774391  0.043789428   -3.2079276    1.2304885   439061 
 2346000   0.81926185   -3.2064936   -3.2064936   -1.9776036  0.042652886   -3.2064936      1.22889   439061 
 2347000   0.82087319   -3.2081774   -3.2081774   -1.9768704  0.043789033   -3.2081774     1.231307   439061 
 2348000   0.81964993   -3.2071441   -3.2071441    -1.977672   0.04599097   -3.2071441    1.2294721   439061 
 2349000   0.81981789   -3.2076849   -3.2076849   -1.9779608  0.049220153   -3.2076849     1.229724   439061 
 2350000   0.81968874   -3.2076954   -3.2076954   -1.9781651  0.045287104   -3.2076954    1.2295303   439061 
 2351000    0.8201923   -3.2080907   -3.2080907   -1.9778051  0.041144797   -3.2080907    1.2302856   439061 
 2352000   0.81999189   -3.2083127   -3.2083127   -1.9783276  0.043935497   -3.2083127     1.229985   439061 
 2353000   0.82030807   -3.2088404   -3.2088404   -1.9783811  0.045192619   -3.2088404    1.2304593   439061 
 2354000   0.81866657   -3.2070683   -3.2070683   -1.9790713  0.046554393   -3.2070683    1.2279971   439061 
 2355000   0.81983408   -3.2088428   -3.2088428   -1.9790945  0.045771687   -3.2088428    1.2297483   439061 
 2356000    0.8189368   -3.2086617   -3.2086617   -1.9802593  0.050349577   -3.2086617    1.2284024   439061 
 2357000   0.81977313   -3.2088853   -3.2088853   -1.9792284  0.042401197   -3.2088853    1.2296569   439061 
 2358000    0.8200993   -3.2087947   -3.2087947   -1.9786486  0.048212007   -3.2087947    1.2301461   439061 
 2359000   0.82008995   -3.2090692   -3.2090692   -1.9789371  0.043916137   -3.2090692    1.2301321   439061 
 2360000    0.8196404   -3.2090173   -3.2090173   -1.9795595  0.045917589   -3.2090173    1.2294578   439061 
 2361000   0.82102741   -3.2096753   -3.2096753    -1.978137  0.048560059   -3.2096753    1.2315383   439061 
 2362000   0.82157701   -3.2106805   -3.2106805   -1.9783178   0.04643992   -3.2106805    1.2323627   439061 
 2363000   0.82143936   -3.2099267   -3.2099267   -1.9777705  0.048904967   -3.2099267    1.2321562   439061 
 2364000   0.82105415   -3.2109355   -3.2109355   -1.9793571  0.051260651   -3.2109355    1.2315784   439061 
 2365000   0.82118293   -3.2100756   -3.2100756    -1.978304  0.047451876   -3.2100756    1.2317716   439061 
 2366000   0.82018315   -3.2096815   -3.2096815   -1.9794096   0.04835844   -3.2096815    1.2302719   439061 
 2367000   0.82126298   -3.2102492   -3.2102492   -1.9783576  0.045753517   -3.2102492    1.2318917   439061 
 2368000   0.82109417   -3.2086998   -3.2086998   -1.9770613  0.049188892   -3.2086998    1.2316384   439061 
 2369000   0.82057869   -3.2095649   -3.2095649   -1.9786997  0.043867528   -3.2095649    1.2308652   439061 
 2370000   0.82045911      -3.2085      -3.2085   -1.9778141  0.043097652      -3.2085    1.2306859   439061 
 2371000   0.81934035   -3.2079597   -3.2079597    -1.978952  0.043292151   -3.2079597    1.2290077   439061 
 2372000    0.8188452   -3.2074127   -3.2074127   -1.9791477  0.043446279   -3.2074127     1.228265   439061 
 2373000   0.81837422   -3.2071063   -3.2071063   -1.9795478  0.044840407   -3.2071063    1.2275585   439061 
 2374000   0.82023804   -3.2107504   -3.2107504   -1.9803962  0.038566972   -3.2107504    1.2303543   439061 
 2375000   0.81934882   -3.2101685   -3.2101685    -1.981148  0.041940197   -3.2101685    1.2290204   439061 
 2376000   0.81932638   -3.2097696   -3.2097696   -1.9807828  0.041023073   -3.2097696    1.2289868   439061 
 2377000    0.8182056   -3.2082648   -3.2082648   -1.9809592  0.041616578   -3.2082648    1.2273056   439061 
 2378000   0.81867834   -3.2088333   -3.2088333   -1.9808186  0.045083241   -3.2088333    1.2280147   439061 
 2379000   0.81895917   -3.2087743   -3.2087743   -1.9803384  0.045314319   -3.2087743     1.228436   439061 
 2380000   0.82053572   -3.2109063   -3.2109063   -1.9801056   0.04602671   -3.2109063    1.2308008   439061 
 2381000   0.82045588   -3.2109014   -3.2109014   -1.9802204  0.046961696   -3.2109014     1.230681   439061 
 2382000   0.82121763   -3.2123345   -3.2123345   -1.9805109  0.044114873   -3.2123345    1.2318236   439061 
 2383000   0.82042549   -3.2107361   -3.2107361   -1.9801007  0.047422129   -3.2107361    1.2306354   439061 
 2384000   0.82110288   -3.2118792   -3.2118792   -1.9802277  0.047900018   -3.2118792    1.2316515   439061 
 2385000   0.82087114   -3.2117977   -3.2117977   -1.9804938  0.049197405   -3.2117977    1.2313039   439061 
 2386000    0.8202096   -3.2125652   -3.2125652   -1.9822536   0.04535123   -3.2125652    1.2303116   439061 
 2387000   0.81962136   -3.2114727   -3.2114727   -1.9820435  0.043436198   -3.2114727    1.2294292   439061 
 2388000    0.8208891    -3.212615    -3.212615   -1.9812841  0.042405203    -3.212615    1.2313308   439061 
 2389000   0.81959282   -3.2117024   -3.2117024    -1.982316  0.046484526   -3.2117024    1.2293864   439061 
 2390000   0.81971704   -3.2122511   -3.2122511   -1.9826783  0.045857681   -3.2122511    1.2295728   439061 
 2391000   0.81803802   -3.2105868   -3.2105868   -1.9835326  0.050305056   -3.2105868    1.2270542   439061 
 2392000   0.81961654   -3.2124515   -3.2124515   -1.9830295  0.044273163   -3.2124515     1.229422   439061 
 2393000   0.81953548   -3.2122246   -3.2122246   -1.9829242  0.045710731   -3.2122246    1.2293004   439061 
 2394000   0.82168797    -3.214465    -3.214465   -1.9819359  0.043479484    -3.214465    1.2325292   439061 
 2395000   0.82009878   -3.2124269   -3.2124269   -1.9822816  0.045743491   -3.2124269    1.2301454   439061 
 2396000   0.82014816   -3.2124115   -3.2124115   -1.9821921  0.040657527   -3.2124115    1.2302194   439061 
 2397000   0.81945434   -3.2111958   -3.2111958   -1.9820171  0.039303507   -3.2111958    1.2291787   439061 
 2398000   0.81940587   -3.2114849   -3.2114849   -1.9823789   0.04080751   -3.2114849     1.229106   439061 
 2399000   0.81914198    -3.212599    -3.212599   -1.9838889   0.03908126    -3.212599    1.2287102   439061 
 2400000   0.81974183   -3.2133064   -3.2133064   -1.9836965  0.045269543   -3.2133064    1.2296099   439061 
 2401000   0.81887596    -3.211383    -3.211383   -1.9830718  0.041987598    -3.211383    1.2283111   439061 
 2402000   0.82099715    -3.213101    -3.213101   -1.9816081   0.04806055    -3.213101    1.2314929   439061 
 2403000   0.81842173   -3.2115368   -3.2115368    -1.983907   0.04694053   -3.2115368    1.2276298   439061 
 2404000   0.82037968   -3.2136007   -3.2136007    -1.983034  0.044799731   -3.2136007    1.2305667   439061 
 2405000   0.81976171   -3.2130425   -3.2130425   -1.9834028  0.046431605   -3.2130425    1.2296398   439061 
 2406000   0.81934338   -3.2141889   -3.2141889   -1.9851767  0.043649627   -3.2141889    1.2290123   439061 
 2407000   0.81936739   -3.2139496   -3.2139496   -1.9849013  0.044547876   -3.2139496    1.2290483   439061 
 2408000   0.81888647   -3.2134221   -3.2134221   -1.9850952  0.042755149   -3.2134221    1.2283269   439061 
 2409000   0.81945504   -3.2145296   -3.2145296   -1.9853499  0.043159492   -3.2145296    1.2291798   439061 
 2410000   0.81866819   -3.2139263   -3.2139263   -1.9859268   0.03984188   -3.2139263    1.2279995   439061 
 2411000   0.81971265   -3.2165382   -3.2165382    -1.986972  0.038223819   -3.2165382    1.2295662   439061 
 2412000   0.81904089   -3.2153325   -3.2153325   -1.9867739  0.041140226   -3.2153325    1.2285585   439061 
 2413000   0.81864729   -3.2133908   -3.2133908   -1.9854227  0.044848284   -3.2133908    1.2279681   439061 
 2414000   0.81886545    -3.215122    -3.215122   -1.9868267    0.0471404    -3.215122    1.2282954   439061 
 2415000   0.82017128   -3.2175978   -3.2175978   -1.9873437  0.042041865   -3.2175978    1.2302541   439061 
 2416000   0.82054039    -3.216685    -3.216685   -1.9858772  0.045072321    -3.216685    1.2308078   439061 
 2417000   0.82117885   -3.2171324   -3.2171324   -1.9853669  0.043541335   -3.2171324    1.2317655   439061 
 2418000   0.82008981   -3.2165261   -3.2165261   -1.9863942  0.043159636   -3.2165261    1.2301319   439061 
 2419000   0.82038309   -3.2172324   -3.2172324   -1.9866606  0.047225604   -3.2172324    1.2305718   439061 
 2420000   0.82041468   -3.2164923   -3.2164923   -1.9858731   0.05145406   -3.2164923    1.2306192   439061 
 2421000   0.81814344   -3.2144254   -3.2144254    -1.987213   0.05193426   -3.2144254    1.2272124   439061 
 2422000   0.81959802   -3.2180731   -3.2180731   -1.9886789  0.046354713   -3.2180731    1.2293942   439061 
 2423000   0.81894558   -3.2184211   -3.2184211   -1.9900055  0.038257142   -3.2184211    1.2284156   439061 
 2424000   0.81914418   -3.2189457   -3.2189457   -1.9902323  0.044973692   -3.2189457    1.2287135   439061 
 2425000   0.81929773   -3.2189805   -3.2189805   -1.9900367   0.04216841   -3.2189805    1.2289438   439061 
 2426000   0.81930942   -3.2188693   -3.2188693   -1.9899079  0.045780647   -3.2188693    1.2289613   439061 
 2427000   0.81896187   -3.2179119   -3.2179119   -1.9894719  0.043481297   -3.2179119      1.22844   439061 
 2428000   0.81942159   -3.2172537   -3.2172537   -1.9881241  0.040106033   -3.2172537    1.2291296   439061 
 2429000   0.81863728   -3.2161135   -3.2161135   -1.9881604  0.039914751   -3.2161135    1.2279531   439061 
 2430000   0.81869183   -3.2168578   -3.2168578   -1.9888228  0.042249408   -3.2168578    1.2280349   439061 
 2431000   0.81855222   -3.2177344   -3.2177344   -1.9899088  0.042747167   -3.2177344    1.2278255   439061 
 2432000   0.81904167   -3.2185224   -3.2185224   -1.9899627  0.041248304   -3.2185224    1.2285597   439061 
 2433000   0.81797656   -3.2171572   -3.2171572   -1.9901951  0.040672266   -3.2171572     1.226962   439061 
 2434000   0.81812513   -3.2163505   -3.2163505   -1.9891656  0.045067028   -3.2163505    1.2271849   439061 
 2435000   0.81894781   -3.2181401   -3.2181401   -1.9897212  0.042652817   -3.2181401    1.2284189   439061 
 2436000   0.81838277   -3.2176678   -3.2176678   -1.9900965  0.039462154   -3.2176678    1.2275714   439061 
 2437000   0.81721251   -3.2158473   -3.2158473   -1.9900313  0.044515153   -3.2158473     1.225816   439061 
 2438000   0.81871018   -3.2184457   -3.2184457   -1.9903832  0.042455937   -3.2184457    1.2280625   439061 
 2439000   0.81838104   -3.2176203   -3.2176203   -1.9900515  0.042510493   -3.2176203    1.2275688   439061 
 2440000   0.81817033   -3.2177634   -3.2177634   -1.9905107  0.046705313   -3.2177634    1.2272527   439061 
 2441000   0.81932252   -3.2181863   -3.2181863   -1.9892053  0.041177688   -3.2181863     1.228981   439061 
 2442000    0.8195277   -3.2183568   -3.2183568    -1.989068  0.046687199   -3.2183568    1.2292888   439061 
 2443000   0.81922317   -3.2186035   -3.2186035   -1.9897716   0.04545709   -3.2186035     1.228832   439061 
 2444000   0.81946667     -3.21799     -3.21799   -1.9887928  0.046411233     -3.21799    1.2291972   439061 
 2445000   0.82006137   -3.2197446   -3.2197446   -1.9896554  0.041660669   -3.2197446    1.2300892   439061 
 2446000   0.81952668   -3.2193303   -3.2193303   -1.9900431  0.047055453   -3.2193303    1.2292872   439061 
 2447000   0.81801653   -3.2178436   -3.2178436   -1.9908216  0.050136456   -3.2178436     1.227022   439061 
 2448000   0.81782109    -3.217808    -3.217808   -1.9910792  0.045586485    -3.217808    1.2267288   439061 
 2449000   0.81698342   -3.2171675   -3.2171675   -1.9916951  0.047873419   -3.2171675    1.2254723   439061 
 2450000   0.81724345   -3.2183193   -3.2183193   -1.9924569  0.045190792   -3.2183193    1.2258624   439061 
 2451000   0.81743292   -3.2201722   -3.2201722   -1.9940257  0.040469032   -3.2201722    1.2261466   439061 
 2452000   0.81710215   -3.2184354   -3.2184354   -1.9927849  0.040726729   -3.2184354    1.2256504   439061 
 2453000   0.81733547   -3.2178925   -3.2178925    -1.991892  0.039562085   -3.2178925    1.2260004   439061 
 2454000    0.8170782   -3.2164897   -3.2164897   -1.9908752  0.043867911   -3.2164897    1.2256145   439061 
 2455000   0.81763179   -3.2189137   -3.2189137   -1.9924688  0.040453767   -3.2189137    1.2264449   439061 
 2456000   0.81872717   -3.2205987   -3.2205987   -1.9925107  0.042228002   -3.2205987     1.228088   439061 
 2457000   0.81840259   -3.2208031   -3.2208031    -1.993202  0.044017555   -3.2208031    1.2276011   439061 
 2458000   0.81989205   -3.2212617   -3.2212617   -1.9914264  0.045623428   -3.2212617    1.2298353   439061 
 2459000   0.81922509   -3.2198979   -3.2198979   -1.9910631  0.046044703   -3.2198979    1.2288348   439061 
 2460000   0.81852678   -3.2188883   -3.2188883   -1.9911009  0.046389559   -3.2188883    1.2277874   439061 
 2461000   0.81906823   -3.2203271   -3.2203271   -1.9917276  0.046599957   -3.2203271    1.2285996   439061 
 2462000   0.81857357   -3.2204935   -3.2204935    -1.992636   0.04567824   -3.2204935    1.2278576   439061 
 2463000   0.81772457   -3.2211059   -3.2211059   -1.9945218  0.045646435   -3.2211059    1.2265841   439061 
 2464000   0.81825597   -3.2202572   -3.2202572   -1.9928761  0.049562622   -3.2202572    1.2273812   439061 
 2465000    0.8200399   -3.2236568   -3.2236568   -1.9935997  0.041063578   -3.2236568     1.230057   439061 
 2466000    0.8176343   -3.2209711   -3.2209711   -1.9945225  0.044724631   -3.2209711    1.2264487   439061 
 2467000   0.81733708   -3.2200502   -3.2200502   -1.9940474  0.044873535   -3.2200502    1.2260028   439061 
 2468000     0.818573   -3.2212623   -3.2212623   -1.9934056  0.043658249   -3.2212623    1.2278567   439061 
 2469000   0.81747467     -3.21965     -3.21965   -1.9934408  0.044598851     -3.21965    1.2262092   439061 
 2470000   0.81826436   -3.2222322   -3.2222322   -1.9948385  0.038951331   -3.2222322    1.2273937   439061 
 2471000   0.81769554   -3.2223851   -3.2223851   -1.9958446  0.042860462   -3.2223851    1.2265405   439061 
 2472000   0.81798112   -3.2219483   -3.2219483   -1.9949795  0.044222324   -3.2219483    1.2269689   439061 
 2473000   0.81845776   -3.2213457   -3.2213457   -1.9936618  0.045657752   -3.2213457    1.2276838   439061 
 2474000   0.81794086    -3.220451    -3.220451   -1.9935425  0.040965078    -3.220451    1.2269085   439061 
 2475000   0.81849443   -3.2219529   -3.2219529   -1.9942141  0.042812356   -3.2219529    1.2277388   439061 
 2476000   0.81823347    -3.219766    -3.219766   -1.9924186  0.043507785    -3.219766    1.2273474   439061 
 2477000   0.81937414    -3.221656    -3.221656   -1.9925976   0.04323827    -3.221656    1.2290584   439061 
 2478000   0.81817852   -3.2205984   -3.2205984   -1.9933334  0.039713625   -3.2205984     1.227265   439061 
 2479000    0.8189296   -3.2219488   -3.2219488   -1.9935572  0.037796002   -3.2219488    1.2283916   439061 
 2480000   0.81681889   -3.2193226   -3.2193226   -1.9940971  0.042369194   -3.2193226    1.2252256   439061 
 2481000   0.81646619   -3.2196914   -3.2196914   -1.9949949  0.038443893   -3.2196914    1.2246965   439061 
 2482000   0.81694869   -3.2202687   -3.2202687   -1.9948485  0.039086139   -3.2202687    1.2254202   439061 
 2483000   0.81645993   -3.2193762   -3.2193762   -1.9946891  0.040734538   -3.2193762    1.2246871   439061 
 2484000   0.81776049    -3.222092    -3.222092   -1.9954541  0.043549111    -3.222092    1.2266379   439061 
 2485000   0.81712206   -3.2224218   -3.2224218   -1.9967415  0.040254504   -3.2224218    1.2256803   439061 
 2486000   0.81736387   -3.2228788   -3.2228788   -1.9968358  0.042539955   -3.2228788     1.226043   439061 
 2487000   0.81744164   -3.2234828   -3.2234828   -1.9973231  0.034484715   -3.2234828    1.2261597   439061 
 2488000    0.8176764   -3.2215619   -3.2215619   -1.9950501  0.043226134   -3.2215619    1.2265118   439061 
 2489000    0.8170325   -3.2210086   -3.2210086   -1.9954626  0.045382448   -3.2210086     1.225546   439061 
 2490000   0.81734379   -3.2231029   -3.2231029     -1.99709  0.042498089   -3.2231029    1.2260129   439061 
 2491000   0.81790578   -3.2240851   -3.2240851   -1.9972293  0.046766712   -3.2240851    1.2268559   439061 
 2492000   0.81903479   -3.2253219   -3.2253219   -1.9967725    0.0481595   -3.2253219    1.2285494   439061 
 2493000   0.81745227   -3.2227641   -3.2227641   -1.9965885  0.047533014   -3.2227641    1.2261756   439061 
 2494000   0.81899338   -3.2248918   -3.2248918   -1.9964045  0.046121432   -3.2248918    1.2284873   439061 
 2495000   0.81736083   -3.2232371   -3.2232371   -1.9971987  0.048906125   -3.2232371    1.2260384   439061 
 2496000   0.81920726    -3.225418    -3.225418   -1.9966099   0.04283141    -3.225418    1.2288081   439061 
 2497000   0.81834186    -3.224902    -3.224902    -1.997392  0.042385834    -3.224902      1.22751   439061 
 2498000   0.81935524   -3.2248972   -3.2248972   -1.9958672  0.046452522   -3.2248972    1.2290301   439061 
 2499000   0.81896872    -3.224254    -3.224254   -1.9958037  0.051212916    -3.224254    1.2284503   439061 
 2500000   0.81861947    -3.225369    -3.225369   -1.9974426  0.045881063    -3.225369    1.2279264   439061 
 2501000   0.81807416   -3.2250323   -3.2250323   -1.9979239  0.042669414   -3.2250323    1.2271084   439061 
 2502000   0.81814885   -3.2250745   -3.2250745   -1.9978541  0.044434634   -3.2250745    1.2272205   439061 
 2503000   0.81744422   -3.2247226   -3.2247226    -1.998559  0.046803945   -3.2247226    1.2261635   439061 
 2504000   0.81572442   -3.2223914   -3.2223914   -1.9988075  0.042779026   -3.2223914    1.2235838   439061 
 2505000   0.81646065   -3.2225624   -3.2225624   -1.9978742  0.043020164   -3.2225624    1.2246882   439061 
 2506000   0.81719676   -3.2234037   -3.2234037   -1.9976114  0.037718567   -3.2234037    1.2257923   439061 
 2507000   0.81603577   -3.2211301   -3.2211301   -1.9970793  0.044638024   -3.2211301    1.2240509   439061 
 2508000   0.81810795   -3.2252343   -3.2252343   -1.9980751  0.041940698   -3.2252343    1.2271591   439061 
 2509000   0.81764112   -3.2247585   -3.2247585   -1.9982997  0.041221176   -3.2247585    1.2264589   439061 
 2510000   0.81738711   -3.2236207   -3.2236207   -1.9975428  0.038641274   -3.2236207    1.2260779   439061 
 2511000   0.81785907   -3.2230227   -3.2230227   -1.9962369  0.042588474   -3.2230227    1.2267858   439061 
 2512000     0.817283   -3.2237324   -3.2237324   -1.9978107  0.042842608   -3.2237324    1.2259217   439061 
 2513000    0.8172466   -3.2228757   -3.2228757   -1.9970086   0.04597913   -3.2228757    1.2258671   439061 
 2514000   0.81635966   -3.2228591   -3.2228591   -1.9983224  0.045740165   -3.2228591    1.2245367   439061 
 2515000   0.81723623   -3.2248978   -3.2248978   -1.9990463  0.042803508   -3.2248978    1.2258515   439061 
 2516000   0.81746061   -3.2248307   -3.2248307   -1.9986426  0.037187114   -3.2248307    1.2261881   439061 
 2517000   0.81612085   -3.2241652   -3.2241652   -1.9999868  0.041101421   -3.2241652    1.2241785   439061 
 2518000   0.81719307   -3.2245447   -3.2245447   -1.9987579   0.04220726   -3.2245447    1.2257868   439061 
 2519000   0.81633886   -3.2234312   -3.2234312   -1.9989257   0.04731248   -3.2234312    1.2245055   439061 
 2520000   0.81712548   -3.2250597   -3.2250597   -1.9993743  0.042828589   -3.2250597    1.2256854   439061 
 2521000   0.81778732    -3.226036    -3.226036   -1.9993578  0.040163834    -3.226036    1.2266782   439061 
 2522000    0.8171778   -3.2252491   -3.2252491   -1.9994852  0.044289042   -3.2252491    1.2257639   439061 
 2523000   0.81843087   -3.2269197   -3.2269197   -1.9992762   0.04016895   -3.2269197    1.2276435   439061 
 2524000   0.81903497   -3.2276803   -3.2276803   -1.9991307  0.042993671   -3.2276803    1.2285497   439061 
 2525000   0.81843005   -3.2273185   -3.2273185   -1.9996762  0.045143854   -3.2273185    1.2276423   439061 
 2526000    0.8179834   -3.2266688   -3.2266688   -1.9996965     0.045176   -3.2266688    1.2269723   439061 
 2527000   0.81781056   -3.2268027   -3.2268027   -2.0000896  0.047335485   -3.2268027    1.2267131   439061 
 2528000   0.81880793   -3.2285678   -3.2285678   -2.0003587  0.041891501   -3.2285678    1.2282091   439061 
 2529000   0.81721966   -3.2254348   -3.2254348   -1.9996081  0.045209223   -3.2254348    1.2258267   439061 
 2530000    0.8182246   -3.2266007   -3.2266007   -1.9992666  0.042045782   -3.2266007    1.2273341   439061 
 2531000   0.81796499   -3.2258166   -3.2258166   -1.9988719  0.046426675   -3.2258166    1.2269447   439061 
 2532000   0.81849252   -3.2265906   -3.2265906   -1.9988546  0.045727075   -3.2265906     1.227736   439061 
 2533000   0.81862569   -3.2264842   -3.2264842   -1.9985485  0.048992782   -3.2264842    1.2279357   439061 
 2534000   0.81966353   -3.2277215   -3.2277215    -1.998229  0.047333683   -3.2277215    1.2294925   439061 
 2535000   0.81922803    -3.227537    -3.227537   -1.9986977  0.042711412    -3.227537    1.2288392   439061 
 2536000   0.81787522   -3.2251635   -3.2251635   -1.9983535  0.042741921   -3.2251635      1.22681   439061 
 2537000   0.81743437   -3.2238055   -3.2238055   -1.9976567  0.045930536   -3.2238055    1.2261488   439061 
 2538000   0.81761583   -3.2247005   -3.2247005   -1.9982796   0.03928546   -3.2247005     1.226421   439061 
 2539000   0.81570026    -3.222736    -3.222736   -1.9991884  0.041897102    -3.222736    1.2235476   439061 
 2540000    0.8168822   -3.2233244   -3.2233244   -1.9980039  0.040793514   -3.2233244    1.2253205   439061 
 2541000   0.81698066   -3.2229259   -3.2229259   -1.9974577  0.041254598   -3.2229259    1.2254682   439061 
 2542000   0.81713553   -3.2234905   -3.2234905     -1.99779  0.038351201   -3.2234905    1.2257005   439061 
 2543000   0.81812323   -3.2248455   -3.2248455   -1.9976634  0.037289349   -3.2248455    1.2271821   439061 
 2544000   0.81805355   -3.2243836   -3.2243836   -1.9973061  0.045835506   -3.2243836    1.2270775   439061 
 2545000   0.81705386   -3.2240267   -3.2240267   -1.9984487  0.048202924   -3.2240267     1.225578   439061 
 2546000   0.81643716   -3.2232315   -3.2232315   -1.9985786  0.049754172   -3.2232315     1.224653   439061 
 2547000   0.81681051   -3.2243037   -3.2243037   -1.9990907  0.043459024   -3.2243037     1.225213   439061 
 2548000    0.8173814    -3.225523    -3.225523   -1.9994537  0.039452302    -3.225523    1.2260693   439061 
 2549000   0.81671251   -3.2249813   -3.2249813   -1.9999154  0.041499378   -3.2249813     1.225066   439061 
 2550000   0.81613693   -3.2239821   -3.2239821   -1.9997795  0.042492047   -3.2239821    1.2242026   439061 
 2551000   0.81602052   -3.2256404   -3.2256404   -2.0016124  0.042062013   -3.2256404     1.224028   439061 
 2552000   0.81618071   -3.2265159   -3.2265159   -2.0022476  0.044968802   -3.2265159    1.2242683   439061 
 2553000   0.81746761   -3.2270841   -3.2270841   -2.0008854  0.044912294   -3.2270841    1.2261986   439061 
 2554000   0.81790797   -3.2282666   -3.2282666   -2.0014075  0.046948187   -3.2282666    1.2268592   439061 
 2555000   0.81780021   -3.2293981   -3.2293981   -2.0027005  0.040720419   -3.2293981    1.2266975   439061 
 2556000   0.81796562   -3.2294979   -3.2294979   -2.0025523  0.045850681   -3.2294979    1.2269456   439061 
 2557000    0.8187402   -3.2294933   -3.2294933   -2.0013858  0.048884865   -3.2294933    1.2281075   439061 
 2558000   0.81920892   -3.2301152   -3.2301152   -2.0013046  0.047490615   -3.2301152    1.2288106   439061 
 2559000   0.81811278   -3.2301693   -3.2301693   -2.0030029  0.047765055   -3.2301693    1.2271664   439061 
 2560000   0.81729432   -3.2301793   -3.2301793   -2.0042406  0.046041015   -3.2301793    1.2259387   439061 
 2561000   0.81703206   -3.2306767   -3.2306767   -2.0051314  0.044859106   -3.2306767    1.2255453   439061 
 2562000   0.81759068   -3.2314161   -3.2314161   -2.0050329  0.047697004   -3.2314161    1.2263832   439061 
 2563000   0.81695615   -3.2305832   -3.2305832   -2.0051518   0.04721354   -3.2305832    1.2254314   439061 
 2564000   0.81682428   -3.2287983   -3.2287983   -2.0035646  0.044755017   -3.2287983    1.2252336   439061 
 2565000   0.81695166   -3.2291537   -3.2291537    -2.003729   0.04394111   -3.2291537    1.2254247   439061 
 2566000   0.81770384    -3.229763    -3.229763   -2.0032101  0.046066444    -3.229763     1.226553   439061 
 2567000   0.81713813   -3.2299904   -3.2299904    -2.004286  0.045652332   -3.2299904    1.2257044   439061 
 2568000   0.81578767   -3.2283275   -3.2283275   -2.0046488  0.041261827   -3.2283275    1.2236787   439061 
 2569000   0.81615854   -3.2287638   -3.2287638   -2.0045288   0.03713782   -3.2287638     1.224235   439061 
 2570000   0.81671852   -3.2288998   -3.2288998   -2.0038249  0.037562255   -3.2288998     1.225075   439061 
 2571000   0.81568807   -3.2286917   -3.2286917   -2.0051624  0.037637834   -3.2286917    1.2235293   439061 
 2572000   0.81550675   -3.2285429   -3.2285429   -2.0052855  0.042946067   -3.2285429    1.2232573   439061 
 2573000    0.8165544   -3.2301919   -3.2301919   -2.0053631  0.040447939   -3.2301919    1.2248288   439061 
 2574000   0.81651886   -3.2297445   -3.2297445    -2.004969  0.038097113   -3.2297445    1.2247755   439061 
 2575000   0.81644286   -3.2298212   -3.2298212   -2.0051597  0.040103637   -3.2298212    1.2246615   439061 
 2576000   0.81657173   -3.2300515   -3.2300515   -2.0051966  0.037798891   -3.2300515    1.2248548   439061 
 2577000   0.81638945   -3.2284873   -3.2284873   -2.0039059  0.039334502   -3.2284873    1.2245814   439061 
 2578000   0.81692108   -3.2302773   -3.2302773   -2.0048985   0.04538826   -3.2302773    1.2253788   439061 
 2579000   0.81704218   -3.2298734   -3.2298734   -2.0043129  0.047306278   -3.2298734    1.2255605   439061 
 2580000   0.81719918   -3.2298666   -3.2298666   -2.0040706  0.041783376   -3.2298666     1.225796   439061 
 2581000    0.8174368   -3.2311194   -3.2311194    -2.004967  0.044648062   -3.2311194    1.2261524   439061 
 2582000   0.81679651   -3.2298069   -3.2298069   -2.0046149  0.044109501   -3.2298069     1.225192   439061 
 2583000   0.81662214   -3.2320472   -3.2320472   -2.0071168  0.039905291   -3.2320472    1.2249304   439061 
 2584000   0.81682791   -3.2324384   -3.2324384   -2.0071993  0.039098707   -3.2324384    1.2252391   439061 
 2585000   0.81577839   -3.2303104   -3.2303104   -2.0066456  0.041601486   -3.2303104    1.2236648   439061 
 2586000   0.81702893   -3.2328175   -3.2328175    -2.007277  0.045835326   -3.2328175    1.2255406   439061 
 2587000   0.81714417   -3.2328575   -3.2328575   -2.0071441   0.04199045   -3.2328575    1.2257135   439061 
 2588000   0.81596757   -3.2321291   -3.2321291   -2.0081805  0.043024223   -3.2321291    1.2239486   439061 
 2589000   0.81844291   -3.2346741   -3.2346741   -2.0070126  0.043558712   -3.2346741    1.2276616   439061 
 2590000   0.81715062   -3.2333977   -3.2333977   -2.0076746  0.046702727   -3.2333977    1.2257231   439061 
 2591000    0.8181336   -3.2345566   -3.2345566    -2.007359  0.040111813   -3.2345566    1.2271976   439061 
 2592000   0.81741646   -3.2328592   -3.2328592   -2.0067373  0.046005169   -3.2328592    1.2261219   439061 
 2593000   0.81784736   -3.2338511   -3.2338511   -2.0070828  0.044173402   -3.2338511    1.2267682   439061 
 2594000   0.81697903   -3.2335954   -3.2335954   -2.0081297  0.044619659   -3.2335954    1.2254657   439061 
 2595000   0.81700467   -3.2324539   -3.2324539   -2.0069497  0.043722297   -3.2324539    1.2255042   439061 
 2596000   0.81795417   -3.2339024   -3.2339024    -2.006974  0.038007927   -3.2339024    1.2269285   439061 
 2597000   0.81564645   -3.2305901   -3.2305901   -2.0071233  0.045934124   -3.2305901    1.2234669   439061 
 2598000   0.81617792   -3.2321234   -3.2321234   -2.0078593  0.042461951   -3.2321234    1.2242641   439061 
 2599000   0.81664508   -3.2324455   -3.2324455   -2.0074807  0.044478933   -3.2324455    1.2249648   439061 
 2600000   0.81666131   -3.2325963   -3.2325963   -2.0076072  0.043886062   -3.2325963    1.2249892   439061 
 2601000   0.81693638   -3.2326879   -3.2326879   -2.0072861  0.043448181   -3.2326879    1.2254018   439061 
 2602000   0.81559367   -3.2310683   -3.2310683   -2.0076806  0.041425054   -3.2310683    1.2233877   439061 
 2603000   0.81553872   -3.2306347   -3.2306347   -2.0073294  0.047072402   -3.2306347    1.2233053   439061 
 2604000    0.8168431   -3.2336019   -3.2336019     -2.00834  0.040059064   -3.2336019    1.2252619   439061 
 2605000   0.81742203   -3.2323793   -3.2323793    -2.006249  0.040532596   -3.2323793    1.2261303   439061 
 2606000   0.81634465   -3.2313406   -3.2313406   -2.0068264  0.043409848   -3.2313406    1.2245142   439061 
 2607000   0.81559548   -3.2300888   -3.2300888   -2.0066984  0.038946004   -3.2300888    1.2233904   439061 
 2608000   0.81574559   -3.2299867   -3.2299867   -2.0063712  0.043123394   -3.2299867    1.2236156   439061 
 2609000    0.8169355   -3.2311097   -3.2311097   -2.0057092  0.039725437   -3.2311097    1.2254005   439061 
 2610000   0.81587071   -3.2310741   -3.2310741   -2.0072708  0.045857298   -3.2310741    1.2238033   439061 
 2611000   0.81589612   -3.2317881   -3.2317881   -2.0079467  0.041250937   -3.2317881    1.2238414   439061 
 2612000   0.81642469   -3.2320723   -3.2320723   -2.0074381  0.040104591   -3.2320723    1.2246342   439061 
 2613000   0.81740479   -3.2330502   -3.2330502   -2.0069458  0.042263362   -3.2330502    1.2261044   439061 
 2614000   0.81713773   -3.2333058   -3.2333058    -2.007602  0.037477253   -3.2333058    1.2257038   439061 
 2615000   0.81596873   -3.2308112   -3.2308112   -2.0068609  0.046751475   -3.2308112    1.2239503   439061 
 2616000   0.81583771   -3.2325878   -3.2325878    -2.008834  0.046538181   -3.2325878    1.2237538   439061 
 2617000   0.81694648   -3.2330728   -3.2330728   -2.0076559  0.043759528   -3.2330728    1.2254169   439061 
 2618000   0.81540465   -3.2313789   -3.2313789   -2.0082747  0.048713211   -3.2313789    1.2231042   439061 
 2619000   0.81694983   -3.2341473   -3.2341473   -2.0087253  0.043146342   -3.2341473     1.225422   439061 
 2620000    0.8159673   -3.2343344   -3.2343344   -2.0103862  0.039977433   -3.2343344    1.2239482   439061 
 2621000    0.8157655   -3.2355706   -3.2355706   -2.0119252  0.042373346   -3.2355706    1.2236455   439061 
 2622000   0.81559621   -3.2352595   -3.2352595    -2.011868  0.039116885   -3.2352595    1.2233915   439061 
 2623000   0.81575675   -3.2354609   -3.2354609   -2.0118286  0.039853142   -3.2354609    1.2236323   439061 
 2624000   0.81632216   -3.2365448   -3.2365448   -2.0120644  0.035036892   -3.2365448    1.2244805   439061 
 2625000   0.81545164   -3.2364025   -3.2364025   -2.0132279  0.043609076   -3.2364025    1.2231747   439061 
 2626000   0.81555768   -3.2365822   -3.2365822   -2.0132484  0.043596097   -3.2365822    1.2233337   439061 
 2627000   0.81681217   -3.2375147   -3.2375147   -2.0122992   0.04482611   -3.2375147    1.2252155   439061 
 2628000   0.81659003   -3.2369976   -3.2369976   -2.0121153  0.044710105   -3.2369976    1.2248823   439061 
 2629000   0.81679858   -3.2375639   -3.2375639   -2.0123688  0.044201813   -3.2375639    1.2251951   439061 
 2630000   0.81664137   -3.2370568   -3.2370568   -2.0120975  0.048186981   -3.2370568    1.2249593   439061 
 2631000    0.8180528   -3.2393896   -3.2393896   -2.0123132  0.043130567   -3.2393896    1.2270764   439061 
 2632000   0.81690675   -3.2383109   -3.2383109   -2.0129535  0.045232133   -3.2383109    1.2253573   439061 
 2633000    0.8167866    -3.239189    -3.239189   -2.0140119  0.043088219    -3.239189    1.2251771   439061 
 2634000   0.81551812   -3.2383645   -3.2383645   -2.0150901  0.042013113   -3.2383645    1.2232744   439061 
 2635000   0.81389221   -3.2370729   -3.2370729   -2.0162373  0.043114387   -3.2370729    1.2208355   439061 
 2636000    0.8158361   -3.2394646   -3.2394646   -2.0157132  0.039473834   -3.2394646    1.2237514   439061 
 2637000   0.81594826   -3.2390189   -3.2390189   -2.0150993  0.040562073   -3.2390189    1.2239196   439061 
 2638000   0.81663994   -3.2390552   -3.2390552   -2.0140981  0.044508018   -3.2390552    1.2249571   439061 
 2639000   0.81595947   -3.2394124   -3.2394124    -2.015476  0.043362754   -3.2394124    1.2239364   439061 
 2640000   0.81520143   -3.2369882   -3.2369882   -2.0141888  0.045881552   -3.2369882    1.2227994   439061 
 2641000   0.81590718   -3.2376534   -3.2376534   -2.0137954  0.041576911   -3.2376534     1.223858   439061 
 2642000   0.81600399   -3.2383019   -3.2383019   -2.0142987  0.044961117   -3.2383019    1.2240032   439061 
 2643000   0.81513966   -3.2365881   -3.2365881   -2.0138814  0.045262496   -3.2365881    1.2227067   439061 
 2644000   0.81590191    -3.237401    -3.237401    -2.013551  0.042350623    -3.237401    1.2238501   439061 
 2645000   0.81469062   -3.2350035   -3.2350035   -2.0129704  0.042980793   -3.2350035    1.2220331   439061 
 2646000   0.81618895   -3.2381296   -3.2381296   -2.0138489  0.039959616   -3.2381296    1.2242806   439061 
 2647000   0.81523928   -3.2363464   -3.2363464   -2.0134903  0.041460462   -3.2363464    1.2228561   439061 
 2648000   0.81582336   -3.2367726   -3.2367726   -2.0130403  0.040881144   -3.2367726    1.2237323   439061 
 2649000   0.81634642   -3.2365799   -3.2365799   -2.0120631  0.040253174   -3.2365799    1.2245168   439061 
 2650000   0.81518904   -3.2352566   -3.2352566   -2.0124758  0.038494769   -3.2352566    1.2227808   439061 
 2651000   0.81639885     -3.23561     -3.23561   -2.0110145  0.037140973     -3.23561    1.2245955   439061 
 2652000   0.81523843   -3.2343937   -3.2343937   -2.0115388  0.041147673   -3.2343937    1.2228549   439061 
 2653000   0.81505519   -3.2333064   -3.2333064   -2.0107264  0.041163512   -3.2333064      1.22258   439061 
 2654000    0.8155767    -3.235085    -3.235085   -2.0117227  0.038702213    -3.235085    1.2233623   439061 
 2655000   0.81451557   -3.2325934   -3.2325934   -2.0108229  0.042141969   -3.2325934    1.2217706   439061 
 2656000   0.81601745   -3.2349648   -3.2349648   -2.0109414  0.039107278   -3.2349648    1.2240234   439061 
 2657000    0.8158811   -3.2357724   -3.2357724   -2.0119535  0.039984051   -3.2357724    1.2238189   439061 
 2658000   0.81563301   -3.2352343   -3.2352343   -2.0117875  0.036296513   -3.2352343    1.2234467   439061 
 2659000   0.81427977   -3.2354076   -3.2354076   -2.0139908  0.041738906   -3.2354076    1.2214169   439061 
 2660000     0.814111   -3.2347384   -3.2347384   -2.0135746  0.038453782   -3.2347384    1.2211637   439061 
 2661000   0.81625405   -3.2367018   -3.2367018   -2.0123235  0.042881808   -3.2367018    1.2243783   439061 
 2662000   0.81633406    -3.237141    -3.237141   -2.0126427  0.040972604    -3.237141    1.2244983   439061 
 2663000   0.81623146   -3.2376733   -3.2376733    -2.013329  0.044068863   -3.2376733    1.2243444   439061 
 2664000   0.81642635   -3.2389178   -3.2389178   -2.0142811  0.039804729   -3.2389178    1.2246367   439061 
 2665000   0.81590403   -3.2374317   -3.2374317   -2.0135784  0.044269049   -3.2374317    1.2238533   439061 
 2666000    0.8166026   -3.2387717   -3.2387717   -2.0138706  0.046353731   -3.2387717    1.2249011   439061 
 2667000   0.81747643   -3.2407129   -3.2407129   -2.0145011  0.041271039   -3.2407129    1.2262118   439061 
 2668000   0.81702715   -3.2392119   -3.2392119   -2.0136739  0.044262176   -3.2392119    1.2255379   439061 
 2669000   0.81679553   -3.2406211   -3.2406211   -2.0154306  0.046448353   -3.2406211    1.2251905   439061 
 2670000   0.81705106   -3.2422798   -3.2422798   -2.0167061  0.041790927   -3.2422798    1.2255738   439061 
 2671000   0.81605428   -3.2404943   -3.2404943   -2.0164157   0.04667612   -3.2404943    1.2240786   439061 
 2672000   0.81708808   -3.2415234   -3.2415234    -2.015894  0.041104032   -3.2415234    1.2256293   439061 
 2673000   0.81729606   -3.2414752   -3.2414752   -2.0155339  0.043789253   -3.2414752    1.2259413   439061 
 2674000   0.81616628    -3.241254    -3.241254   -2.0170073   0.04498929    -3.241254    1.2242466   439061 
 2675000    0.8159272   -3.2418461   -3.2418461   -2.0179581  0.041958567   -3.2418461     1.223888   439061 
 2676000   0.81526523   -3.2402956   -3.2402956   -2.0174006   0.04164507   -3.2402956    1.2228951   439061 
 2677000    0.8153412   -3.2406443   -3.2406443   -2.0176353  0.043157811   -3.2406443     1.223009   439061 
 2678000   0.81535464   -3.2401978   -3.2401978   -2.0171686  0.041349865   -3.2401978    1.2230292   439061 
 2679000   0.81461346   -3.2393461   -3.2393461   -2.0174287  0.041261512   -3.2393461    1.2219174   439061 
 2680000   0.81505623   -3.2388611   -3.2388611   -2.0162796  0.038497599   -3.2388611    1.2225816   439061 
 2681000    0.8146346   -3.2392514   -3.2392514   -2.0173022  0.038176056   -3.2392514    1.2219491   439061 
 2682000   0.81366211   -3.2374536   -3.2374536   -2.0169633  0.040054456   -3.2374536    1.2204904   439061 
 2683000   0.81457625    -3.239074    -3.239074   -2.0172124  0.040756456    -3.239074    1.2218616   439061 
 2684000    0.8139158   -3.2374563   -3.2374563   -2.0165854  0.043433866   -3.2374563    1.2208709   439061 
 2685000   0.81492677   -3.2392019   -3.2392019   -2.0168145  0.038429411   -3.2392019    1.2223874   439061 
 2686000   0.81685033   -3.2416235   -3.2416235   -2.0163508  0.038059964   -3.2416235    1.2252727   439061 
 2687000   0.81679282   -3.2417991   -3.2417991   -2.0166127  0.036894943   -3.2417991    1.2251864   439061 
 2688000   0.81539974   -3.2392116   -3.2392116   -2.0161148  0.045528924   -3.2392116    1.2230968   439061 
 2689000    0.8146785   -3.2380423   -3.2380423   -2.0160273  0.042649403   -3.2380423     1.222015   439061 
 2690000   0.81682594   -3.2412916   -3.2412916   -2.0160555  0.036414261   -3.2412916    1.2252361   439061 
 2691000   0.81543134   -3.2395358   -3.2395358   -2.0163916  0.040510675   -3.2395358    1.2231442   439061 
 2692000   0.81526809   -3.2398997   -3.2398997   -2.0170004  0.041123432   -3.2398997    1.2228993   439061 
 2693000   0.81414469   -3.2393568   -3.2393568   -2.0181425  0.041115567   -3.2393568    1.2212143   439061 
 2694000   0.81581879   -3.2408792   -3.2408792   -2.0171538   0.03954839   -3.2408792    1.2237254   439061 
 2695000   0.81548802   -3.2400391   -3.2400391   -2.0168099  0.040295634   -3.2400391    1.2232292   439061 
 2696000   0.81596951   -3.2406542   -3.2406542   -2.0167027  0.041514765   -3.2406542    1.2239515   439061 
 2697000   0.81607981   -3.2406447   -3.2406447   -2.0165278  0.044939447   -3.2406447    1.2241169   439061 
 2698000   0.81662064   -3.2410577   -3.2410577   -2.0161295  0.044729296   -3.2410577    1.2249282   439061 
 2699000   0.81760132   -3.2426944   -3.2426944   -2.0162952  0.039892843   -3.2426944    1.2263992   439061 
 2700000   0.81624823   -3.2402995   -3.2402995     -2.01593   0.04240191   -3.2402995    1.2243696   439061 
 2701000   0.81729411   -3.2426851   -3.2426851   -2.0167467  0.037648808   -3.2426851    1.2259384   439061 
 2702000   0.81424353    -3.239965    -3.239965   -2.0186025  0.044549369    -3.239965    1.2213625   439061 
 2703000     0.814475   -3.2399907   -3.2399907    -2.018281  0.042804977   -3.2399907    1.2217097   439061 
 2704000   0.81352806   -3.2383012   -3.2383012   -2.0180118  0.040614016   -3.2383012    1.2202893   439061 
 2705000   0.81374903   -3.2388877   -3.2388877    -2.018267  0.036819645   -3.2388877    1.2206208   439061 
 2706000   0.81461924   -3.2391062   -3.2391062   -2.0171802  0.041398051   -3.2391062    1.2219261   439061 
 2707000   0.81466211   -3.2404513   -3.2404513   -2.0184609  0.043297803   -3.2404513    1.2219904   439061 
 2708000   0.81473799   -3.2416627   -3.2416627   -2.0195585  0.037356922   -3.2416627    1.2221042   439061 
 2709000   0.81433088   -3.2407177   -3.2407177   -2.0192242   0.04296875   -3.2407177    1.2214935   439061 
 2710000   0.81537332   -3.2412409   -3.2412409   -2.0181837  0.042503121   -3.2412409    1.2230572   439061 
 2711000   0.81511638    -3.241457    -3.241457   -2.0187852  0.041443702    -3.241457    1.2226718   439061 
 2712000   0.81353266   -3.2403135   -3.2403135   -2.0200173  0.045846175   -3.2403135    1.2202962   439061 
 2713000   0.81547012   -3.2434189   -3.2434189   -2.0202165  0.036971993   -3.2434189    1.2232024   439061 
 2714000   0.81609818   -3.2438937   -3.2438937   -2.0197492  0.043699856   -3.2438937    1.2241445   439061 
 2715000   0.81616826   -3.2441333   -3.2441333   -2.0198837  0.039951472   -3.2441333    1.2242496   439061 
 2716000   0.81554198   -3.2435895   -3.2435895   -2.0202793  0.040468936   -3.2435895    1.2233102   439061 
 2717000    0.8154696     -3.24212     -3.24212   -2.0189184  0.044542239     -3.24212    1.2232016   439061 
 2718000   0.81675271   -3.2443297   -3.2443297   -2.0192035   0.04679676   -3.2443297    1.2251263   439061 
 2719000   0.81747721   -3.2446902   -3.2446902   -2.0184772   0.04796495   -3.2446902     1.226213   439061 
 2720000   0.81670207   -3.2432834   -3.2432834   -2.0182331  0.043839268   -3.2432834    1.2250503   439061 
 2721000   0.81579449   -3.2418828   -3.2418828   -2.0181939  0.044399227   -3.2418828    1.2236889   439061 
 2722000   0.81634835   -3.2434264   -3.2434264   -2.0189067  0.045451364   -3.2434264    1.2245197   439061 
 2723000   0.81626851   -3.2439473   -3.2439473   -2.0195474  0.041768868   -3.2439473       1.2244   439061 
 2724000   0.81540456   -3.2420707   -3.2420707   -2.0189666  0.043363056   -3.2420707    1.2231041   439061 
 2725000   0.81532245   -3.2415228   -3.2415228   -2.0185419  0.043417442   -3.2415228    1.2229809   439061 
 2726000   0.81537569   -3.2416849   -3.2416849   -2.0186242  0.042060976   -3.2416849    1.2230608   439061 
 2727000   0.81514515   -3.2418756   -3.2418756   -2.0191607  0.037755865   -3.2418756    1.2227149   439061 
 2728000   0.81492851   -3.2419759   -3.2419759   -2.0195859  0.037898414   -3.2419759      1.22239   439061 
 2729000   0.81452302    -3.239505    -3.239505   -2.0177232  0.041874595    -3.239505    1.2217817   439061 
 2730000   0.81435631   -3.2396321   -3.2396321   -2.0181004  0.040848059   -3.2396321    1.2215317   439061 
 2731000    0.8138316   -3.2400185   -3.2400185   -2.0192739  0.042039824   -3.2400185    1.2207446   439061 
 2732000    0.8140884   -3.2410109   -3.2410109    -2.019881  0.035621972   -3.2410109    1.2211298   439061 
 2733000   0.81297759   -3.2402444   -3.2402444   -2.0207808  0.039762868   -3.2402444    1.2194636   439061 
 2734000   0.81226242   -3.2401821   -3.2401821   -2.0217912  0.033890683   -3.2401821    1.2183909   439061 
 2735000   0.81381034   -3.2427357   -3.2427357   -2.0220229  0.040281603   -3.2427357    1.2207127   439061 
 2736000   0.81388962   -3.2426265   -3.2426265   -2.0217949  0.038885512   -3.2426265    1.2208317   439061 
 2737000   0.81422906   -3.2431798   -3.2431798    -2.021839  0.041236148   -3.2431798    1.2213408   439061 
 2738000   0.81406901   -3.2438102   -3.2438102   -2.0227094  0.035650152   -3.2438102    1.2211007   439061 
 2739000   0.81396982   -3.2437447   -3.2437447   -2.0227928  0.041977021   -3.2437447    1.2209519   439061 
 2740000   0.81450344   -3.2445843   -3.2445843   -2.0228319  0.040755985   -3.2445843    1.2217524   439061 
 2741000   0.81454784   -3.2459985   -3.2459985   -2.0241795  0.040543082   -3.2459985     1.221819   439061 
 2742000   0.81519932   -3.2477662   -3.2477662     -2.02497  0.042518794   -3.2477662    1.2227962   439061 
 2743000   0.81535049   -3.2484894   -3.2484894   -2.0254664  0.042688136   -3.2484894     1.223023   439061 
 2744000   0.81493158   -3.2494851   -3.2494851   -2.0270905   0.04150501   -3.2494851    1.2223946   439061 
 2745000   0.81566034   -3.2495022   -3.2495022   -2.0260144  0.046157763   -3.2495022    1.2234877   439061 
 2746000   0.81504959   -3.2493065   -3.2493065   -2.0267349  0.039464074   -3.2493065    1.2225716   439061 
 2747000   0.81456671   -3.2463889   -3.2463889   -2.0245416  0.047410922   -3.2463889    1.2218473   439061 
 2748000   0.81587282   -3.2482348   -3.2482348   -2.0244283  0.047238869   -3.2482348    1.2238064   439061 
 2749000     0.815814    -3.247894    -3.247894   -2.0241758  0.046181138    -3.247894    1.2237182   439061 
 2750000   0.81574014   -3.2485731   -3.2485731   -2.0249657  0.043499707   -3.2485731    1.2236074   439061 
 2751000   0.81560894   -3.2490029   -3.2490029   -2.0255923  0.046185539   -3.2490029    1.2234106   439061 
 2752000   0.81501669   -3.2489039   -3.2489039   -2.0263816  0.044501159   -3.2489039    1.2225223   439061 
 2753000   0.81470726   -3.2463375   -3.2463375   -2.0242793  0.046365347   -3.2463375    1.2220581   439061 
 2754000    0.8138385    -3.246607    -3.246607    -2.025852  0.042886814    -3.246607     1.220755   439061 
 2755000   0.81402076   -3.2461935   -3.2461935   -2.0251652  0.040708816   -3.2461935    1.2210284   439061 
 2756000   0.81431425   -3.2465991   -3.2465991   -2.0251306   0.04156857   -3.2465991    1.2214686   439061 
 2757000   0.81416519   -3.2456857   -3.2456857   -2.0244407  0.042635396   -3.2456857     1.221245   439061 
 2758000    0.8139961   -3.2456705   -3.2456705   -2.0246791  0.043273884   -3.2456705    1.2209914   439061 
 2759000   0.81377442   -3.2446537   -3.2446537   -2.0239948  0.041209229   -3.2446537    1.2206589   439061 
 2760000   0.81404601    -3.244992    -3.244992   -2.0239257   0.04312616    -3.244992    1.2210662   439061 
 2761000   0.81434815   -3.2450089   -3.2450089   -2.0234894  0.036167084   -3.2450089    1.2215194   439061 
 2762000   0.81329595   -3.2430416   -3.2430416   -2.0231005  0.039268697   -3.2430416    1.2199411   439061 
 2763000   0.81436469   -3.2457617   -3.2457617   -2.0242175  0.037600689   -3.2457617    1.2215442   439061 
 2764000   0.81363504   -3.2434049   -3.2434049   -2.0229552  0.038921478   -3.2434049    1.2204498   439061 
 2765000   0.81264995   -3.2422703   -3.2422703   -2.0232981  0.039190084   -3.2422703    1.2189722   439061 
 2766000   0.81299059   -3.2428059   -3.2428059   -2.0233228  0.039408195   -3.2428059    1.2194831   439061 
 2767000    0.8137697   -3.2440383   -3.2440383   -2.0233865  0.040176027   -3.2440383    1.2206518   439061 
 2768000   0.81394321   -3.2441081   -3.2441081    -2.023196  0.040309542   -3.2441081     1.220912   439061 
 2769000   0.81372365   -3.2448337   -3.2448337    -2.024251  0.038806701   -3.2448337    1.2205827   439061 
 2770000   0.81452816   -3.2444573   -3.2444573   -2.0226679  0.041970615   -3.2444573    1.2217895   439061 
 2771000   0.81421374   -3.2443615   -3.2443615   -2.0230437  0.043505851   -3.2443615    1.2213178   439061 
 2772000   0.81478472   -3.2455678   -3.2455678   -2.0233935  0.044694359   -3.2455678    1.2221743   439061 
 2773000   0.81533534   -3.2460608   -3.2460608   -2.0230605  0.045266955   -3.2460608    1.2230002   439061 
 2774000   0.81580269   -3.2478682   -3.2478682    -2.024167  0.037645956   -3.2478682    1.2237012   439061 
 2775000   0.81359942   -3.2456428   -3.2456428   -2.0252464  0.039434898   -3.2456428    1.2203963   439061 
 2776000   0.81345002   -3.2451118   -3.2451118   -2.0249396  0.043290434   -3.2451118    1.2201723   439061 
 2777000   0.81479486   -3.2468188   -3.2468188   -2.0246293  0.042564273   -3.2468188    1.2221895   439061 
 2778000   0.81466056   -3.2469847   -3.2469847   -2.0249966  0.042505001   -3.2469847     1.221988   439061 
 2779000   0.81483324   -3.2464614   -3.2464614   -2.0242143  0.046494231   -3.2464614    1.2222471   439061 
 2780000   0.81496094   -3.2473999   -3.2473999   -2.0249613  0.042545986   -3.2473999    1.2224386   439061 
 2781000   0.81441275   -3.2479788   -3.2479788   -2.0263625  0.043932324   -3.2479788    1.2216163   439061 
 2782000   0.81435151   -3.2494998   -3.2494998   -2.0279753  0.037151888   -3.2494998    1.2215245   439061 
 2783000   0.81297694   -3.2478739   -3.2478739   -2.0284112  0.041214139   -3.2478739    1.2194626   439061 
 2784000   0.81480455   -3.2498502   -3.2498502   -2.0276462  0.035398348   -3.2498502     1.222204   439061 
 2785000   0.81313946   -3.2474754   -3.2474754   -2.0277689  0.042821398   -3.2474754    1.2197064   439061 
 2786000   0.81349449   -3.2486755   -3.2486755   -2.0284365  0.039080673   -3.2486755     1.220239   439061 
 2787000   0.81271423   -3.2478484   -3.2478484   -2.0287798  0.041133435   -3.2478484    1.2190686   439061 
 2788000   0.81471839   -3.2508194   -3.2508194   -2.0287446  0.036384476   -3.2508194    1.2220748   439061 
 2789000   0.81398656   -3.2492465   -3.2492465   -2.0282695  0.039843239   -3.2492465    1.2209771   439061 
 2790000   0.81490452   -3.2510372   -3.2510372   -2.0286832  0.040200035   -3.2510372     1.222354   439061 
 2791000   0.81419763   -3.2495876   -3.2495876   -2.0282939  0.045704301   -3.2495876    1.2212937   439061 
 2792000   0.81546151   -3.2528661   -3.2528661   -2.0296766   0.04477106   -3.2528661    1.2231895   439061 
 2793000   0.81424138   -3.2501166   -3.2501166   -2.0287573  0.046333428   -3.2501166    1.2213593   439061 
 2794000   0.81475756   -3.2510918   -3.2510918   -2.0289583  0.046042232   -3.2510918    1.2221336   439061 
 2795000   0.81419081    -3.250396    -3.250396   -2.0291126  0.042246307    -3.250396    1.2212834   439061 
 2796000   0.81516244   -3.2518954   -3.2518954   -2.0291546  0.038173104   -3.2518954    1.2227409   439061 
 2797000   0.81427891   -3.2506366   -3.2506366    -2.029221  0.046076286   -3.2506366    1.2214156   439061 
 2798000   0.81367868   -3.2510323   -3.2510323   -2.0305171  0.042156633   -3.2510323    1.2205152   439061 
 2799000   0.81328109   -3.2513374   -3.2513374   -2.0314186  0.040803827   -3.2513374    1.2199189   439061 
 2800000   0.81398728    -3.252264    -3.252264   -2.0312858  0.041411488    -3.252264    1.2209781   439061 
 2801000   0.81425405   -3.2523972   -3.2523972   -2.0310189   0.04514607   -3.2523972    1.2213783   439061 
 2802000   0.81484414   -3.2529788   -3.2529788   -2.0307153  0.043451129   -3.2529788    1.2222634   439061 
 2803000   0.81413232   -3.2517084   -3.2517084   -2.0305127  0.043104317   -3.2517084    1.2211957   439061 
 2804000   0.81508402   -3.2532425   -3.2532425   -2.0306193  0.039313297   -3.2532425    1.2226232   439061 
 2805000   0.81371768   -3.2517896   -3.2517896   -2.0312159   0.04082482   -3.2517896    1.2205737   439061 
 2806000   0.81465274   -3.2518802   -3.2518802   -2.0299038  0.042953431   -3.2518802    1.2219763   439061 
 2807000     0.813262   -3.2510189   -3.2510189   -2.0311287  0.044373377   -3.2510189    1.2198902   439061 
 2808000   0.81299022   -3.2508908   -3.2508908   -2.0314083  0.043977363   -3.2508908    1.2194825   439061 
 2809000   0.81448649   -3.2517087   -3.2517087   -2.0299818  0.037907413   -3.2517087    1.2217269   439061 
 2810000   0.81241509    -3.249185    -3.249185   -2.0305651  0.042358793    -3.249185    1.2186199   439061 
 2811000    0.8134596   -3.2523309   -3.2523309   -2.0321443  0.037376244   -3.2523309    1.2201866   439061 
 2812000   0.81267733   -3.2506995   -3.2506995   -2.0316863  0.042053232   -3.2506995    1.2190132   439061 
 2813000   0.81322185   -3.2507412   -3.2507412   -2.0309112  0.040397951   -3.2507412      1.21983   439061 
 2814000   0.81447059   -3.2517755   -3.2517755   -2.0300724  0.039526736   -3.2517755    1.2217031   439061 
 2815000   0.81458992   -3.2522714   -3.2522714   -2.0303893  0.039552833   -3.2522714    1.2218821   439061 
 2816000   0.81462739   -3.2522033   -3.2522033   -2.0302649  0.041065389   -3.2522033    1.2219383   439061 
 2817000    0.8132545   -3.2504544   -3.2504544   -2.0305754  0.041138372   -3.2504544     1.219879   439061 
 2818000   0.81323849   -3.2515426   -3.2515426   -2.0316876  0.042810673   -3.2515426     1.219855   439061 
 2819000   0.81386228   -3.2518994   -3.2518994   -2.0311087  0.050248013   -3.2518994    1.2207906   439061 
 2820000   0.81410787   -3.2531263   -3.2531263   -2.0319672  0.041227705   -3.2531263     1.221159   439061 
 2821000   0.81240499   -3.2517841   -3.2517841   -2.0331794  0.043800255   -3.2517841    1.2186047   439061 
 2822000   0.81481254   -3.2544917   -3.2544917   -2.0322757  0.040488097   -3.2544917     1.222216   439061 
 2823000   0.81463099   -3.2534382   -3.2534382   -2.0314945   0.04336777   -3.2534382    1.2219437   439061 
 2824000   0.81431688     -3.25214     -3.25214   -2.0306675  0.050498147     -3.25214    1.2214725   439061 
 2825000   0.81458109   -3.2524354   -3.2524354   -2.0305665  0.044096922   -3.2524354    1.2218689   439061 
 2826000   0.81554093   -3.2544041   -3.2544041   -2.0310955  0.047603017   -3.2544041    1.2233086   439061 
 2827000   0.81499287   -3.2541926   -3.2541926   -2.0317061  0.045886075   -3.2541926    1.2224865   439061 
 2828000   0.81526072   -3.2531865   -3.2531865   -2.0302982  0.043615674   -3.2531865    1.2228883   439061 
 2829000   0.81528566   -3.2530945   -3.2530945   -2.0301688  0.045536188   -3.2530945    1.2229257   439061 
 2830000   0.81550647   -3.2537341   -3.2537341   -2.0304772  0.046747721   -3.2537341    1.2232569   439061 
 2831000   0.81461567   -3.2528959   -3.2528959   -2.0309752  0.041456474   -3.2528959    1.2219207   439061 
 2832000   0.81339835   -3.2529874   -3.2529874   -2.0328926  0.044085318   -3.2529874    1.2200948   439061 
 2833000   0.81343819   -3.2523067   -3.2523067   -2.0321522  0.037838574   -3.2523067    1.2201545   439061 
 2834000   0.81309895   -3.2515887   -3.2515887    -2.031943  0.037439719   -3.2515887    1.2196457   439061 
 2835000   0.81340802   -3.2532034   -3.2532034   -2.0330941  0.035281974   -3.2532034    1.2201093   439061 
 2836000   0.81202606   -3.2511534   -3.2511534   -2.0331171  0.035895223   -3.2511534    1.2180363   439061 
 2837000   0.81300746   -3.2525956   -3.2525956   -2.0330871  0.038244343   -3.2525956    1.2195084   439061 
 2838000   0.81390744   -3.2530759   -3.2530759   -2.0322176  0.034428965   -3.2530759    1.2208584   439061 
 2839000   0.81278294   -3.2516986   -3.2516986    -2.032527  0.036673397   -3.2516986    1.2191716   439061 
 2840000   0.81205956   -3.2503249   -3.2503249   -2.0322384  0.037605808   -3.2503249    1.2180866   439061 
 2841000   0.81370443   -3.2521949   -3.2521949    -2.031641  0.037096716   -3.2521949    1.2205539   439061 
 2842000   0.81338908    -3.251997    -3.251997   -2.0319162  0.038955301    -3.251997    1.2200808   439061 
 2843000    0.8137224   -3.2529115   -3.2529115   -2.0323306  0.041208519   -3.2529115    1.2205808   439061 
 2844000    0.8141984   -3.2524852   -3.2524852   -2.0311904  0.039606065   -3.2524852    1.2212948   439061 
 2845000   0.81521176   -3.2531048   -3.2531048     -2.03029  0.045301219   -3.2531048    1.2228149   439061 
 2846000   0.81571541   -3.2543745   -3.2543745   -2.0308042   0.04217926   -3.2543745    1.2235703   439061 
 2847000   0.81490295   -3.2536722   -3.2536722   -2.0313206  0.049140145   -3.2536722    1.2223516   439061 
 2848000    0.8156973   -3.2551671   -3.2551671   -2.0316239  0.042650982   -3.2551671    1.2235432   439061 
 2849000   0.81532987   -3.2534477   -3.2534477   -2.0304557   0.04934005   -3.2534477     1.222992   439061 
 2850000   0.81550898   -3.2532778   -3.2532778   -2.0300171  0.042649152   -3.2532778    1.2232607   439061 
 2851000   0.81552667   -3.2541676   -3.2541676   -2.0308803  0.035461131   -3.2541676    1.2232872   439061 
 2852000   0.81382595   -3.2514747   -3.2514747   -2.0307385  0.040505164   -3.2514747    1.2207361   439061 
 2853000   0.81538523   -3.2543753   -3.2543753   -2.0313002  0.040578398   -3.2543753    1.2230751   439061 
 2854000    0.8127838   -3.2523985   -3.2523985   -2.0332256  0.040610497   -3.2523985    1.2191729   439061 
 2855000   0.81381127   -3.2530215   -3.2530215   -2.0323074  0.034705115   -3.2530215    1.2207141   439061 
 2856000    0.8133933    -3.252372    -3.252372   -2.0322848  0.039587568    -3.252372    1.2200872   439061 
 2857000   0.81438475   -3.2536952   -3.2536952   -2.0321209  0.036939277   -3.2536952    1.2215743   439061 
 2858000   0.81267067   -3.2508912   -3.2508912    -2.031888  0.037650696   -3.2508912    1.2190032   439061 
 2859000   0.81326619   -3.2505605   -3.2505605    -2.030664  0.043782402   -3.2505605    1.2198965   439061 
 2860000   0.81343707   -3.2503574   -3.2503574   -2.0302046  0.043667912   -3.2503574    1.2201528   439061 
 2861000   0.81369511   -3.2507327   -3.2507327   -2.0301928  0.038182099   -3.2507327    1.2205399   439061 
 2862000   0.81331471   -3.2503193   -3.2503193     -2.03035  0.042473625   -3.2503193    1.2199693   439061 
 2863000   0.81352057   -3.2507866   -3.2507866   -2.0305085  0.033633858   -3.2507866    1.2202781   439061 
 2864000   0.81356981   -3.2512779   -3.2512779    -2.030926  0.040477349   -3.2512779    1.2203519   439061 
 2865000    0.8133105   -3.2498631   -3.2498631   -2.0299001  0.037257347   -3.2498631     1.219963   439061 
 2866000   0.81431354   -3.2520288   -3.2520288   -2.0305613  0.036320557   -3.2520288    1.2214675   439061 
 2867000   0.81376032   -3.2509877   -3.2509877     -2.03035  0.040325895   -3.2509877    1.2206377   439061 
 2868000   0.81391237   -3.2519311   -3.2519311   -2.0310654  0.037953038   -3.2519311    1.2208658   439061 
 2869000   0.81360136   -3.2509583   -3.2509583   -2.0305591  0.042564502   -3.2509583    1.2203993   439061 
 2870000   0.81444049   -3.2517844   -3.2517844   -2.0301264  0.041495374   -3.2517844    1.2216579   439061 
 2871000   0.81508886   -3.2524951   -3.2524951   -2.0298646  0.042540988   -3.2524951    1.2226305   439061 
 2872000   0.81477556   -3.2527732   -3.2527732   -2.0306126  0.044688409   -3.2527732    1.2221606   439061 
 2873000   0.81532668   -3.2543511   -3.2543511   -2.0313639  0.040482099   -3.2543511    1.2229872   439061 
 2874000   0.81340818   -3.2509543   -3.2509543   -2.0308448  0.043011684   -3.2509543    1.2201095   439061 
 2875000   0.81430073   -3.2537453   -3.2537453    -2.032297  0.040814716   -3.2537453    1.2214483   439061 
 2876000   0.81296247   -3.2517666   -3.2517666   -2.0323256  0.039662009   -3.2517666    1.2194409   439061 
 2877000   0.81236273   -3.2511696   -3.2511696   -2.0326283  0.037577122   -3.2511696    1.2185413   439061 
 2878000   0.81358483     -3.25394     -3.25394   -2.0335656  0.036102052     -3.25394    1.2203745   439061 
 2879000   0.81282038   -3.2509917   -3.2509917   -2.0317639  0.043642552   -3.2509917    1.2192278   439061 
 2880000   0.81386421   -3.2525155   -3.2525155   -2.0317219  0.043455599   -3.2525155    1.2207935   439061 
 2881000   0.81472358   -3.2538201   -3.2538201   -2.0317375    0.0416061   -3.2538201    1.2220826   439061 
 2882000   0.81419642   -3.2529277   -3.2529277   -2.0316358  0.038349382   -3.2529277    1.2212919   439061 
 2883000   0.81350235     -3.25253     -3.25253   -2.0322793   0.04625712     -3.25253    1.2202507   439061 
 2884000   0.81429603   -3.2541245   -3.2541245   -2.0326833  0.034735136   -3.2541245    1.2214413   439061 
 2885000   0.81396398   -3.2554111   -3.2554111    -2.034468  0.037578301   -3.2554111    1.2209432   439061 
 2886000    0.8118807    -3.251662    -3.251662   -2.0338437  0.045207175    -3.251662    1.2178183   439061 
 2887000   0.81176487   -3.2523778   -3.2523778   -2.0347333  0.043419794   -3.2523778    1.2176445   439061 
 2888000   0.81245618   -3.2541474   -3.2541474   -2.0354659  0.041124685   -3.2541474    1.2186815   439061 
 2889000   0.81400275   -3.2551825   -3.2551825   -2.0341811    0.0429226   -3.2551825    1.2210013   439061 
 2890000   0.81394206   -3.2540472   -3.2540472   -2.0331369  0.038917465   -3.2540472    1.2209103   439061 
 2891000   0.81490957   -3.2558678   -3.2558678   -2.0335062  0.037691909   -3.2558678    1.2223616   439061 
 2892000   0.81514749   -3.2550722   -3.2550722   -2.0323538  0.043349727   -3.2550722    1.2227185   439061 
 2893000   0.81472133   -3.2551963   -3.2551963   -2.0331171  0.040439229   -3.2551963    1.2220792   439061 
 2894000   0.81446942   -3.2551631   -3.2551631   -2.0334617  0.043070179   -3.2551631    1.2217013   439061 
 2895000   0.81403757   -3.2542676   -3.2542676    -2.033214  0.036972608   -3.2542676    1.2210536   439061 
 2896000   0.81293426   -3.2531581   -3.2531581   -2.0337595  0.041801361   -3.2531581    1.2193986   439061 
 2897000   0.81327188   -3.2533535   -3.2533535   -2.0334485  0.039486929   -3.2533535     1.219905   439061 
 2898000   0.81241788   -3.2511171   -3.2511171   -2.0324931  0.039717569   -3.2511171    1.2186241   439061 
 2899000   0.81313815   -3.2512572   -3.2512572   -2.0315527  0.040681586   -3.2512572    1.2197044   439061 
 2900000   0.81329424   -3.2522912   -3.2522912   -2.0323526  0.036992679   -3.2522912    1.2199386   439061 
 2901000   0.81368709   -3.2532631   -3.2532631   -2.0327353  0.039277862   -3.2532631    1.2205279   439061 
 2902000   0.81518613   -3.2557586   -3.2557586   -2.0329822  0.040991664   -3.2557586    1.2227764   439061 
 2903000   0.81315167   -3.2531566   -3.2531566   -2.0334319  0.038448581   -3.2531566    1.2197247   439061 
 2904000   0.81202647   -3.2521486   -3.2521486   -2.0341117  0.035671672   -3.2521486    1.2180369   439061 
 2905000   0.81143871   -3.2504534   -3.2504534   -2.0332981  0.040861186   -3.2504534    1.2171553   439061 
 2906000   0.81381788   -3.2538744   -3.2538744   -2.0331503  0.038492081   -3.2538744     1.220724   439061 
 2907000   0.81239755   -3.2523926   -3.2523926    -2.033799  0.033449276   -3.2523926    1.2185935   439061 
 2908000   0.81277883    -3.253335    -3.253335   -2.0341695  0.034166561    -3.253335    1.2191655   439061 
 2909000   0.81307346   -3.2532878   -3.2532878   -2.0336804  0.038090743   -3.2532878    1.2196074   439061 
 2910000   0.81406948   -3.2533451   -3.2533451   -2.0322436  0.040782725   -3.2533451    1.2211014   439061 
 2911000    0.8139186   -3.2528211   -3.2528211    -2.031946   0.04441593   -3.2528211    1.2208751   439061 
 2912000   0.81389513   -3.2534313   -3.2534313   -2.0325914  0.038404218   -3.2534313    1.2208399   439061 
 2913000   0.81498637   -3.2552534   -3.2552534   -2.0327767   0.03982216   -3.2552534    1.2224768   439061 
 2914000   0.81398733   -3.2542268   -3.2542268   -2.0332486  0.040423263   -3.2542268    1.2209782   439061 
 2915000   0.81431977   -3.2546067   -3.2546067   -2.0331298  0.037294597   -3.2546067    1.2214769   439061 
 2916000   0.81422172   -3.2541662   -3.2541662   -2.0328364  0.037097154   -3.2541662    1.2213298   439061 
 2917000    0.8137217   -3.2541997   -3.2541997   -2.0336199  0.035804951   -3.2541997    1.2205798   439061 
 2918000   0.81455317   -3.2544321   -3.2544321   -2.0326051  0.039758553   -3.2544321     1.221827   439061 
 2919000   0.81380335   -3.2543642   -3.2543642   -2.0336619   0.04332861   -3.2543642    1.2207022   439061 
 2920000   0.81453352   -3.2549274   -3.2549274   -2.0331299  0.039395193   -3.2549274    1.2217975   439061 
 2921000   0.81351312   -3.2544416   -3.2544416   -2.0341747  0.036960362   -3.2544416    1.2202669   439061 
 2922000   0.81353477   -3.2541693   -3.2541693     -2.03387  0.043536171   -3.2541693    1.2202994   439061 
 2923000   0.81282811   -3.2527696   -3.2527696   -2.0335302  0.040908458   -3.2527696    1.2192394   439061 
 2924000    0.8126332   -3.2520972   -3.2520972   -2.0331502  0.040877743   -3.2520972     1.218947   439061 
 2925000   0.81401982   -3.2542527   -3.2542527   -2.0332258  0.037436326   -3.2542527     1.221027   439061 
 2926000   0.81357977   -3.2530214   -3.2530214   -2.0326545  0.040125658   -3.2530214    1.2203669   439061 
 2927000   0.81385386   -3.2537371   -3.2537371   -2.0329591  0.036022923   -3.2537371     1.220778   439061 
 2928000    0.8134159   -3.2539341   -3.2539341   -2.0338131  0.037385977   -3.2539341    1.2201211   439061 
 2929000   0.81315328   -3.2542721   -3.2542721    -2.034545  0.041563118   -3.2542721    1.2197271   439061 
 2930000   0.81333852   -3.2547537   -3.2547537   -2.0347487  0.040309243   -3.2547537     1.220005   439061 
 2931000   0.81405368   -3.2548391   -3.2548391   -2.0337614  0.038415564   -3.2548391    1.2210777   439061 
 2932000    0.8144868   -3.2549217   -3.2549217   -2.0331943  0.035950926   -3.2549217    1.2217274   439061 
 2933000   0.81319108   -3.2555293   -3.2555293   -2.0357455  0.039066117   -3.2555293    1.2197838   439061 
 2934000   0.81336057   -3.2559733   -3.2559733   -2.0359352  0.037431077   -3.2559733    1.2200381   439061 
 2935000   0.81379142   -3.2561085   -3.2561085   -2.0354241   0.03977562   -3.2561085    1.2206843   439061 
 2936000   0.81398505   -3.2574665   -3.2574665   -2.0364917   0.04047871   -3.2574665    1.2209748   439061 
 2937000   0.81248748   -3.2545077   -3.2545077   -2.0357792   0.04253658   -3.2545077    1.2187284   439061 
 2938000   0.81561739    -3.258354    -3.258354   -2.0349307   0.03630618    -3.258354    1.2234233   439061 
 2939000   0.81388393   -3.2562494   -3.2562494   -2.0354263   0.04221006   -3.2562494    1.2208231   439061 
 2940000   0.81407366   -3.2571209   -3.2571209   -2.0360132  0.042751978   -3.2571209    1.2211077   439061 
 2941000    0.8151765   -3.2585447   -3.2585447   -2.0357828  0.038438721   -3.2585447     1.222762   439061 
 2942000   0.81543625    -3.259049    -3.259049   -2.0358974  0.041965625    -3.259049    1.2231516   439061 
 2943000   0.81459051   -3.2578798   -3.2578798   -2.0359968  0.041633049   -3.2578798     1.221883   439061 
 2944000   0.81576914   -3.2600191   -3.2600191   -2.0363682  0.042087094   -3.2600191    1.2236509   439061 
 2945000   0.81385924   -3.2580064   -3.2580064   -2.0372203  0.045499311   -3.2580064    1.2207861   439061 
 2946000   0.81427332   -3.2590324   -3.2590324   -2.0376252  0.044938915   -3.2590324    1.2214072   439061 
 2947000   0.81455986   -3.2592469   -3.2592469   -2.0374099  0.042850269   -3.2592469     1.221837   439061 
 2948000   0.81279498   -3.2568518   -3.2568518   -2.0376621   0.04112727   -3.2568518    1.2191897   439061 
 2949000    0.8152414    -3.259981    -3.259981   -2.0371217   0.03575932    -3.259981    1.2228593   439061 
 2950000   0.81412993   -3.2599713   -3.2599713   -2.0387792  0.040130063   -3.2599713    1.2211921   439061 
 2951000   0.81443048   -3.2599602   -3.2599602   -2.0383173   0.04637584   -3.2599602    1.2216429   439061 
 2952000   0.81423198   -3.2585207   -3.2585207   -2.0371755  0.044131038   -3.2585207    1.2213452   439061 
 2953000   0.81482817   -3.2588096   -3.2588096   -2.0365701  0.043765129   -3.2588096    1.2222395   439061 
 2954000   0.81466922   -3.2599154   -3.2599154   -2.0379143  0.041690378   -3.2599154     1.222001   439061 
 2955000   0.81370192   -3.2588093   -3.2588093   -2.0382592  0.038094505   -3.2588093    1.2205501   439061 
 2956000   0.81461043   -3.2592172   -3.2592172   -2.0373044  0.035779555   -3.2592172    1.2219129   439061 
 2957000    0.8139526   -3.2576772   -3.2576772   -2.0367511  0.040209987   -3.2576772    1.2209261   439061 
 2958000   0.81282486   -3.2580023   -3.2580023   -2.0387678  0.039199988   -3.2580023    1.2192345   439061 
 2959000   0.81262389   -3.2570233   -3.2570233   -2.0380902  0.042596571   -3.2570233    1.2189331   439061 
 2960000   0.81450025   -3.2600621   -3.2600621   -2.0383145  0.038790983   -3.2600621    1.2217476   439061 
 2961000   0.81458927   -3.2592003   -3.2592003   -2.0373192  0.039551829   -3.2592003    1.2218811   439061 
 2962000   0.81270332   -3.2574423   -3.2574423   -2.0383901  0.040374937   -3.2574423    1.2190522   439061 
 2963000   0.81359639   -3.2580605   -3.2580605   -2.0376687  0.042982265   -3.2580605    1.2203918   439061 
 2964000   0.81441609   -3.2582061   -3.2582061   -2.0365847  0.043461854   -3.2582061    1.2216214   439061 
 2965000   0.81446247   -3.2590686   -3.2590686   -2.0373777  0.040914946   -3.2590686    1.2216909   439061 
 2966000    0.8154184   -3.2608171   -3.2608171   -2.0376923  0.039209816   -3.2608171    1.2231248   439061 
 2967000   0.81475022   -3.2594772   -3.2594772   -2.0373547  0.039534802   -3.2594772    1.2221225   439061 
 2968000   0.81471311   -3.2590787   -3.2590787   -2.0370118   0.04322406   -3.2590787    1.2220669   439061 
 2969000   0.81363212   -3.2576727   -3.2576727   -2.0372273  0.047313615   -3.2576727    1.2204454   439061 
 2970000   0.81469245   -3.2596963   -3.2596963   -2.0376604  0.043554864   -3.2596963    1.2220359   439061 
 2971000    0.8136035    -3.258689    -3.258689   -2.0382865   0.04502302    -3.258689    1.2204025   439061 
 2972000    0.8147188   -3.2606108   -3.2606108   -2.0385354  0.045787125   -3.2606108    1.2220754   439061 
 2973000   0.81550496   -3.2618827   -3.2618827    -2.038628  0.043091837   -3.2618827    1.2232547   439061 
 2974000   0.81521053   -3.2608397   -3.2608397   -2.0380267   0.03837277   -3.2608397     1.222813   439061 
 2975000   0.81387449    -3.260901    -3.260901   -2.0400921  0.038647829    -3.260901     1.220809   439061 
 2976000   0.81407243   -3.2610213   -3.2610213   -2.0399155  0.038143946   -3.2610213    1.2211059   439061 
 2977000   0.81514891   -3.2626821   -3.2626821   -2.0399615  0.038953868   -3.2626821    1.2227206   439061 
 2978000   0.81252098   -3.2586808   -3.2586808   -2.0399021  0.040431117   -3.2586808    1.2187787   439061 
 2979000    0.8145266   -3.2607444   -3.2607444   -2.0389572  0.038960355   -3.2607444    1.2217871   439061 
 2980000    0.8137749   -3.2614227   -3.2614227   -2.0407631  0.036835832   -3.2614227    1.2206596   439061 
 2981000   0.81396515   -3.2612415   -3.2612415   -2.0402966  0.037069191   -3.2612415    1.2209449   439061 
 2982000   0.81345731   -3.2597766   -3.2597766   -2.0395934  0.047772981   -3.2597766    1.2201832   439061 
 2983000   0.81505053   -3.2629843   -3.2629843   -2.0404113   0.04293499   -3.2629843     1.222573   439061 
 2984000   0.81399537    -3.262267    -3.262267   -2.0412768  0.043756187    -3.262267    1.2209903   439061 
 2985000   0.81466349   -3.2628198   -3.2628198   -2.0408273  0.041223853   -3.2628198    1.2219924   439061 
 2986000   0.81459115   -3.2620597   -3.2620597   -2.0401757  0.040909306   -3.2620597    1.2218839   439061 
 2987000   0.81432952   -3.2618532   -3.2618532   -2.0403617  0.042824162   -3.2618532    1.2214915   439061 
 2988000   0.81396919   -3.2628663   -3.2628663   -2.0419153  0.038653252   -3.2628663     1.220951   439061 
 2989000   0.81393025   -3.2630303   -3.2630303   -2.0421377  0.038468309   -3.2630303    1.2208926   439061 
 2990000   0.81369991     -3.26189     -3.26189   -2.0413429  0.039774131     -3.26189    1.2205471   439061 
 2991000   0.81419648   -3.2631271   -3.2631271   -2.0418351  0.041442798   -3.2631271    1.2212919   439061 
 2992000   0.81351293   -3.2626969   -3.2626969   -2.0424303  0.039422264   -3.2626969    1.2202666   439061 
 2993000   0.81423223   -3.2635956   -3.2635956     -2.04225  0.043309396   -3.2635956    1.2213456   439061 
 2994000   0.81304512   -3.2633537   -3.2633537   -2.0437888  0.038603427   -3.2633537    1.2195649   439061 
 2995000    0.8139958   -3.2629032   -3.2629032   -2.0419123  0.043426181   -3.2629032    1.2209909   439061 
 2996000   0.81446913   -3.2622889   -3.2622889    -2.040588   0.04354127   -3.2622889    1.2217009   439061 
 2997000   0.81500851   -3.2639386   -3.2639386   -2.0414287  0.039772006   -3.2639386      1.22251   439061 
 2998000   0.81353468   -3.2629261   -3.2629261   -2.0426269  0.040365116   -3.2629261    1.2202992   439061 
 2999000   0.81153622   -3.2605353   -3.2605353   -2.0432337  0.041527831   -3.2605353    1.2173016   439061 
 3000000   0.81247999   -3.2619106   -3.2619106   -2.0431934  0.040717658   -3.2619106    1.2187172   439061 
Loop time of 6470.17 on 192 procs for 3000000 steps with 439061 atoms

Performance: 200303.861 tau/day, 463.666 timesteps/s
85.3% CPU use with 192 MPI tasks x 1 OpenMP threads

MPI task timing breakdown:
Section |  min time  |  avg time  |  max time  |%varavg|  %CPU | %total
-----------------------------------------------------------------------
Pair    | 951.97     | 2546.1     | 3034.7     |1114.8 |  92.7 | 39.35
Bond    | 1.8625     | 2.0081     | 2.1305     |   3.3 | 100.0 |  0.03
Neigh   | 489.74     | 912.99     | 1050.9     | 457.5 |  98.3 | 14.11
Comm    | 1542.1     | 2446.4     | 4526.5     |1573.6 |  76.3 | 37.81
Output  | 164.78     | 165.31     | 165.32     |   0.3 |  67.8 |  2.55
Modify  | 98.42      | 164.77     | 406.09     | 790.9 |  81.4 |  2.55
Other   |            | 232.5      |            |       |       |  3.59

Nlocal:        2286.78 ave        2485 max        2000 min
Histogram: 3 2 1 0 9 86 78 6 2 5
Nghost:        3546.82 ave        3884 max        2662 min
Histogram: 7 31 9 1 0 0 0 0 56 88
Neighs:        69127.8 ave       78218 max       28837 min
Histogram: 7 6 7 4 0 0 0 0 67 101

Total # of neighbors = 13272547
Ave neighs/atom = 30.229392
Ave special neighs/atom = 0.0000000
Neighbor list builds = 300000
Dangerous builds = 297000
write_data	data.lj
System init for write_data ...


## Evaporation
region          regevap block EDGE EDGE EDGE EDGE 140 EDGE units box
fix             4 solvent evaporate ${evap} 1 regevap 156415
fix             4 solvent evaporate 0 1 regevap 156415
ERROR: Illegal fix evaporate command (src/MISC/fix_evaporate.cpp:53)
Last command: fix             4 solvent evaporate ${evap} 1 regevap 156415
