LAMMPS (24 Dec 2020)
OMP_NUM_THREADS environment is not set. Defaulting to 1 thread. (src/comm.cpp:94)
  using 1 OpenMP thread(s) per MPI task
# Simple rigid body system
# needed variables: startTemp, temp

units		lj
atom_style	full
dimension 	3
boundary	p p f
pair_style	lj/cut/opt 2.5

variable 	gcmcdisplace	equal 0
variable 	sigma		equal 1.0
variable 	epsilon 	equal 1.0


read_restart	restart.dat.3000000
Reading restart file ...
  restart file = 24 Dec 2020, LAMMPS = 24 Dec 2020
WARNING: Restart file used different # of processors: 48 vs. 192 (src/read_restart.cpp:697)
  restoring atom style full from restart
  orthogonal box = (0.0000000 0.0000000 0.0000000) to (80.000000 80.000000 160.00000)
  6 by 4 by 8 MPI processor grid
  restoring pair style lj/cut/opt from restart
  439061 atoms
Finding 1-2 1-3 1-4 neighbors ...
  special bond factors lj:    0        0        0       
  special bond factors coul:  0        0        0       
     0 = max # of 1-2 neighbors
     0 = max # of 1-3 neighbors
     0 = max # of 1-4 neighbors
     1 = max # of special neighbors
  special bonds CPU = 1.413 seconds
  read_restart CPU = 1.699 seconds

mass		1 1.0
mass		2 1.0
mass		3 1.0


group		solvent type 1
439061 atoms in group solvent


neighbor 	0.4 bin

pair_coeff	1 1 1.0 1.0
pair_coeff	2 2 0.0 0.0
pair_coeff	3 3 0.0 0.0
pair_coeff	2 3 0.0 0.0
pair_coeff	1 2*3 0.0 0.0

pair_modify 	shift yes


balance 	1.05 shift z 10 1.05
Balancing ...
Neighbor list info ...
  update every 1 steps, delay 10 steps, check yes
  max neighbors/atom: 2000, page size: 100000
  master list distance cutoff = 2.9
  ghost atom cutoff = 2.9
  binsize = 1.45, bins = 56 56 111
  1 neighbor lists, perpetual/occasional/extra = 1 0 0
  (1) pair lj/cut/opt, perpetual
      attributes: half, newton on
      pair build: half/bin/newton
      stencil: half/bin/3d/newton
      bin: standard
 rebalancing time: 0.024 seconds
  iteration count = 5
  initial/final maximal load/proc = 3162.0000 2575.0000
  initial/final imbalance factor  = 1.3827327 1.1260394
  x cuts: 0.0000000 0.16666667 0.33333333 0.50000000 0.66666667 0.83333333 1.0000000
  y cuts: 0.0000000 0.25000000 0.50000000 0.75000000 1.0000000
  z cuts: 0.0000000 0.097656250 0.18359375 0.27734375 0.37890625 0.47656250 0.57031250 0.67968750 1.0000000


####################### WALLS ###########################


variable       epsilonWall equal 2*${epsilon}
variable       epsilonWall equal 2*1

variable       cutoffTop   equal   0.7147*${sigma}
variable       cutoffTop   equal   0.7147*1

variable       cutoffLow   equal   3*${sigma}
variable       cutoffLow   equal   3*1


fix            topWall all wall/lj93 zhi EDGE                ${epsilonWall} ${sigma} ${cutoffTop} units box
fix            topWall all wall/lj93 zhi EDGE                2 ${sigma} ${cutoffTop} units box
fix            topWall all wall/lj93 zhi EDGE                2 1 ${cutoffTop} units box
fix            topWall all wall/lj93 zhi EDGE                2 1 0.7147 units box

fix            lowWall all wall/lj93 zlo EDGE                ${epsilonWall} ${sigma} ${cutoffLow} units box
fix            lowWall all wall/lj93 zlo EDGE                2 ${sigma} ${cutoffLow} units box
fix            lowWall all wall/lj93 zlo EDGE                2 1 ${cutoffLow} units box
fix            lowWall all wall/lj93 zlo EDGE                2 1 3 units box


###################### COMPUTES ##########################

compute        bin1 solvent chunk/atom bin/1d z upper 1.0



######################	FIXES ############################


fix 		peclet solvent ave/chunk 1000 1 1000 bin1 density/number norm 		 none ave one file density.profile

fix 		 temp solvent ave/chunk 1000 1 1000 bin1 temp norm none ave one file temp.profile

fix 		2 solvent nve

## Thermostat


region		regthermo block EDGE EDGE EDGE EDGE 0 20

group 		thermo dynamic solvent region regthermo every 1000
dynamic group thermo defined

fix 		3 thermo langevin ${startTemp} ${temp} 10 156453
fix 		3 thermo langevin 1.0 ${temp} 10 156453
fix 		3 thermo langevin 1.0 1.0 10 156453


## Evaporation

region		regevap block EDGE EDGE EDGE EDGE 140 158
fix 		gcmc solvent gcmc 100 100 0 1 780493 ${temp} ${mu} ${gcmcdisplace} region regevap
fix 		gcmc solvent gcmc 100 100 0 1 780493 1.0 ${mu} ${gcmcdisplace} region regevap
fix 		gcmc solvent gcmc 100 100 0 1 780493 1.0 -2.6 ${gcmcdisplace} region regevap
fix 		gcmc solvent gcmc 100 100 0 1 780493 1.0 -2.6 0 region regevap


#### Load balancing

fix 		bal all balance 1000 1.05 shift z 10 1.05

############### Diagnostics and computes ###################
#compute 	com cube	  rigid/local	1 mol x y z
#compute 	quat cube	  rigid/local	1 mol quatw quati quatj quatk

thermo 		1000
thermo_style 	custom step temp epair etotal press pe ke atoms

dump		1 all custom 100000 dump.lammpstrj id mol type x y z
dump 		2 all image 10000 image.*.png type type
dump 		3 all movie 1000 movie.avi type type
#dump 		com cube local 1000 dump.*.xyz c_com[*]
#dump		quat cube      local 1000 dump.*.quat c_quat[*]


restart 	1000000 restart.dat
timestep 	0.005
timer 		full
New timer settings: style=full  mode=nosync  timeout=off


run		5000000
Per MPI rank memory allocation (min/avg/max) = 9.923 | 9.986 | 10.01 Mbytes
Step Temp E_pair TotEng Press PotEng KinEng Atoms 
 3000000     1.016004   -3.1352716   -1.6112691  0.079025997   -3.1352716    1.5240025   439061 
 3001000    1.0152982    -3.134036    -1.611529  0.074059573    -3.134036     1.522507   439187 
 3002000    1.0164315   -3.1355357   -1.6117908   0.07462121   -3.1355357     1.523745   439320 
 3003000    1.0180391   -3.1370017   -1.6110275  0.070333752   -3.1370017    1.5259742   439372 
 3004000    1.0160612   -3.1338472   -1.6111773  0.077535683   -3.1338472    1.5226699   439470 
 3005000    1.0159062   -3.1328868   -1.6108024  0.075143712   -3.1328868    1.5220844   439572 
 3006000     1.017752   -3.1331695   -1.6086803   0.07993505   -3.1331695    1.5244892   439676 
 3007000    1.0182066   -3.1324045   -1.6073316  0.073420085   -3.1324045    1.5250729   439704 
 3008000    1.0188133   -3.1338788   -1.6081018  0.076391997   -3.1338788     1.525777   439763 
 3009000    1.0171736   -3.1306904   -1.6076357  0.077330693   -3.1306904    1.5230547   439840 
 3010000    1.0176436   -3.1321725   -1.6088055  0.081873729   -3.1321725     1.523367   439953 
 3011000    1.0187741   -3.1333624   -1.6085976  0.074053273   -3.1333624    1.5247648   440038 
 3012000    1.0189319   -3.1315195   -1.6067508  0.081180192   -3.1315195    1.5247687   440105 
 3013000     1.019114    -3.129827   -1.6052326  0.078809265    -3.129827    1.5245944   440234 
 3014000    1.0219884   -3.1332102   -1.6047323  0.078471273   -3.1332102    1.5284779   440354 
 3015000    1.0210647   -3.1315031   -1.6047949  0.077199955   -3.1315031    1.5267081   440466 
 3016000    1.0197699   -3.1300243   -1.6054357  0.076845092   -3.1300243    1.5245887   440519 
 3017000    1.0223205   -3.1329277   -1.6048242  0.079541441   -3.1329277    1.5281035   440605 
 3018000    1.0221931   -3.1310411   -1.6034884    0.0718361   -3.1310411    1.5275526   440709 
 3019000     1.022523   -3.1315355    -1.603892  0.075386184   -3.1315355    1.5276435   440825 
 3020000    1.0214827   -3.1293495   -1.6036652  0.081330071   -3.1293495    1.5256843   440942 
 3021000     1.021599   -3.1286206   -1.6030048   0.07942469   -3.1286206    1.5256158   441012 
 3022000    1.0226164    -3.131263   -1.6043667  0.077075196    -3.131263    1.5268963   441081 
 3023000    1.0223569   -3.1293817   -1.6031013  0.079582755   -3.1293817    1.5262804   441147 
 3024000    1.0230416   -3.1299686   -1.6029221  0.079489294   -3.1299686    1.5270465   441221 
 3025000    1.0244541    -3.131641   -1.6028985  0.075415201    -3.131641    1.5287425   441340 
 3026000    1.0250775   -3.1327163   -1.6033277  0.080283443   -3.1327163    1.5293886   441422 
 3027000     1.023965   -3.1296211   -1.6021691  0.077557604   -3.1296211     1.527452   441502 
 3028000    1.0254836   -3.1312865   -1.6018637  0.083420893   -3.1312865    1.5294228   441587 
 3029000     1.025687   -3.1311818   -1.6017915  0.077562311   -3.1311818    1.5293903   441684 
 3030000    1.0250678   -3.1297949   -1.6015771  0.081890217   -3.1297949    1.5282178   441756 
 3031000    1.0256948    -3.130349   -1.6015424  0.080825649    -3.130349    1.5288066   441856 
 3032000    1.0278768   -3.1320623    -1.600319  0.078023204   -3.1320623    1.5317433   441947 
 3033000    1.0268807    -3.130638   -1.6006457  0.085588141    -3.130638    1.5299924   442024 
 3034000      1.02638   -3.1311709   -1.6022047  0.081739339   -3.1311709    1.5289662   442105 
 3035000     1.025673   -3.1297518   -1.6021568  0.076101499   -3.1297518    1.5275951   442197 
 3036000     1.027269   -3.1301964   -1.6005529  0.083031274   -3.1301964    1.5296434   442292 
 3037000     1.028414   -3.1322437   -1.6011168  0.077450398   -3.1322437    1.5311269   442356 
 3038000    1.0261024   -3.1289093   -1.6014172  0.078031716   -3.1289093     1.527492   442412 
 3039000    1.0271467   -3.1286584   -1.5999401    0.0773935   -3.1286584    1.5287183   442507 
 3040000    1.0267389   -3.1296013   -1.6017041  0.076058202   -3.1296013    1.5278972   442569 
 3041000    1.0266089    -3.129178   -1.6018262  0.074580484    -3.129178    1.5273518   442671 
 3042000    1.0282415   -3.1297938   -1.6003205  0.082753217   -3.1297938    1.5294732   442760 
 3043000    1.0284624   -3.1286492   -1.5992032  0.082370393   -3.1286492     1.529446   442863 
 3044000    1.0299292   -3.1304755   -1.5991353  0.082407375   -3.1304755    1.5313403   442946 
 3045000    1.0290966   -3.1300099   -1.6000387  0.076735438   -3.1300099    1.5299712   442984 
 3046000    1.0282028    -3.128714   -1.6002857  0.085312487    -3.128714    1.5284283   443046 
 3047000    1.0303633   -3.1305021   -1.5990937  0.078266332   -3.1305021    1.5314084   443113 
 3048000    1.0290107    -3.128016   -1.5989665  0.085637412    -3.128016    1.5290495   443214 
 3049000    1.0296635    -3.127773   -1.5980813   0.08074733    -3.127773    1.5296917   443309 
 3050000    1.0304018   -3.1285598    -1.598051  0.078681623   -3.1285598    1.5305089   443390 
 3051000    1.0306533   -3.1280328   -1.5974473  0.080708167   -3.1280328    1.5305856   443476 
 3052000    1.0303773   -3.1274485   -1.5975626  0.085852942   -3.1274485     1.529886   443560 
 3053000    1.0297586   -3.1276861   -1.5990014  0.083110831   -3.1276861    1.5286847   443642 
 3054000    1.0299748   -3.1268315   -1.5982118  0.080041756   -3.1268315    1.5286197   443754 
 3055000    1.0318048   -3.1289934   -1.5979958  0.080650066   -3.1289934    1.5309975   443852 
 3056000    1.0309908   -3.1276523    -1.598252  0.081491458   -3.1276523    1.5294004   443965 
 3057000    1.0310876   -3.1257543    -1.596572  0.084833671   -3.1257543    1.5291823   444070 
 3058000    1.0311317   -3.1265342   -1.5975929   0.08677205   -3.1265342    1.5289413   444159 
 3059000    1.0327918   -3.1270831    -1.595925  0.079576655   -3.1270831    1.5311581   444230 
 3060000    1.0309018   -3.1248608   -1.5967661  0.085668714   -3.1248608    1.5280947   444306 
 3061000    1.0324144   -3.1256176   -1.5956321  0.086196887   -3.1256176    1.5299855   444408 
 3062000    1.0341045   -3.1280638   -1.5958873  0.079303302   -3.1280638    1.5321764   444499 
 3063000     1.032568    -3.125353   -1.5958558   0.08118028    -3.125353    1.5294972   444616 
 3064000     1.032393   -3.1254499   -1.5965213  0.079962575   -3.1254499    1.5289286   444706 
 3065000    1.0344625   -3.1281229   -1.5963947  0.083514718   -3.1281229    1.5317282   444783 
 3066000    1.0329045   -3.1261669   -1.5970448  0.084079087   -3.1261669    1.5291221   444870 
 3067000     1.033463   -3.1267189   -1.5971102  0.084290765   -3.1267189    1.5296086   444969 
 3068000    1.0342384   -3.1272977   -1.5967788  0.079908798   -3.1272977    1.5305189   445038 
 3069000    1.0346119   -3.1276433   -1.5968538  0.082130933   -3.1276433    1.5307895   445120 
 3070000    1.0351986   -3.1269081   -1.5953778  0.082240608   -3.1269081    1.5315303   445157 
 3071000    1.0353233   -3.1257411   -1.5942568  0.086160323   -3.1257411    1.5314843   445224 
 3072000    1.0355478   -3.1263886   -1.5948474  0.083358738   -3.1263886    1.5315412   445304 
 3073000    1.0359363   -3.1273507   -1.5955032  0.085287848   -3.1273507    1.5318475   445382 
 3074000    1.0358948   -3.1273325   -1.5957424  0.088266791   -3.1273325      1.53159   445439 
 3075000    1.0348806   -3.1262971   -1.5965499  0.085787358   -3.1262971    1.5297472   445539 
 3076000    1.0380028   -3.1287916   -1.5948149  0.078032239   -3.1287916    1.5339767   445651 
 3077000    1.0362358   -3.1256023   -1.5945907  0.084976113   -3.1256023    1.5310116   445754 
 3078000    1.0358359   -3.1250959   -1.5949567  0.083740061   -3.1250959    1.5301393   445836 
 3079000    1.0379059   -3.1274161   -1.5944768  0.077224507   -3.1274161    1.5329393   445911 
 3080000    1.0368705   -3.1261134   -1.5950194  0.084496516   -3.1261134    1.5310941   446003 
 3081000    1.0370633    -3.124584   -1.5934216  0.085690535    -3.124584    1.5311624   446066 
 3082000    1.0373007   -3.1246827   -1.5934135  0.082931991   -3.1246827    1.5312692   446137 
 3083000    1.0347844   -3.1222818   -1.5949292  0.087572599   -3.1222818    1.5273526   446196 
 3084000    1.0367821   -3.1259451   -1.5959318  0.083861426   -3.1259451    1.5300133   446280 
 3085000    1.0365164   -3.1244247   -1.5950742  0.083265764   -3.1244247    1.5293505   446359 
 3086000    1.0359784    -3.122124   -1.5939235  0.083672219    -3.122124    1.5282005   446463 
 3087000    1.0378197   -3.1253324   -1.5946624  0.081347735   -3.1253324    1.5306699   446535 
 3088000    1.0373289   -3.1218174   -1.5921933  0.085110396   -3.1218174     1.529624   446629 
 3089000    1.0389512   -3.1230156   -1.5913766  0.087592154   -3.1230156     1.531639   446739 
 3090000    1.0390358   -3.1234003   -1.5919554  0.080673979   -3.1234003    1.5314449   446832 
 3091000    1.0382798    -3.122599   -1.5925937  0.082914518    -3.122599    1.5300053   446927 
 3092000    1.0386867   -3.1234086   -1.5931221  0.080435459   -3.1234086    1.5302865   447020 
 3093000    1.0376592    -3.120666   -1.5921736  0.082884023    -3.120666    1.5284924   447102 
 3094000    1.0396875     -3.12321   -1.5920484  0.083050468     -3.12321    1.5311616   447195 
 3095000    1.0405135   -3.1231761   -1.5910584  0.086045092   -3.1231761    1.5321177   447271 
 3096000    1.0400039   -3.1219017   -1.5907227  0.082354705   -3.1219017     1.531179   447326 
 3097000    1.0402138   -3.1226698   -1.5912914  0.087914765   -3.1226698    1.5313785   447358 
 3098000    1.0417724   -3.1250519   -1.5917353   0.07873614   -3.1250519    1.5333166   447462 
 3099000    1.0392871    -3.122704   -1.5933428   0.08213445    -3.122704    1.5293612   447549 
 3100000    1.0414353   -3.1237673   -1.5915632  0.086362645   -3.1237673    1.5322041   447642 
 3101000    1.0406447   -3.1228985   -1.5920424  0.078884727   -3.1228985    1.5308561   447696 
 3102000    1.0422308   -3.1237689    -1.590826  0.081928268   -3.1237689    1.5329429   447768 
 3103000     1.042846   -3.1244667   -1.5909272  0.083443624   -3.1244667    1.5335395   447858 
 3104000    1.0404975   -3.1218259   -1.5920336  0.080549105   -3.1218259    1.5297922   447944 
 3105000    1.0433787   -3.1227139   -1.5889698  0.087534529   -3.1227139    1.5337441   448027 
 3106000    1.0437839   -3.1244415   -1.5903586  0.083915791   -3.1244415    1.5340829   448102 
 3107000      1.04328   -3.1249969   -1.5919384  0.085313539   -3.1249969    1.5330584   448185 
 3108000    1.0434546   -3.1243372   -1.5912002  0.088384242   -3.1243372     1.533137   448237 
 3109000     1.043615   -3.1247765   -1.5916296  0.083561049   -3.1247765     1.533147   448303 
 3110000    1.0438759   -3.1254342   -1.5921877  0.088613797   -3.1254342    1.5332465   448386 
 3111000    1.0441635    -3.126146   -1.5927576  0.091053068    -3.126146    1.5333884   448468 
 3112000    1.0439502   -3.1236801   -1.5908886   0.08549015   -3.1236801    1.5327915   448551 
 3113000    1.0451803   -3.1243431   -1.5899678  0.090600622   -3.1243431    1.5343753   448616 
 3114000    1.0450246    -3.124077   -1.5899953  0.083230506    -3.124077    1.5340817   448635 
 3115000    1.0441551   -3.1231979   -1.5906386  0.087035583   -3.1231979    1.5325593   448707 
 3116000    1.0442101   -3.1229351   -1.5905034  0.083246892   -3.1229351    1.5324317   448768 
 3117000    1.0461305   -3.1242283   -1.5891322  0.085579427   -3.1242283    1.5350961   448813 
 3118000    1.0462361    -3.124003   -1.5890119  0.087509818    -3.124003    1.5349911   448889 
 3119000    1.0449043   -3.1222268   -1.5895481  0.088984289   -3.1222268    1.5326787   448994 
 3120000    1.0459982    -3.124429   -1.5904088  0.080876891    -3.124429    1.5340202   449071 
 3121000    1.0446557   -3.1226445   -1.5908457  0.085109136   -3.1226445    1.5317988   449145 
 3122000    1.0451744   -3.1214367   -1.5890887  0.086430859   -3.1214367    1.5323479   449207 
 3123000    1.0457008   -3.1218993   -1.5891005  0.086813586   -3.1218993    1.5327989   449301 
 3124000    1.0460983   -3.1236858   -1.5904338  0.078850466   -3.1236858     1.533252   449339 
 3125000    1.0467859   -3.1229731   -1.5889285  0.081914257   -3.1229731    1.5340447   449402 
 3126000     1.046195   -3.1206593   -1.5878796  0.088484431   -3.1206593    1.5327797   449519 
 3127000    1.0451242   -3.1190165   -1.5880271  0.087838157   -3.1190165    1.5309894   449584 
 3128000    1.0457292   -3.1200478   -1.5883935  0.080412408   -3.1200478    1.5316542   449649 
 3129000    1.0448374   -3.1176618   -1.5876472  0.086030255   -3.1176618    1.5300146   449747 
 3130000    1.0456356   -3.1182318    -1.587365  0.080155301   -3.1182318    1.5308668   449840 
 3131000    1.0457166   -3.1176982   -1.5868863  0.081945761   -3.1176982    1.5308119   449891 
 3132000    1.0459434   -3.1181041   -1.5871031  0.080463892   -3.1181041     1.531001   449933 
 3133000    1.0467346   -3.1192043   -1.5871576  0.081931756   -3.1192043    1.5320467   449966 
 3134000    1.0474399   -3.1195533   -1.5867434    0.0889244   -3.1195533    1.5328099   450045 
 3135000    1.0477987   -3.1200477   -1.5869512  0.083504266   -3.1200477    1.5330965   450115 
 3136000    1.0488089   -3.1207589    -1.586457  0.087259609   -3.1207589    1.5343019   450195 
 3137000    1.0477965   -3.1182041   -1.5856147  0.081583381   -3.1182041    1.5325894   450263 
 3138000     1.049094   -3.1194678   -1.5853111  0.086958076   -3.1194678    1.5341567   450360 
 3139000    1.0486856   -3.1187244   -1.5853318  0.085206393   -3.1187244    1.5333926   450409 
 3140000    1.0505132   -3.1213122   -1.5853666  0.086353931   -3.1213122    1.5359456   450444 
 3141000    1.0505898   -3.1216455     -1.58583  0.088911251   -3.1216455    1.5358155   450515 
 3142000    1.0499764   -3.1190047   -1.5843413   0.08691284   -3.1190047    1.5346633   450590 
 3143000    1.0503814   -3.1196775   -1.5846062  0.088690072   -3.1196775    1.5350713   450644 
 3144000    1.0514245   -3.1214484   -1.5852038   0.08371594   -3.1214484    1.5362446   450747 
 3145000    1.0507655   -3.1204365   -1.5854102  0.082989072   -3.1204365    1.5350264   450822 
 3146000    1.0497516   -3.1195424   -1.5862013  0.089406229   -3.1195424    1.5333411   450882 
 3147000    1.0501371   -3.1198612   -1.5862835  0.088248606   -3.1198612    1.5335777   450978 
 3148000    1.0515556   -3.1213088   -1.5858707  0.086016669   -3.1213088    1.5354381   451040 
 3149000    1.0518993    -3.119904   -1.5842024  0.084751885    -3.119904    1.5357016   451110 
 3150000    1.0523069   -3.1206907   -1.5846017  0.087362825   -3.1206907     1.536089   451171 
 3151000    1.0518101    -3.121347   -1.5862181  0.085585777    -3.121347     1.535129   451240 
 3152000    1.0518548   -3.1210357   -1.5860727  0.083777061   -3.1210357    1.5349629   451308 
 3153000    1.0507801   -3.1188274   -1.5856026  0.083039291   -3.1188274    1.5332247   451358 
 3154000    1.0511159   -3.1186036   -1.5852184  0.086718828   -3.1186036    1.5333852   451455 
 3155000    1.0506345   -3.1182238   -1.5857852  0.089770845   -3.1182238    1.5324386   451527 
 3156000    1.0508432   -3.1175657   -1.5850773  0.082260658   -3.1175657    1.5324884   451602 
 3157000    1.0511229    -3.116999   -1.5844522  0.089168819    -3.116999    1.5325467   451705 
 3158000    1.0521002   -3.1186844   -1.5848994  0.080708145   -3.1186844     1.533785   451760 
 3159000     1.052749     -3.11813   -1.5836065  0.081815289     -3.11813    1.5345235   451821 
 3160000    1.0521045    -3.116723   -1.5832916  0.087413405    -3.116723    1.5334314   451866 
 3161000    1.0535184   -3.1192356   -1.5839507   0.08499693   -3.1192356    1.5352849   451927 
 3162000    1.0520766   -3.1170749   -1.5842235  0.084434321   -3.1170749    1.5328514   452025 
 3163000     1.052576   -3.1184084   -1.5851076  0.086466208   -3.1184084    1.5333008   452107 
 3164000    1.0516796   -3.1182354   -1.5864437  0.087330249   -3.1182354    1.5317917   452167 
 3165000    1.0528964   -3.1177309   -1.5842924  0.087906394   -3.1177309    1.5334385   452204 
 3166000     1.052088   -3.1168109    -1.584797  0.085155994   -3.1168109    1.5320138   452277 
 3167000    1.0531754     -3.11852   -1.5851092  0.082431689     -3.11852    1.5334108   452332 
 3168000    1.0523369   -3.1169676   -1.5850487  0.082749101   -3.1169676     1.531919   452412 
 3169000    1.0524261   -3.1163088    -1.584568  0.084771828   -3.1163088    1.5317408   452503 
 3170000    1.0535036   -3.1175601   -1.5844713  0.088706811   -3.1175601    1.5330888   452568 
 3171000     1.055154    -3.118774   -1.5834803  0.083943811    -3.118774    1.5352937   452626 
 3172000    1.0553731   -3.1184957   -1.5830934  0.086837098   -3.1184957    1.5354023   452688 
 3173000     1.055668   -3.1180058   -1.5825035  0.081752967   -3.1180058    1.5355022   452785 
 3174000    1.0557137   -3.1185489   -1.5832379  0.087313086   -3.1185489    1.5353111   452861 
 3175000     1.054662   -3.1174184     -1.58383  0.088539092   -3.1174184    1.5335885   452918 
 3176000    1.0567199   -3.1186356   -1.5823396  0.090099715   -3.1186356     1.536296   453002 
 3177000    1.0578796   -3.1192092   -1.5814988  0.086744199   -3.1192092    1.5377104   453082 
 3178000    1.0580027   -3.1177004   -1.5800961  0.090171092   -3.1177004    1.5376044   453166 
 3179000    1.0573198   -3.1158686   -1.5794805  0.094031183   -3.1158686    1.5363882   453232 
 3180000    1.0586729   -3.1178276   -1.5796974  0.091827131   -3.1178276    1.5381303   453298 
 3181000    1.0571316   -3.1164014   -1.5807408  0.085910385   -3.1164014    1.5356606   453366 
 3182000    1.0575478   -3.1167688    -1.580768  0.090304439   -3.1167688    1.5360009   453444 
 3183000    1.0573132   -3.1160761   -1.5806326  0.088400212   -3.1160761    1.5354435   453508 
 3184000     1.057876   -3.1171745   -1.5811744  0.086625857   -3.1171745    1.5360001   453585 
 3185000    1.0568144   -3.1148879   -1.5806052  0.089112488   -3.1148879    1.5342827   453637 
 3186000    1.0575239    -3.116211   -1.5811589  0.091712854    -3.116211    1.5350521   453714 
 3187000    1.0574076    -3.114652     -1.58009  0.084156216    -3.114652     1.534562   453809 
 3188000    1.0577052   -3.1155576   -1.5807633  0.087011132   -3.1155576    1.5347944   453868 
 3189000    1.0574855    -3.114958   -1.5806784  0.092455889    -3.114958    1.5342796   453926 
 3190000    1.0574509   -3.1150737   -1.5811552  0.089137229   -3.1150737    1.5339185   454018 
 3191000    1.0586944   -3.1151491   -1.5796771  0.086192405   -3.1151491     1.535472   454092 
 3192000    1.0606554   -3.1165051    -1.578487  0.087770606   -3.1165051     1.538018   454180 
 3193000    1.0601549   -3.1155629   -1.5786023  0.086556183   -3.1155629    1.5369606   454278 
 3194000    1.0616774     -3.11641   -1.5774725  0.086219282     -3.11641    1.5389375   454346 
 3195000    1.0602379   -3.1134941   -1.5768799  0.091259608   -3.1134941    1.5366142   454416 
 3196000    1.0602729   -3.1144615   -1.5780839  0.082594026   -3.1144615    1.5363776   454501 
 3197000    1.0600513    -3.113592   -1.5777722  0.085240631    -3.113592    1.5358198   454571 
 3198000    1.0604597   -3.1120298   -1.5758953  0.089107756   -3.1120298    1.5361345   454653 
 3199000    1.0615022   -3.1152794   -1.5777903  0.088377735   -3.1152794    1.5374891   454699 
 3200000    1.0605413   -3.1136223    -1.577856  0.088379249   -3.1136223    1.5357663   454797 
 3201000    1.0614741   -3.1134444   -1.5765978  0.087756626   -3.1134444    1.5368467   454877 
 3202000    1.0614096   -3.1130772   -1.5765096  0.084744411   -3.1130772    1.5365676   454932 
 3203000    1.0615758   -3.1118554   -1.5753107  0.088257595   -3.1118554    1.5365447   455010 
 3204000    1.0622968   -3.1129317   -1.5756272  0.091094614   -3.1129317    1.5373045   455094 
 3205000    1.0636144    -3.115447   -1.5764894  0.088958456    -3.115447    1.5389576   455169 
 3206000    1.0634019    -3.115187   -1.5767429  0.089498032    -3.115187     1.538444   455230 
 3207000     1.061532   -3.1124803   -1.5770282  0.091274048   -3.1124803    1.5354521   455315 
 3208000    1.0637122   -3.1145338   -1.5761849  0.091648965   -3.1145338    1.5383489   455391 
 3209000    1.0625688   -3.1145441   -1.5779974  0.087206068   -3.1145441    1.5365467   455435 
 3210000    1.0603571   -3.1118066   -1.5785894  0.086224345   -3.1118066    1.5332172   455474 
 3211000    1.0629278   -3.1136973   -1.5770497  0.087568108   -3.1136973    1.5366475   455559 
 3212000    1.0636209   -3.1155402   -1.5780121  0.084254168   -3.1155402     1.537528   455595 
 3213000    1.0617961   -3.1133342   -1.5785855  0.090864316   -3.1133342    1.5347488   455637 
 3214000    1.0638896   -3.1157184   -1.5781225  0.086100406   -3.1157184    1.5375959   455690 
 3215000    1.0622622   -3.1141553   -1.5791473  0.094245582   -3.1141553     1.535008   455760 
 3216000    1.0624177   -3.1140205   -1.5789662  0.089580113   -3.1140205    1.5350543   455813 
 3217000       1.0628   -3.1148797    -1.579455  0.087663094   -3.1148797    1.5354248   455867 
 3218000    1.0645898   -3.1162513   -1.5785681  0.090153532   -3.1162513    1.5376832   455964 
 3219000    1.0631199   -3.1136264   -1.5782683  0.097509661   -3.1136264    1.5353581   456024 
 3220000    1.0641024    -3.115146   -1.5784398  0.087699988    -3.115146    1.5367062   456045 
 3221000     1.065295   -3.1164653   -1.5781953  0.083748039   -3.1164653      1.53827   456092 
 3222000    1.0659138   -3.1174736   -1.5784315  0.088964988   -3.1174736    1.5390421   456128 
 3223000    1.0647801   -3.1163893   -1.5792673  0.088912894   -3.1163893    1.5371221   456212 
 3224000    1.0666087   -3.1172528   -1.5776868  0.088571044   -3.1172528    1.5395661   456270 
 3225000    1.0669845   -3.1174174   -1.5774674  0.089038121   -3.1174174      1.53995   456317 
 3226000    1.0663567   -3.1168319   -1.5779904  0.090558943   -3.1168319    1.5388415   456377 
 3227000    1.0667587   -3.1169947    -1.577826  0.091691525   -3.1169947    1.5391687   456452 
 3228000    1.0670262    -3.116822   -1.5775574  0.089121964    -3.116822    1.5392646   456538 
 3229000    1.0659452   -3.1149707   -1.5774844  0.090957903   -3.1149707    1.5374863   456603 
 3230000    1.0677532   -3.1163004   -1.5764795   0.08924154   -3.1163004    1.5398209   456684 
 3231000    1.0667885   -3.1157638   -1.5776001  0.088934099   -3.1157638    1.5381637   456763 
 3232000    1.0658238   -3.1143962   -1.5778118   0.08970947   -3.1143962    1.5365843   456819 
 3233000     1.066137   -3.1145331    -1.577763  0.091711218   -3.1145331    1.5367701   456898 
 3234000    1.0671401    -3.115965   -1.5779174  0.088864126    -3.115965    1.5380476   456948 
 3235000    1.0682782   -3.1164499   -1.5768933   0.09163975   -3.1164499    1.5395566   456987 
 3236000    1.0701917   -3.1179054   -1.5757262  0.093049515   -3.1179054    1.5421792   457027 
 3237000     1.067017   -3.1132981   -1.5759796  0.094957079   -3.1132981    1.5373185   457112 
 3238000    1.0692306   -3.1159761    -1.575711  0.094077452   -3.1159761    1.5402651   457184 
 3239000    1.0677499   -3.1128683   -1.5749749  0.088519379   -3.1128683    1.5378934   457255 
 3240000    1.0677026   -3.1130225   -1.5754899  0.091553249   -3.1130225    1.5375326   457342 
 3241000    1.0704877    -3.117568   -1.5761628  0.089064675    -3.117568    1.5414051   457383 
 3242000     1.068988   -3.1149317   -1.5759148  0.092328067   -3.1149317    1.5390169   457451 
 3243000    1.0693663   -3.1154225   -1.5760259  0.092698644   -3.1154225    1.5393966   457500 
 3244000    1.0689942   -3.1147714   -1.5761021  0.092055598   -3.1147714    1.5386693   457557 
 3245000    1.0708997   -3.1157775   -1.5747527   0.09067249   -3.1157775    1.5410247   457672 
 3246000    1.0700279   -3.1148769   -1.5752851  0.089547174   -3.1148769    1.5395919   457725 
 3247000    1.0699161   -3.1136815   -1.5745868  0.090708565   -3.1136815    1.5390948   457825 
 3248000    1.0702546   -3.1129966   -1.5735462   0.09254467   -3.1129966    1.5394505   457864 
 3249000    1.0712352    -3.113594   -1.5729147  0.088898928    -3.113594    1.5406793   457918 
 3250000    1.0705937   -3.1127145   -1.5731831  0.090895267   -3.1127145    1.5395314   457985 
 3251000    1.0698176   -3.1123191   -1.5740884   0.08561915   -3.1123191    1.5382306   458040 
 3252000    1.0701753   -3.1127144   -1.5742851  0.084598556   -3.1127144    1.5384292   458134 
 3253000    1.0708813   -3.1121788    -1.572906  0.085658874   -3.1121788    1.5392727   458185 
 3254000    1.0705254   -3.1120025   -1.5734897  0.092684155   -3.1120025    1.5385128   458259 
 3255000     1.068077   -3.1084304   -1.5737009  0.089981516   -3.1084304    1.5347295   458338 
 3256000    1.0708655   -3.1118636   -1.5734697  0.087807857   -3.1118636    1.5383939   458440 
 3257000    1.0700981   -3.1103142    -1.573187  0.090628606   -3.1103142    1.5371272   458489 
 3258000    1.0698016   -3.1099591   -1.5734087  0.087340333   -3.1099591    1.5365504   458534 
 3259000    1.0718657   -3.1130465   -1.5736657  0.083497209   -3.1130465    1.5393808   458574 
 3260000    1.0718993   -3.1129927   -1.5737549  0.089634022   -3.1129927    1.5392377   458631 
 3261000    1.0722462   -3.1125374   -1.5731405  0.092284604   -3.1125374    1.5393969   458732 
 3262000    1.0726824   -3.1145585   -1.5747536  0.087902823   -3.1145585     1.539805   458797 
 3263000    1.0731478   -3.1152083   -1.5750743  0.083605256   -3.1152083     1.540134   458898 
 3264000    1.0724741   -3.1143177   -1.5752646  0.088846236   -3.1143177    1.5390531   458932 
 3265000    1.0725778   -3.1136102   -1.5745592  0.087638455   -3.1136102     1.539051   458977 
 3266000    1.0723121   -3.1134352   -1.5749297  0.093260603   -3.1134352    1.5385055   459026 
 3267000    1.0745845   -3.1159141   -1.5743934  0.092243932   -3.1159141    1.5415206   459099 
 3268000     1.074922   -3.1153308    -1.573551  0.096269426   -3.1153308    1.5417799   459166 
 3269000    1.0747971   -3.1154956   -1.5740358  0.089695762   -3.1154956    1.5414597   459208 
 3270000    1.0758718   -3.1170284   -1.5743969   0.09246906   -3.1170284    1.5426315   459318 
 3271000     1.075493   -3.1158579   -1.5740382  0.088610737   -3.1158579    1.5418198   459398 
 3272000    1.0758356   -3.1167768   -1.5746505  0.092000936   -3.1167768    1.5421263   459453 
 3273000    1.0750183   -3.1143888   -1.5734809  0.094747812   -3.1143888    1.5409078   459467 
 3274000    1.0754706   -3.1151501   -1.5738187   0.09544183   -3.1151501    1.5413314   459534 
 3275000    1.0771602   -3.1162443   -1.5727199  0.091197664   -3.1162443    1.5435244   459602 
 3276000    1.0771093   -3.1151124   -1.5719395  0.090126646   -3.1151124    1.5431729   459685 
 3277000     1.074469   -3.1130691   -1.5740305  0.096248449   -3.1130691    1.5390385   459790 
 3278000    1.0752346   -3.1133474   -1.5734935  0.089773176   -3.1133474    1.5398538   459874 
 3279000    1.0766567   -3.1131836   -1.5716049   0.09245929   -3.1131836    1.5415787   459967 
 3280000    1.0764028   -3.1131857    -1.572205  0.092334433   -3.1131857    1.5409807   460037 
 3281000    1.0760526   -3.1123764   -1.5721549  0.084341289   -3.1123764    1.5402215   460114 
 3282000    1.0744512   -3.1109635    -1.573365  0.092743023   -3.1109635    1.5375985   460213 
 3283000    1.0740479   -3.1097727   -1.5729751  0.086916607   -3.1097727    1.5367976   460280 
 3284000    1.0742493   -3.1082464    -1.571311  0.094664886   -3.1082464    1.5369355   460325 
 3285000    1.0744854   -3.1089243   -1.5718946  0.089386835   -3.1089243    1.5370296   460398 
 3286000    1.0737962   -3.1092853   -1.5733483  0.085487355   -3.1092853    1.5359369   460430 
 3287000    1.0744568   -3.1088012    -1.572143  0.089478233   -3.1088012    1.5366582   460497 
 3288000    1.0741595   -3.1075075   -1.5715513  0.089594564   -3.1075075    1.5359562   460580 
 3289000     1.076798   -3.1088298   -1.5693348  0.084684318   -3.1088298     1.539495   460650 
 3290000    1.0772304   -3.1089215   -1.5691257  0.088524677   -3.1089215    1.5397957   460745 
 3291000    1.0778912    -3.110408   -1.5699753   0.09197952    -3.110408    1.5404327   460837 
 3292000    1.0771429   -3.1098189   -1.5705192   0.08867588   -3.1098189    1.5392997   460856 
 3293000    1.0780926   -3.1110038   -1.5706143   0.08492862   -3.1110038    1.5403895   460936 
 3294000    1.0778163    -3.109801   -1.5699766  0.089902537    -3.109801    1.5398244   460987 
 3295000    1.0788815   -3.1111635   -1.5700947  0.082832101   -3.1111635    1.5410688   461070 
 3296000    1.0782051   -3.1093244   -1.5695223   0.09170794   -3.1093244    1.5398021   461160 
 3297000    1.0788038   -3.1087597   -1.5683866  0.092036055   -3.1087597    1.5403731   461245 
 3298000    1.0793934    -3.110545    -1.569477  0.086546035    -3.110545     1.541068   461289 
 3299000    1.0794233   -3.1109946   -1.5701645  0.089140471   -3.1109946    1.5408301   461373 
 3300000    1.0791199   -3.1091176   -1.5689343   0.09507083   -3.1091176    1.5401833   461437 
 3301000    1.0800291   -3.1105607   -1.5692701  0.094424771   -3.1105607    1.5412906   461494 
 3302000    1.0801481   -3.1117805   -1.5705572    0.0950582   -3.1117805    1.5412233   461565 
 3303000    1.0809798   -3.1133587   -1.5711292  0.086464469   -3.1133587    1.5422295   461619 
 3304000    1.0808761   -3.1122239   -1.5704629  0.090386104   -3.1122239     1.541761   461715 
 3305000    1.0803369   -3.1118653   -1.5712004  0.086900409   -3.1118653    1.5406649   461813 
 3306000    1.0820076   -3.1139173   -1.5710402  0.092901863   -3.1139173    1.5428771   461864 
 3307000    1.0806595   -3.1114538   -1.5707359  0.095710501   -3.1114538    1.5407179   461935 
 3308000    1.0814005   -3.1130176   -1.5713734  0.085608565   -3.1130176    1.5416442   461974 
 3309000    1.0819364   -3.1131237   -1.5709224  0.096523877   -3.1131237    1.5422013   462036 
 3310000    1.0833361    -3.115029      -1.5711  0.093768709    -3.115029     1.543929   462116 
 3311000    1.0825199   -3.1139518   -1.5713763  0.090962785   -3.1139518    1.5425755   462173 
 3312000    1.0823851   -3.1124217   -1.5703052   0.09492761   -3.1124217    1.5421165   462253 
 3313000     1.083083   -3.1130664   -1.5702492  0.087357978   -3.1130664    1.5428172   462341 
 3314000    1.0828289   -3.1120212    -1.569963  0.091608843   -3.1120212    1.5420582   462460 
 3315000    1.0834902   -3.1139123   -1.5710591  0.096599165   -3.1139123    1.5428532   462504 
 3316000    1.0835867   -3.1135986   -1.5707414  0.093916246   -3.1135986    1.5428572   462544 
 3317000    1.0827313   -3.1126164   -1.5711537  0.091264833   -3.1126164    1.5414627   462597 
 3318000    1.0839733   -3.1151962   -1.5721721   0.08720121   -3.1151962    1.5430241   462659 
 3319000     1.084245   -3.1141768   -1.5709561  0.092664007   -3.1141768    1.5432206   462716 
 3320000    1.0834013   -3.1120318   -1.5702118  0.096853282   -3.1120318      1.54182   462776 
 3321000    1.0829604   -3.1118085   -1.5707491  0.096253436   -3.1118085    1.5410593   462816 
 3322000    1.0811698    -3.108666   -1.5703475  0.091511338    -3.108666    1.5383185   462874 
 3323000    1.0827825   -3.1109101   -1.5704002  0.086022651   -3.1109101    1.5405099   462905 
 3324000    1.0823325   -3.1087226   -1.5690791  0.094142662   -3.1087226    1.5396435   462973 
 3325000    1.0834437   -3.1105464   -1.5696018  0.090384601   -3.1105464    1.5409446   463057 
 3326000    1.0850814   -3.1122262   -1.5691689  0.090313651   -3.1122262    1.5430572   463122 
 3327000    1.0845546    -3.109609   -1.5674807  0.094819919    -3.109609    1.5421283   463176 
 3328000    1.0839799   -3.1099436   -1.5688022  0.094169157   -3.1099436    1.5411414   463227 
 3329000    1.0840137    -3.108781   -1.5678278  0.095728507    -3.108781    1.5409532   463298 
 3330000    1.0829944   -3.1066768   -1.5673352  0.092641468   -3.1066768    1.5393416   463347 
 3331000    1.0837216    -3.107653   -1.5674907  0.093727633    -3.107653    1.5401624   463411 
 3332000    1.0843203   -3.1079401   -1.5671596  0.087253348   -3.1079401    1.5407805   463481 
 3333000    1.0837808    -3.105738   -1.5659665  0.096974261    -3.105738    1.5397715   463554 
 3334000    1.0864987   -3.1093597   -1.5659665  0.089653049   -3.1093597    1.5433931   463626 
 3335000    1.0845057   -3.1075174   -1.5671148  0.090048051   -3.1075174    1.5404026   463674 
 3336000    1.0849628   -3.1083011   -1.5674919  0.087661564   -3.1083011    1.5408092   463747 
 3337000    1.0835195   -3.1061994   -1.5676124  0.088236471   -3.1061994     1.538587   463799 
 3338000    1.0858272   -3.1077807   -1.5661362  0.089149709   -3.1077807    1.5416445   463865 
 3339000    1.0835791    -3.106324   -1.5680404  0.093808373    -3.106324    1.5382836   463916 
 3340000    1.0837785   -3.1059464   -1.5674991  0.090668127   -3.1059464    1.5384473   463952 
 3341000    1.0856956   -3.1073792   -1.5664031  0.092491521   -3.1073792     1.540976   464010 
 3342000    1.0861942   -3.1073579   -1.5658901  0.087456418   -3.1073579    1.5414678   464075 
 3343000    1.0868895   -3.1089214   -1.5665932  0.085247107   -3.1089214    1.5423282   464113 
 3344000    1.0862255   -3.1087498      -1.5675  0.087134459   -3.1087498    1.5412498   464154 
 3345000    1.0865328   -3.1093113   -1.5678912  0.085717694   -3.1093113    1.5414201   464234 
 3346000    1.0860803   -3.1078253   -1.5672263   0.08746258   -3.1078253     1.540599   464288 
 3347000    1.0868637   -3.1098325   -1.5683348  0.086674772   -3.1098325    1.5414977   464352 
 3348000    1.0875843   -3.1099812   -1.5676774  0.089165686   -3.1099812    1.5423039   464417 
 3349000    1.0871467   -3.1081906   -1.5666931  0.096090944   -3.1081906    1.5414974   464473 
 3350000    1.0881028   -3.1094596   -1.5669253  0.094509535   -3.1094596    1.5425343   464569 
 3351000    1.0904696   -3.1127599   -1.5671464  0.090678357   -3.1127599    1.5456134   464652 
 3352000    1.0871275   -3.1083845   -1.5675811  0.099745651   -3.1083845    1.5408034   464674 
 3353000    1.0882132   -3.1091881   -1.5669886  0.093853856   -3.1091881    1.5421995   464717 
 3354000     1.089894   -3.1109795   -1.5665908  0.095687447   -3.1109795    1.5443887   464775 
 3355000    1.0899461   -3.1104217   -1.5661784   0.10210871   -3.1104217    1.5442433   464841 
 3356000    1.0902712   -3.1124147   -1.5678869  0.092394077   -3.1124147    1.5445278   464894 
 3357000    1.0909329   -3.1128583   -1.5675394  0.090251336   -3.1128583    1.5453189   464938 
 3358000    1.0915942   -3.1128803   -1.5667842  0.093889138   -3.1128803    1.5460961   464986 
 3359000    1.0915347   -3.1128765   -1.5669112  0.093360234   -3.1128765    1.5459653   465000 
 3360000    1.0900884    -3.111688   -1.5679239   0.09230409    -3.111688    1.5437642   465046 
 3361000    1.0884733   -3.1093568   -1.5680456   0.09371356   -3.1093568    1.5413112   465096 
 3362000    1.0892719    -3.110763   -1.5685234  0.087716515    -3.110763    1.5422397   465157 
 3363000    1.0888695   -3.1104356   -1.5688883   0.09182485   -3.1104356    1.5415473   465194 
 3364000    1.0888298   -3.1098334   -1.5685244   0.09125187   -3.1098334    1.5413089   465249 
 3365000    1.0906615   -3.1120574   -1.5683979  0.089377569   -3.1120574    1.5436595   465322 
 3366000    1.0900776    -3.111821   -1.5691834  0.087570766    -3.111821    1.5426375   465381 
 3367000     1.090206   -3.1119768   -1.5693863  0.095001793   -3.1119768    1.5425905   465450 
 3368000    1.0891968   -3.1107061   -1.5696958  0.094944376   -3.1107061    1.5410102   465496 
 3369000    1.0906682   -3.1119877   -1.5692205  0.088986112   -3.1119877    1.5427672   465594 
 3370000    1.0911763   -3.1123624   -1.5690754  0.085471432   -3.1123624     1.543287   465654 
 3371000    1.0901303   -3.1092426   -1.5677129  0.095139012   -3.1092426    1.5415297   465738 
 3372000    1.0907378   -3.1089241   -1.5667805  0.091377389   -3.1089241    1.5421437   465812 
 3373000    1.0912298   -3.1082604    -1.565696  0.091816205   -3.1082604    1.5425644   465895 
 3374000    1.0910192   -3.1074819   -1.5654933  0.091911859   -3.1074819    1.5419886   465979 
 3375000    1.0913434   -3.1098539   -1.5676983  0.090021709   -3.1098539    1.5421556   466067 
 3376000    1.0915229   -3.1088604   -1.5665703  0.087247449   -3.1088604    1.5422901   466103 
 3377000    1.0933542   -3.1103599   -1.5656877  0.094829802   -3.1103599    1.5446722   466165 
 3378000    1.0921585   -3.1091119    -1.566258  0.088563893   -3.1091119     1.542854   466204 
 3379000    1.0916758   -3.1082136   -1.5663195  0.092326261   -3.1082136    1.5418942   466288 
 3380000    1.0933213   -3.1093422   -1.5653888   0.10074708   -3.1093422    1.5439534   466368 
 3381000    1.0939898   -3.1090509   -1.5643952  0.095107972   -3.1090509    1.5446556   466441 
 3382000    1.0927191   -3.1064542   -1.5638374   0.10042135   -3.1064542    1.5426168   466515 
 3383000    1.0936933   -3.1082689   -1.5644488  0.098105685   -3.1082689      1.54382   466567 
 3384000    1.0937156   -3.1072902   -1.5637464  0.094810588   -3.1072902    1.5435438   466660 
 3385000    1.0927044   -3.1075811   -1.5655668  0.091378284   -3.1075811    1.5420143   466691 
 3386000    1.0945307   -3.1093879   -1.5649585  0.091367294   -3.1093879    1.5444294   466740 
 3387000     1.094192   -3.1090244   -1.5653276  0.095991422   -3.1090244    1.5436968   466817 
 3388000    1.0947374   -3.1095742   -1.5652072   0.09172503   -3.1095742     1.544367   466847 
 3389000    1.0942184   -3.1075102   -1.5640275  0.091038093   -3.1075102    1.5434827   466893 
 3390000    1.0946804   -3.1082909   -1.5642888    0.0951629   -3.1082909    1.5440022   466933 
 3391000    1.0945105   -3.1084816   -1.5648811  0.094432067   -3.1084816    1.5436005   466982 
 3392000    1.0928579   -3.1065082   -1.5654165   0.09477319   -3.1065082    1.5410917   467036 
 3393000    1.0935434   -3.1077728   -1.5658565  0.089611665   -3.1077728    1.5419163   467079 
 3394000    1.0964475   -3.1101624   -1.5644756  0.090541111   -3.1101624    1.5456868   467177 
 3395000    1.0948851   -3.1073325   -1.5640894  0.096716824   -3.1073325    1.5432431   467250 
 3396000    1.0951638   -3.1079605   -1.5644764  0.095843061   -3.1079605    1.5434841   467296 
 3397000    1.0970877   -3.1087582    -1.562867  0.091137878   -3.1087582    1.5458912   467388 
 3398000    1.0975016   -3.1084691   -1.5621667  0.093639446   -3.1084691    1.5463023   467440 
 3399000    1.0959847   -3.1068256   -1.5628487   0.09234628   -3.1068256    1.5439769   467497 
 3400000    1.0975986   -3.1081085    -1.562073  0.096823607   -3.1081085    1.5460355   467562 
 3401000     1.097342   -3.1065391   -1.5610336  0.092701078   -3.1065391    1.5455056   467613 
 3402000    1.0968429   -3.1076824   -1.5630482  0.093642867   -3.1076824    1.5446342   467664 
 3403000    1.0954819   -3.1061158   -1.5635171   0.09764588   -3.1061158    1.5425987   467700 
 3404000     1.098635   -3.1093288   -1.5624885  0.090191632   -3.1093288    1.5468403   467760 
 3405000    1.0978632   -3.1084264   -1.5628445  0.098830941   -3.1084264    1.5455818   467812 
 3406000    1.0976635   -3.1064957   -1.5613436  0.098665758   -3.1064957    1.5451521   467857 
 3407000     1.100327   -3.1077996   -1.5591531  0.097226668   -3.1077996    1.5486465   467934 
 3408000    1.1000704    -3.107519   -1.5593561  0.090776983    -3.107519    1.5481629   467971 
 3409000    1.0993079   -3.1059483   -1.5591196  0.089213326   -3.1059483    1.5468287   468050 
 3410000    1.1004631    -3.106219   -1.5579698   0.09554808    -3.106219    1.5482492   468112 
 3411000    1.0992134    -3.104739   -1.5585354  0.092482336    -3.104739    1.5462036   468199 
 3412000    1.0997062   -3.1055813   -1.5588564   0.09743099   -3.1055813    1.5467249   468251 
 3413000     1.099391   -3.1045174   -1.5584107  0.096731438   -3.1045174    1.5461067   468304 
 3414000     1.098648   -3.1033523   -1.5584951  0.096610054   -3.1033523    1.5448572   468366 
 3415000    1.0997986   -3.1050926   -1.5589048  0.093654923   -3.1050926    1.5461879   468453 
 3416000    1.0997493    -3.104137   -1.5583617   0.09634144    -3.104137    1.5457754   468557 
 3417000    1.1001596   -3.1047764   -1.5585761  0.095571892   -3.1047764    1.5462003   468603 
 3418000    1.0999261   -3.1044103   -1.5587162  0.090051224   -3.1044103     1.545694   468657 
 3419000    1.1014963     -3.10699    -1.559172  0.093270442     -3.10699     1.547818   468682 
 3420000    1.0985813   -3.1031271   -1.5595337  0.089359459   -3.1031271    1.5435934   468721 
 3421000    1.1010389   -3.1059695   -1.5591903  0.091839247   -3.1059695    1.5467792   468802 
 3422000     1.099904   -3.1048368   -1.5598728  0.094287484   -3.1048368     1.544964   468869 
 3423000    1.0993452   -3.1040973   -1.5601289  0.092485773   -3.1040973    1.5439684   468933 
 3424000     1.101601    -3.107981   -1.5610126  0.095214693    -3.107981    1.5469684   468984 
 3425000    1.0990544   -3.1042862   -1.5610552  0.090384577   -3.1042862     1.543231   469033 
 3426000    1.0999126   -3.1049039   -1.5607413  0.095156061   -3.1049039    1.5441627   469116 
 3427000    1.1011277   -3.1073551   -1.5616085   0.08997369   -3.1073551    1.5457466   469153 
 3428000    1.1014747   -3.1083925   -1.5623861  0.090259343   -3.1083925    1.5460064   469222 
 3429000    1.1014028   -3.1067991   -1.5611538  0.097110258   -3.1067991    1.5456452   469301 
 3430000    1.1011213   -3.1069661   -1.5619102  0.097625668   -3.1069661    1.5450559   469360 
 3431000    1.1026672   -3.1088256    -1.561706  0.093225288   -3.1088256    1.5471196   469392 
 3432000    1.1012783   -3.1076123   -1.5626388  0.094097182   -3.1076123    1.5449735   469452 
 3433000    1.1003152   -3.1074333   -1.5639917   0.10050867   -3.1074333    1.5434416   469507 
 3434000    1.1001476   -3.1084346   -1.5653596  0.093619419   -3.1084346     1.543075   469547 
 3435000    1.1018431   -3.1116256   -1.5663832  0.094220664   -3.1116256    1.5452425   469611 
 3436000    1.1021783   -3.1111242   -1.5655203  0.089869907   -3.1111242    1.5456039   469644 
 3437000    1.1021224   -3.1109033    -1.565516  0.095297554   -3.1109033    1.5453873   469686 
 3438000     1.103656   -3.1124954   -1.5651818  0.093421944   -3.1124954    1.5473137   469754 
 3439000    1.1021152   -3.1093649   -1.5644053  0.091646871   -3.1093649    1.5449595   469813 
 3440000    1.1038993   -3.1110653   -1.5637762   0.09959186   -3.1110653    1.5472892   469865 
 3441000    1.1052221   -3.1119794   -1.5630404   0.10409372   -3.1119794     1.548939   469927 
 3442000     1.105438   -3.1130504   -1.5640166  0.093226774   -3.1130504    1.5490338   469990 
 3443000    1.1038945   -3.1102096   -1.5634703  0.097726317   -3.1102096    1.5467393   470030 
 3444000    1.1070835   -3.1147659    -1.563687  0.093232042   -3.1147659    1.5510789   470069 
 3445000     1.105754   -3.1127683   -1.5638453  0.098739836   -3.1127683     1.548923   470158 
 3446000     1.104108   -3.1111785   -1.5647718   0.10138388   -3.1111785    1.5464067   470222 
 3447000    1.1050111   -3.1130122   -1.5655183  0.095018041   -3.1130122    1.5474939   470276 
 3448000    1.1058051   -3.1135027   -1.5650352  0.090489002   -3.1135027    1.5484676   470318 
 3449000    1.1056742   -3.1130173   -1.5649372   0.09721441   -3.1130173    1.5480802   470380 
 3450000    1.1049444   -3.1131831   -1.5663384  0.092262271   -3.1131831    1.5468447   470445 
 3451000    1.1042654    -3.111529     -1.56575    0.1012429    -3.111529    1.5457791   470480 
 3452000     1.104211   -3.1117102   -1.5661813  0.097092835   -3.1117102    1.5455289   470533 
 3453000    1.1052224   -3.1127753   -1.5660117  0.095321295   -3.1127753    1.5467636   470588 
 3454000    1.1031965   -3.1101776   -1.5665346   0.09813938   -3.1101776     1.543643   470675 
 3455000    1.1047095   -3.1115542   -1.5659157   0.08887835   -3.1115542    1.5456385   470712 
 3456000    1.1049808   -3.1117978   -1.5660358  0.091755637   -3.1117978    1.5457621   470790 
 3457000    1.1046521   -3.1105436   -1.5655367  0.096854069   -3.1105436    1.5450068   470880 
 3458000    1.1059795   -3.1128212   -1.5661745  0.097682301   -3.1128212    1.5466466   470946 
 3459000    1.1048586   -3.1118601   -1.5669877  0.092864866   -3.1118601    1.5448724   471009 
 3460000    1.1060094   -3.1117846   -1.5655263  0.094510929   -3.1117846    1.5462583   471077 
 3461000    1.1062832   -3.1112025   -1.5646501  0.095296378   -3.1112025    1.5465524   471104 
 3462000    1.1065576   -3.1114586   -1.5646769  0.094322952   -3.1114586    1.5467817   471151 
 3463000    1.1079827   -3.1124954   -1.5639385  0.094300798   -3.1124954    1.5485569   471217 
 3464000    1.1077671   -3.1120442   -1.5639004  0.094664676   -3.1120442    1.5481439   471251 
 3465000    1.1082997   -3.1125194    -1.563835  0.094756581   -3.1125194    1.5486844   471313 
 3466000    1.1069039   -3.1108136   -1.5641977  0.095078712   -3.1108136    1.5466158   471349 
 3467000    1.1098213   -3.1141726   -1.5635988  0.090361387   -3.1141726    1.5505738   471385 
 3468000     1.106494   -3.1110397   -1.5652425  0.099762172   -3.1110397    1.5457972   471424 
 3469000    1.1074208    -3.111262   -1.5643276  0.097109135    -3.111262    1.5469344   471472 
 3470000    1.1064511   -3.1101335   -1.5647504   0.10262858   -3.1101335    1.5453831   471532 
 3471000    1.1075812   -3.1123326   -1.5655482  0.096830138   -3.1123326    1.5467844   471586 
 3472000    1.1071077   -3.1114408   -1.5654683  0.097129843   -3.1114408    1.5459725   471632 
 3473000    1.1086015   -3.1125033   -1.5646255  0.097010891   -3.1125033    1.5478778   471687 
 3474000    1.1077588   -3.1112475   -1.5648185   0.10242676   -3.1112475    1.5464291   471770 
 3475000    1.1085725   -3.1128916   -1.5655692  0.098497735   -3.1128916    1.5473224   471844 
 3476000    1.1096127   -3.1141579   -1.5655378  0.097393707   -3.1141579      1.54862   471891 
 3477000    1.1089449   -3.1129248   -1.5654762  0.092239406   -3.1129248    1.5474485   471964 
 3478000    1.1098017   -3.1135161   -1.5650752  0.094782103   -3.1135161    1.5484408   472026 
 3479000    1.1092103   -3.1133392   -1.5658581  0.098613636   -3.1133392    1.5474812   472067 
 3480000    1.1105842   -3.1150684   -1.5659231   0.09499345   -3.1150684    1.5491453   472144 
 3481000    1.1085119   -3.1118713   -1.5657705  0.094732188   -3.1118713    1.5461008   472191 
 3482000     1.109429   -3.1125027   -1.5653554  0.096187656   -3.1125027    1.5471473   472262 
 3483000    1.1097561   -3.1123451   -1.5649121  0.098960566   -3.1123451     1.547433   472314 
 3484000    1.1111383   -3.1129195   -1.5638019   0.09788642   -3.1129195    1.5491176   472388 
 3485000    1.1099165   -3.1131015   -1.5658446  0.092265431   -3.1131015    1.5472569   472436 
 3486000     1.110839   -3.1130163   -1.5645881  0.089669508   -3.1130163    1.5484283   472471 
 3487000    1.1098956   -3.1125768    -1.565588  0.096241624   -3.1125768    1.5469888   472509 
 3488000    1.1111089   -3.1132538   -1.5647606  0.097616474   -3.1132538    1.5484931   472566 
 3489000    1.1119023    -3.114153   -1.5646983  0.095852552    -3.114153    1.5494546   472610 
 3490000    1.1109635   -3.1130654   -1.5649813  0.097497785   -3.1130654    1.5480841   472629 
 3491000    1.1123701   -3.1160992   -1.5661304   0.09037278   -3.1160992    1.5499688   472652 
 3492000    1.1112347   -3.1138013   -1.5655588  0.097345573   -3.1138013    1.5482425   472696 
 3493000    1.1116177   -3.1139219   -1.5652441  0.094667238   -3.1139219    1.5486778   472726 
 3494000    1.1107912   -3.1123335   -1.5649871  0.096256942   -3.1123335    1.5473464   472781 
 3495000    1.1112436   -3.1134119   -1.5655171  0.099362905   -3.1134119    1.5478948   472806 
 3496000    1.1110263    -3.113263   -1.5658084  0.093776479    -3.113263    1.5474546   472848 
 3497000    1.1094107   -3.1114331   -1.5664183   0.09352585   -3.1114331    1.5450149   472906 
 3498000    1.1107918   -3.1135363   -1.5667452  0.094931844   -3.1135363     1.546791   472951 
 3499000    1.1093194   -3.1120958   -1.5674465   0.09196514   -3.1120958    1.5446492   472979 
 3500000    1.1091236   -3.1124018   -1.5681721  0.088139164   -3.1124018    1.5442298   473024 
 3501000    1.1103895   -3.1104129   -1.5645972  0.093116902   -3.1104129    1.5458157   473078 
 3502000     1.110332   -3.1113002   -1.5657573  0.091131479   -3.1113002     1.545543   473137 
 3503000    1.1121461   -3.1115485   -1.5637454  0.090359565   -3.1115485    1.5478031   473218 
 3504000    1.1120926    -3.111827   -1.5642421  0.088456455    -3.111827    1.5475848   473262 
 3505000    1.1119919   -3.1115532   -1.5643602  0.095833455   -3.1115532     1.547193   473339 
 3506000    1.1119227   -3.1120175   -1.5651235  0.091056545   -3.1120175    1.5468939   473401 
 3507000    1.1117842    -3.109843   -1.5633573   0.10180193    -3.109843    1.5464857   473467 
 3508000    1.1104317   -3.1091961   -1.5648103   0.09341669   -3.1091961    1.5443858   473534 
 3509000    1.1125515   -3.1134721   -1.5662557  0.092000466   -3.1134721    1.5472165   473570 
 3510000    1.1104127    -3.110729   -1.5666174  0.095504065    -3.110729    1.5441116   473610 
 3511000    1.1132982   -3.1138163   -1.5658066  0.095239014   -3.1138163    1.5480097   473645 
 3512000     1.112822   -3.1117867   -1.5646482  0.094053373   -3.1117867    1.5471385   473709 
 3513000    1.1117532   -3.1118791   -1.5664222   0.10035534   -3.1118791    1.5454569   473769 
 3514000    1.1143448   -3.1137332   -1.5649026  0.098768367   -3.1137332    1.5488306   473839 
 3515000    1.1136614   -3.1123075   -1.5645639   0.10245445   -3.1123075    1.5477436   473881 
 3516000    1.1157616   -3.1137107   -1.5631825   0.10016211   -3.1137107    1.5505282   473922 
 3517000    1.1150941   -3.1138416   -1.5643946  0.096564745   -3.1138416     1.549447   473969 
 3518000    1.1141494    -3.113157   -1.5651304  0.094611055    -3.113157    1.5480265   474002 
 3519000    1.1129115   -3.1111018   -1.5650041  0.095432813   -3.1111018    1.5460977   474066 
 3520000    1.1130428   -3.1116528   -1.5655683   0.10062885   -3.1116528    1.5460845   474126 
 3521000    1.1154635   -3.1142929   -1.5650289  0.094346443   -3.1142929     1.549264   474182 
 3522000    1.1168033   -3.1157957   -1.5648475  0.092572722   -3.1157957    1.5509482   474236 
 3523000     1.115482   -3.1125841   -1.5637093  0.092677922   -3.1125841    1.5488749   474309 
 3524000    1.1136515   -3.1107888   -1.5646513  0.094211062   -3.1107888    1.5461375   474369 
 3525000     1.112542   -3.1100524   -1.5656407  0.096112792   -3.1100524    1.5444116   474426 
 3526000    1.1155259   -3.1129202   -1.5644741  0.090822736   -3.1129202    1.5484461   474459 
 3527000    1.1129051   -3.1093663   -1.5646525  0.088470326   -3.1093663    1.5447138   474488 
 3528000    1.1148713   -3.1116835   -1.5644199   0.09561374   -3.1116835    1.5472636   474543 
 3529000    1.1142251   -3.1107547   -1.5645932  0.095664284   -3.1107547    1.5461615   474606 
 3530000    1.1140279   -3.1124305   -1.5666827  0.089271129   -3.1124305    1.5457478   474649 
 3531000    1.1140906   -3.1111333   -1.5654549  0.097322899   -3.1111333    1.5456784   474697 
 3532000    1.1146221   -3.1122675   -1.5658451   0.09086665   -3.1122675    1.5464224   474695 
 3533000    1.1159619   -3.1124105   -1.5643413  0.091726413   -3.1124105    1.5480692   474760 
 3534000    1.1147842    -3.112398   -1.5660961  0.091101251    -3.112398     1.546302   474801 
 3535000    1.1150547   -3.1132121   -1.5667076  0.096611444   -3.1132121    1.5465046   474854 
 3536000    1.1139785   -3.1112072   -1.5663482  0.093288755   -3.1112072     1.544859   474901 
 3537000    1.1152522   -3.1127898    -1.566311  0.088916779   -3.1127898    1.5464789   474946 
 3538000    1.1141016   -3.1113889   -1.5667462   0.09064908   -3.1113889    1.5446427   475020 
 3539000    1.1139746   -3.1117622   -1.5674224  0.093259282   -3.1117622    1.5443398   475059 
 3540000     1.114896   -3.1123669   -1.5669416  0.093057463   -3.1123669    1.5454253   475118 
 3541000     1.114999   -3.1103348    -1.565053  0.097106376   -3.1103348    1.5452818   475206 
 3542000    1.1165871   -3.1130951    -1.565749   0.08974619   -3.1130951    1.5473461   475248 
 3543000    1.1169371   -3.1136216   -1.5659566  0.098218051   -3.1136216     1.547665   475299 
 3544000    1.1163985   -3.1139211   -1.5671294  0.093097886   -3.1139211    1.5467917   475338 
 3545000    1.1166825   -3.1148314    -1.567796  0.091299058   -3.1148314    1.5470354   475384 
 3546000    1.1162955    -3.114911   -1.5685938  0.090776225    -3.114911    1.5463172   475440 
 3547000    1.1159801   -3.1141198   -1.5683922  0.095054319   -3.1141198    1.5457276   475487 
 3548000    1.1175234   -3.1152031   -1.5675073   0.09524925   -3.1152031    1.5476958   475539 
 3549000    1.1174366   -3.1143105   -1.5669431  0.089353466   -3.1143105    1.5473674   475603 
 3550000    1.1171785   -3.1133844   -1.5665077    0.0966581   -3.1133844    1.5468767   475644 
 3551000    1.1193953   -3.1157012   -1.5660418  0.096346176   -3.1157012    1.5496593   475732 
 3552000    1.1184732   -3.1135856   -1.5654989  0.095036745   -3.1135856    1.5480867   475823 
 3553000    1.1181357   -3.1143402   -1.5669483  0.091773463   -3.1143402    1.5473919   475893 
 3554000      1.11763   -3.1159518   -1.5694904  0.094020465   -3.1159518    1.5464614   475964 
 3555000    1.1185284   -3.1163646   -1.5688097  0.097026302   -3.1163646     1.547555   476010 
 3556000    1.1164863   -3.1125353   -1.5678155  0.091863329   -3.1125353    1.5447198   476013 
 3557000    1.1187654   -3.1145743    -1.566763  0.091127196   -3.1145743    1.5478113   476032 
 3558000    1.1191631   -3.1152829   -1.5672043  0.096995186   -3.1152829    1.5480785   476119 
 3559000    1.1173662     -3.11275   -1.5672738  0.096890536     -3.11275    1.5454761   476155 
 3560000    1.1170919    -3.112489   -1.5675772  0.098420312    -3.112489    1.5449119   476212 
 3561000      1.12017   -3.1160526   -1.5670757  0.092005329   -3.1160526    1.5489769   476271 
 3562000    1.1204276   -3.1152914   -1.5660169   0.08902927   -3.1152914    1.5492746   476289 
 3563000    1.1192914   -3.1142142   -1.5667155  0.096963473   -3.1142142    1.5474988   476352 
 3564000    1.1201552   -3.1152818   -1.5667741  0.094137536   -3.1152818    1.5485078   476409 
 3565000    1.1192468   -3.1132279   -1.5661935  0.092432902   -3.1132279    1.5470344   476476 
 3566000    1.1192379   -3.1141097   -1.5673148  0.089809231   -3.1141097    1.5467949   476546 
 3567000     1.121206   -3.1157244   -1.5665054  0.090547891   -3.1157244    1.5492189   476637 
 3568000    1.1222966   -3.1164728   -1.5659161  0.094970706   -3.1164728    1.5505566   476689 
 3569000    1.1194936   -3.1127264    -1.566198  0.095218063   -3.1127264    1.5465284   476737 
 3570000    1.1209036   -3.1130083   -1.5647204  0.095885634   -3.1130083    1.5482878   476795 
 3571000    1.1209868   -3.1133035   -1.5650891  0.096056653   -3.1133035    1.5482144   476853 
 3572000    1.1201784   -3.1128731   -1.5659179  0.094238825   -3.1128731    1.5469552   476897 
 3573000    1.1194265   -3.1122218   -1.5665092  0.094787845   -3.1122218    1.5457126   476960 
 3574000    1.1214842   -3.1136925   -1.5653821   0.09699576   -3.1136925    1.5483104   477035 
 3575000    1.1208243   -3.1124202   -1.5652089  0.096513408   -3.1124202    1.5472113   477093 
 3576000    1.1226591    -3.113665   -1.5642327  0.094764125    -3.113665    1.5494323   477189 
 3577000    1.1240211   -3.1162194   -1.5651316  0.092882028   -3.1162194    1.5510878   477258 
 3578000    1.1223707   -3.1148886   -1.5662892   0.10429082   -3.1148886    1.5485994   477323 
 3579000    1.1233456   -3.1129406    -1.563194  0.099197618   -3.1129406    1.5497465   477384 
 3580000    1.1228032    -3.112232   -1.5633668  0.098144907    -3.112232    1.5488652   477425 
 3581000    1.1248765   -3.1148137   -1.5632348  0.098799346   -3.1148137    1.5515789   477470 
 3582000    1.1237431   -3.1137281   -1.5638975   0.09292967   -3.1137281    1.5498306   477527 
 3583000     1.122553   -3.1134097   -1.5653598  0.095465075   -3.1134097    1.5480498   477570 
 3584000     1.123306   -3.1145905   -1.5657129  0.099623843   -3.1145905    1.5488775   477635 
 3585000    1.1238234   -3.1139842   -1.5645587  0.095967188   -3.1139842    1.5494255   477686 
 3586000    1.1235275   -3.1131343   -1.5641848  0.096596241   -3.1131343    1.5489494   477707 
 3587000    1.1221279   -3.1138621   -1.5669459   0.09931083   -3.1138621    1.5469162   477739 
 3588000    1.1228107   -3.1132855   -1.5655414  0.094857286   -3.1132855    1.5477441   477774 
 3589000    1.1218559   -3.1118031    -1.565579  0.097359761   -3.1118031    1.5462241   477837 
 3590000     1.122528   -3.1136965   -1.5666238  0.099360178   -3.1136965    1.5470727   477861 
 3591000    1.1236491   -3.1156344   -1.5671851  0.094388148   -3.1156344    1.5484494   477913 
 3592000    1.1239741   -3.1147982   -1.5661764  0.094084865   -3.1147982    1.5486217   477998 
 3593000    1.1249961   -3.1154169   -1.5655199  0.094914184   -3.1154169     1.549897   478039 
 3594000    1.1251481   -3.1154008   -1.5653982  0.093394086   -3.1154008    1.5500026   478071 
 3595000    1.1242732   -3.1148186   -1.5662319   0.09987611   -3.1148186    1.5485867   478136 
 3596000    1.1251494   -3.1157669   -1.5661353  0.092429405   -3.1157669    1.5496316   478186 
 3597000    1.1244798   -3.1147616   -1.5662627  0.094032948   -3.1147616    1.5484989   478251 
 3598000    1.1254905    -3.116289   -1.5666963  0.091482135    -3.116289    1.5495926   478343 
 3599000    1.1252032   -3.1161455   -1.5671588  0.095839568   -3.1161455    1.5489866   478408 
 3600000    1.1247198   -3.1157576   -1.5676242  0.097691312   -3.1157576    1.5481334   478466 
 3601000    1.1237032   -3.1147251   -1.5681784  0.098998042   -3.1147251    1.5465467   478524 
 3602000    1.1235304   -3.1139763   -1.5678807  0.092142603   -3.1139763    1.5460955   478590 
 3603000    1.1236176   -3.1140473   -1.5679351  0.093445482   -3.1140473    1.5461122   478622 
 3604000    1.1236914    -3.114884   -1.5688867  0.092744581    -3.114884    1.5459973   478689 
 3605000    1.1243768    -3.116002    -1.569233  0.089784657    -3.116002     1.546769   478742 
 3606000    1.1252243   -3.1164595   -1.5687541  0.090966253   -3.1164595    1.5477054   478813 
 3607000    1.1257674   -3.1174884    -1.569243    0.0929782   -3.1174884    1.5482454   478877 
 3608000    1.1253227   -3.1169768   -1.5695884  0.095090432   -3.1169768    1.5473883   478953 
 3609000    1.1269385   -3.1184494   -1.5690495  0.093429074   -3.1184494    1.5493999   479018 
 3610000    1.1260525      -3.1171   -1.5691186  0.095118426      -3.1171    1.5479814   479080 
 3611000    1.1287977   -3.1183291   -1.5668945  0.098936111   -3.1183291    1.5514346   479179 
 3612000    1.1286979   -3.1176714    -1.566497   0.09381168   -3.1176714    1.5511745   479217 
 3613000    1.1295625   -3.1184236   -1.5661582  0.096603999   -3.1184236    1.5522654   479247 
 3614000    1.1298606   -3.1181453   -1.5657002  0.098745818   -3.1181453    1.5524452   479318 
 3615000    1.1285451   -3.1181033   -1.5677762  0.098310911   -3.1181033    1.5503271   479414 
 3616000    1.1274136   -3.1167906   -1.5682053  0.098080617   -3.1167906    1.5485853   479472 
 3617000    1.1266935   -3.1147477   -1.5673805  0.099088013   -3.1147477    1.5473671   479543 
 3618000    1.1270058   -3.1159093   -1.5682907  0.099183489   -3.1159093    1.5476186   479598 
 3619000    1.1288555   -3.1189782   -1.5690103  0.092434688   -3.1189782    1.5499679   479657 
 3620000    1.1274919   -3.1174764   -1.5695486  0.097557893   -3.1174764    1.5479278   479709 
 3621000    1.1278986   -3.1171049   -1.5687092  0.099080435   -3.1171049    1.5483957   479737 
 3622000    1.1290992   -3.1190325   -1.5691533    0.0967812   -3.1190325    1.5498792   479788 
 3623000    1.1288539   -3.1178208   -1.5684559  0.095634822   -3.1178208    1.5493649   479843 
 3624000    1.1300668   -3.1178986   -1.5670629   0.10100608   -3.1178986    1.5508357   479903 
 3625000    1.1293496   -3.1167119   -1.5670671  0.098197195   -3.1167119    1.5496448   479967 
 3626000    1.1287754   -3.1155618   -1.5668888  0.099356828   -3.1155618     1.548673   480024 
 3627000    1.1320774   -3.1190602   -1.5660801   0.10041418   -3.1190602    1.5529801   480093 
 3628000     1.131486   -3.1171094   -1.5651119    0.1022359   -3.1171094    1.5519974   480146 
 3629000    1.1319151   -3.1171097    -1.564708  0.099583347   -3.1171097    1.5524017   480203 
 3630000    1.1323848   -3.1172451   -1.5643027    0.1019217   -3.1172451    1.5529424   480235 
 3631000    1.1306188   -3.1141596   -1.5638134  0.096156875   -3.1141596    1.5503462   480289 
 3632000    1.1320868   -3.1165476   -1.5643467  0.095776092   -3.1165476    1.5522009   480338 
 3633000    1.1310796   -3.1149849   -1.5643974  0.097613116   -3.1149849    1.5505875   480410 
 3634000    1.1296321   -3.1138255   -1.5653384  0.093276584   -3.1138255    1.5484871   480446 
 3635000     1.129704   -3.1139685   -1.5655087  0.094090372   -3.1139685    1.5484598   480485 
 3636000    1.1316468   -3.1161085    -1.565176  0.098736584   -3.1161085    1.5509325   480544 
 3637000    1.1298346   -3.1148265   -1.5664551  0.095914139   -3.1148265    1.5483714   480568 
 3638000     1.128422   -3.1118181   -1.5655466   0.09412396   -3.1118181    1.5462715   480619 
 3639000    1.1304445     -3.11279   -1.5639308  0.096905453     -3.11279    1.5488592   480676 
 3640000    1.1305248   -3.1135407   -1.5647552  0.091536261   -3.1135407    1.5487855   480733 
 3641000    1.1306291   -3.1141925   -1.5654187  0.093263097   -3.1141925    1.5487738   480781 
 3642000    1.1306924   -3.1141036   -1.5653043  0.092965413   -3.1141036    1.5487994   480800 
 3643000    1.1311667   -3.1138163    -1.564493   0.09332228   -3.1138163    1.5493233   480839 
 3644000    1.1290124   -3.1107308    -1.564461  0.094066347   -3.1107308    1.5462697   480871 
 3645000     1.132495   -3.1156138   -1.5647743  0.091398066   -3.1156138    1.5508394   480933 
 3646000    1.1299934   -3.1124062   -1.5652402  0.093580743   -3.1124062     1.547166   481010 
 3647000    1.1315962   -3.1146441   -1.5655412  0.096533384   -3.1146441     1.549103   481090 
 3648000    1.1342658   -3.1170811   -1.5645785  0.097884465   -3.1170811    1.5525026   481169 
 3649000    1.1327113    -3.114666    -1.564436  0.097618587    -3.114666      1.55023   481214 
 3650000     1.132698   -3.1149415   -1.5648812  0.098267579   -3.1149415    1.5500603   481261 
 3651000     1.131972   -3.1145299    -1.565579  0.097669658   -3.1145299    1.5489509   481297 
 3652000    1.1339107   -3.1164353   -1.5649314   0.10168654   -3.1164353    1.5515039   481328 
 3653000    1.1350855   -3.1174535   -1.5645423   0.10220419   -3.1174535    1.5529112   481390 
 3654000    1.1333682   -3.1150119    -1.564698  0.099409737   -3.1150119    1.5503139   481467 
 3655000    1.1351332   -3.1177847   -1.5653242  0.095839961   -3.1177847    1.5524605   481550 
 3656000     1.134454    -3.115628   -1.5643058  0.098255091    -3.115628    1.5513222   481615 
 3657000    1.1362787   -3.1192887   -1.5656164  0.095864602   -3.1192887    1.5536723   481660 
 3658000    1.1343391   -3.1176474   -1.5667851    0.1007756   -3.1176474    1.5508624   481709 
 3659000    1.1350557   -3.1185754   -1.5668912  0.096054207   -3.1185754    1.5516843   481758 
 3660000    1.1345603   -3.1178106   -1.5670481   0.09979695   -3.1178106    1.5507625   481834 
 3661000    1.1357846   -3.1190683   -1.5667582   0.10025341   -3.1190683    1.5523102   481873 
 3662000    1.1350505   -3.1181787   -1.5670907  0.094502442   -3.1181787     1.551088   481941 
 3663000    1.1359711    -3.118586   -1.5664751  0.095945512    -3.118586    1.5521109   482014 
 3664000    1.1356936   -3.1175646   -1.5659455   0.09596165   -3.1175646    1.5516192   482049 
 3665000    1.1361269   -3.1186066   -1.5665306  0.089340814   -3.1186066    1.5520759   482091 
 3666000    1.1357459   -3.1181761   -1.5668557  0.094596308   -3.1181761    1.5513204   482164 
 3667000     1.134282   -3.1166149   -1.5675703  0.098613574   -3.1166149    1.5490447   482250 
 3668000    1.1338048    -3.115039   -1.5669221  0.096561712    -3.115039    1.5481169   482336 
 3669000    1.1367331   -3.1193602    -1.567496  0.091704208   -3.1193602    1.5518643   482414 
 3670000    1.1347538   -3.1172677    -1.568189  0.094642952   -3.1172677    1.5490787   482440 
 3671000    1.1334549   -3.1143179   -1.5671247  0.096770546   -3.1143179    1.5471932   482475 
 3672000    1.1359693   -3.1171584   -1.5668928  0.094260542   -3.1171584    1.5502656   482587 
 3673000    1.1361293    -3.117404      -1.5671  0.098485941    -3.117404     1.550304   482643 
 3674000    1.1358918   -3.1169252   -1.5670479  0.090800784   -3.1169252    1.5498772   482675 
 3675000    1.1344614   -3.1161535    -1.568321  0.092757985   -3.1161535    1.5478325   482704 
 3676000    1.1370611   -3.1171595   -1.5660082  0.094922547   -3.1171595    1.5511513   482775 
 3677000    1.1360709   -3.1158466   -1.5662869  0.093190419   -3.1158466    1.5495597   482850 
 3678000    1.1363938   -3.1162441   -1.5663435  0.099504519   -3.1162441    1.5499006   482881 
 3679000    1.1362668   -3.1152066   -1.5656395   0.09805453   -3.1152066    1.5495671   482931 
 3680000    1.1370159   -3.1166241   -1.5661767   0.09471327   -3.1166241    1.5504474   482975 
 3681000     1.136665   -3.1156738    -1.565936  0.090351739   -3.1156738    1.5497378   483047 
 3682000    1.1386434    -3.116769   -1.5646488  0.094672591    -3.116769    1.5521202   483145 
 3683000    1.1390514   -3.1179666   -1.5654572  0.098107573   -3.1179666    1.5525094   483197 
 3684000    1.1384847   -3.1164692   -1.5650245  0.098990445   -3.1164692    1.5514447   483288 
 3685000    1.1372236   -3.1147547   -1.5652722  0.098606282   -3.1147547    1.5494825   483364 
 3686000    1.1379955   -3.1166295   -1.5662492  0.094819612   -3.1166295    1.5503803   483412 
 3687000    1.1366803    -3.115374   -1.5669553  0.095971247    -3.115374    1.5484188   483465 
 3688000    1.1385999   -3.1174801   -1.5666935   0.09648167   -3.1174801    1.5507866   483542 
 3689000     1.138875    -3.117183   -1.5661852  0.094551055    -3.117183    1.5509978   483593 
 3690000    1.1401097   -3.1195456    -1.567075  0.093925095   -3.1195456    1.5524706   483658 
 3691000    1.1401429   -3.1198727   -1.5675204   0.09250983   -3.1198727    1.5523522   483709 
 3692000    1.1404671    -3.119174    -1.566512  0.098527273    -3.119174     1.552662   483750 
 3693000    1.1385672   -3.1172782   -1.5674079  0.097200401   -3.1172782    1.5498703   483814 
 3694000    1.1396868   -3.1170555   -1.5658503  0.093934322   -3.1170555    1.5512052   483873 
 3695000    1.1408996   -3.1176251   -1.5650097   0.10069164   -3.1176251    1.5526153   483948 
 3696000    1.1417663     -3.11774   -1.5641379   0.10362328     -3.11774    1.5536021   484008 
 3697000    1.1407407   -3.1175128   -1.5654538   0.10141642   -3.1175128    1.5520591   484054 
 3698000    1.1424076   -3.1177744   -1.5636657  0.099293484   -3.1177744    1.5541088   484122 
 3699000    1.1404791   -3.1154061   -1.5640747   0.09880325   -3.1154061    1.5513314   484170 
 3700000    1.1410018    -3.116485   -1.5646061    0.1032487    -3.116485    1.5518789   484221 
 3701000    1.1410442   -3.1164868   -1.5647297  0.099706856   -3.1164868    1.5517571   484277 
 3702000    1.1425665   -3.1169485    -1.563275  0.099805447   -3.1169485    1.5536735   484325 
 3703000    1.1412699   -3.1156061   -1.5638111  0.099685615   -3.1156061    1.5517949   484361 
 3704000    1.1414622    -3.117375   -1.5653987  0.096635398    -3.117375    1.5519763   484386 
 3705000    1.1413221   -3.1165958   -1.5649157  0.098617484   -3.1165958    1.5516801   484419 
 3706000     1.140964   -3.1160762   -1.5650719  0.095920923   -3.1160762    1.5510043   484478 
 3707000     1.141601    -3.114557   -1.5628949  0.098559594    -3.114557    1.5516621   484543 
 3708000    1.1423969   -3.1164189   -1.5638448  0.095547619   -3.1164189    1.5525741   484596 
 3709000    1.1416879   -3.1158774   -1.5643566  0.092943102   -3.1158774    1.5515208   484624 
 3710000    1.1406926   -3.1151079   -1.5651028  0.097588634   -3.1151079    1.5500052   484675 
 3711000    1.1399868   -3.1142913   -1.5654976  0.093900742   -3.1142913    1.5487936   484754 
 3712000    1.1406467   -3.1160869   -1.5665822  0.094911359   -3.1160869    1.5495047   484812 
 3713000    1.1390432    -3.114071     -1.56692  0.089515323    -3.114071     1.547151   484867 
 3714000    1.1412755   -3.1163231   -1.5663031  0.093319565   -3.1163231      1.55002   484918 
 3715000    1.1410315   -3.1163463   -1.5667982  0.092617636   -3.1163463     1.549548   484962 
 3716000    1.1411778   -3.1158126   -1.5662736  0.094195245   -3.1158126     1.549539   485027 
 3717000    1.1413011   -3.1145522   -1.5651363  0.093870281   -3.1145522    1.5494159   485118 
 3718000    1.1422718   -3.1154592   -1.5648438  0.094768021   -3.1154592    1.5506154   485155 
 3719000    1.1413432   -3.1146816   -1.5655727  0.099440265   -3.1146816    1.5491089   485232 
 3720000    1.1419535   -3.1157535   -1.5659344  0.095859678   -3.1157535    1.5498191   485269 
 3721000    1.1420321   -3.1153164   -1.5655886  0.096168627   -3.1153164    1.5497278   485331 
 3722000    1.1436192   -3.1172703    -1.565472   0.09105297   -3.1172703    1.5517983   485357 
 3723000    1.1424766   -3.1164726   -1.5663461   0.10226945   -3.1164726    1.5501265   485395 
 3724000    1.1444592   -3.1185776   -1.5660489  0.098939543   -3.1185776    1.5525287   485485 
 3725000    1.1442759   -3.1189693     -1.56683  0.098179698   -3.1189693    1.5521393   485529 
 3726000    1.1437794   -3.1191008   -1.5677437  0.094141216   -3.1191008    1.5513572   485563 
 3727000    1.1431037   -3.1181679   -1.5679219    0.1008392   -3.1181679     1.550246   485624 
 3728000    1.1448366   -3.1198015   -1.5673365   0.10086293   -3.1198015    1.5524651   485665 
 3729000    1.1460034   -3.1215041   -1.5675849  0.098113219   -3.1215041    1.5539193   485705 
 3730000    1.1461841    -3.120915    -1.566917  0.098906039    -3.120915     1.553998   485757 
 3731000    1.1467945   -3.1209246    -1.566387  0.095087117   -3.1209246    1.5545376   485847 
 3732000    1.1457909   -3.1198197   -1.5668088   0.09413833   -3.1198197    1.5530109   485899 
 3733000    1.1466177   -3.1212677   -1.5672737  0.096462065   -3.1212677     1.553994   485942 
 3734000    1.1453943   -3.1193541   -1.5671683   0.10973737   -3.1193541    1.5521858   485989 
 3735000    1.1473904   -3.1211186   -1.5664773  0.096707424   -3.1211186    1.5546413   486067 
 3736000    1.1464432   -3.1217002   -1.5684094  0.095942605   -3.1217002    1.5532908   486088 
 3737000    1.1458237   -3.1207145    -1.568279  0.097016124   -3.1207145    1.5524355   486093 
 3738000    1.1479495   -3.1224217   -1.5672787  0.098562539   -3.1224217     1.555143   486147 
 3739000    1.1448252   -3.1194677   -1.5687296  0.097713672   -3.1194677    1.5507381   486201 
 3740000    1.1466365   -3.1218789    -1.568831  0.096100565   -3.1218789    1.5530479   486246 
 3741000    1.1460486   -3.1207025   -1.5685147  0.098345909   -3.1207025    1.5521878   486266 
 3742000    1.1464678   -3.1206046   -1.5680662  0.096268648   -3.1206046    1.5525384   486334 
 3743000    1.1455937   -3.1185829   -1.5675184   0.10094517   -3.1185829    1.5510645   486425 
 3744000    1.1470207   -3.1216022     -1.56881  0.094517491   -3.1216022    1.5527922   486489 
 3745000    1.1456313   -3.1199281    -1.569122  0.095229229   -3.1199281    1.5508061   486522 
 3746000    1.1464691    -3.121667   -1.5699786  0.096228799    -3.121667    1.5516884   486601 
 3747000    1.1456977   -3.1189324   -1.5684316  0.096707377   -3.1189324    1.5505009   486646 
 3748000    1.1449118   -3.1179137   -1.5685973   0.09807313   -3.1179137    1.5493164   486684 
 3749000    1.1482503   -3.1203189   -1.5666763  0.096975578   -3.1203189    1.5536426   486744 
 3750000    1.1462156   -3.1183117   -1.5675465  0.097064578   -3.1183117    1.5507652   486783 
 3751000     1.146238   -3.1198912     -1.56922  0.092926636   -3.1198912    1.5506712   486822 
 3752000     1.146888   -3.1206718   -1.5692423  0.090603942   -3.1206718    1.5514295   486860 
 3753000    1.1471501    -3.122354   -1.5706686  0.087518337    -3.122354    1.5516853   486891 
 3754000    1.1455111   -3.1198602   -1.5706466  0.090371136   -3.1198602    1.5492137   486971 
 3755000     1.145179   -3.1175026   -1.5689733  0.094540696   -3.1175026    1.5485293   487045 
 3756000    1.1482182   -3.1206476   -1.5681649  0.089617731   -3.1206476    1.5524827   487094 
 3757000    1.1457254   -3.1178813   -1.5688931  0.091148428   -3.1178813    1.5489882   487133 
 3758000    1.1466596   -3.1181585   -1.5680091   0.09638229   -3.1181585    1.5501494   487165 
 3759000    1.1485522   -3.1207317   -1.5681735   0.09350599   -3.1207317    1.5525582   487212 
 3760000    1.1479297   -3.1194422    -1.567856  0.094404579   -3.1194422    1.5515862   487253 
 3761000    1.1478024   -3.1186935   -1.5674385  0.098493703   -3.1186935    1.5512549   487303 
 3762000    1.1499496   -3.1212748   -1.5672551  0.092476578   -3.1212748    1.5540197   487346 
 3763000    1.1490339   -3.1194237   -1.5667371  0.095118128   -3.1194237    1.5526866   487376 
 3764000    1.1483238    -3.119302    -1.567769  0.097434045    -3.119302     1.551533   487437 
 3765000    1.1482945   -3.1197191   -1.5684485  0.097601085   -3.1197191    1.5512706   487507 
 3766000    1.1484567    -3.119747   -1.5684354  0.096556235    -3.119747    1.5513115   487563 
 3767000    1.1481868   -3.1189279   -1.5681718  0.094150543   -3.1189279    1.5507561   487623 
 3768000     1.148917   -3.1201409    -1.568564  0.094038132   -3.1201409    1.5515768   487675 
 3769000    1.1498572   -3.1203307   -1.5676147  0.097658651   -3.1203307     1.552716   487716 
 3770000    1.1492876   -3.1193615   -1.5675961   0.10064514   -3.1193615    1.5517654   487773 
 3771000    1.1498597   -3.1208206   -1.5684481  0.098777253   -3.1208206    1.5523724   487825 
 3772000    1.1504246   -3.1210269   -1.5680605  0.093921798   -3.1210269    1.5529664   487878 
 3773000    1.1491375   -3.1188945   -1.5678118  0.096357196   -3.1188945    1.5510827   487924 
 3774000    1.1503544   -3.1197739   -1.5671824   0.10050835   -3.1197739    1.5525915   487966 
 3775000    1.1516738   -3.1210063   -1.5668092  0.097483378   -3.1210063    1.5541971   488021 
 3776000     1.152345   -3.1230176   -1.5681505   0.09717575   -3.1230176    1.5548672   488095 
 3777000    1.1516134   -3.1220524   -1.5683539  0.097179463   -3.1220524    1.5536986   488152 
 3778000    1.1520343   -3.1218177    -1.567634  0.099898342   -3.1218177    1.5541836   488178 
 3779000     1.152987   -3.1225222   -1.5672189  0.094198203   -3.1225222    1.5553033   488230 
 3780000    1.1533809    -3.122529   -1.5668632  0.097662056    -3.122529    1.5556658   488283 
 3781000    1.1523326   -3.1211032   -1.5670105  0.093938706   -3.1211032    1.5540927   488333 
 3782000    1.1510421   -3.1203727   -1.5681254   0.10112734   -3.1203727    1.5522474   488366 
 3783000     1.150824   -3.1200456   -1.5683115  0.096635662   -3.1200456     1.551734   488435 
 3784000    1.1507138   -3.1207648   -1.5694335   0.10020815   -3.1207648    1.5513313   488515 
 3785000    1.1512089    -3.121699   -1.5698845  0.094721064    -3.121699    1.5518145   488573 
 3786000     1.151949   -3.1223032   -1.5696499  0.092559269   -3.1223032    1.5526533   488623 
 3787000    1.1495796   -3.1195339   -1.5701947  0.095829321   -3.1195339    1.5493391   488661 
 3788000    1.1495341   -3.1192907   -1.5701016  0.097045812   -3.1192907    1.5491891   488689 
 3789000    1.1485116    -3.117801   -1.5701039   0.10142367    -3.117801    1.5476971   488725 
 3790000    1.1495248   -3.1188239   -1.5698503   0.10137742   -3.1188239    1.5489736   488753 
 3791000    1.1513666   -3.1209177   -1.5696303  0.091095743   -3.1209177    1.5512873   488806 
 3792000    1.1515681   -3.1207556   -1.5692636  0.098126334   -3.1207556    1.5514921   488827 
 3793000     1.151664   -3.1216017   -1.5702659  0.095701174   -3.1216017    1.5513357   488917 
 3794000    1.1521353   -3.1215703   -1.5698663   0.09723841   -3.1215703    1.5517039   489001 
 3795000    1.1530396   -3.1206782   -1.5679374  0.091266079   -3.1206782    1.5527408   489058 
 3796000    1.1535928   -3.1209349   -1.5675762    0.1002608   -3.1209349    1.5533587   489098 
 3797000    1.1528134   -3.1200079   -1.5678001  0.091284064   -3.1200079    1.5522078   489130 
 3798000    1.1544695   -3.1206983   -1.5664164  0.098629491   -3.1206983    1.5542819   489179 
 3799000      1.15344    -3.118617   -1.5658004  0.091867632    -3.118617    1.5528166   489204 
 3800000    1.1545128   -3.1212544   -1.5672159  0.093777964   -3.1212544    1.5540384   489274 
 3801000    1.1537745   -3.1202083   -1.5672685    0.0915544   -3.1202083    1.5529398   489307 
 3802000    1.1535969   -3.1193035    -1.566755     0.096347   -3.1193035    1.5525485   489355 
 3803000    1.1564611   -3.1224055   -1.5660944  0.099113373   -3.1224055    1.5563111   489384 
 3804000    1.1546665   -3.1204757   -1.5668083    0.1001243   -3.1204757    1.5536674   489456 
 3805000    1.1555632   -3.1214947   -1.5668558   0.10025312   -3.1214947    1.5546389   489530 
 3806000    1.1558556   -3.1213104   -1.5664751   0.10130392   -3.1213104    1.5548353   489592 
 3807000    1.1560647   -3.1222404   -1.5673302   0.10011506   -3.1222404    1.5549102   489657 
 3808000    1.1550354   -3.1196181   -1.5662193  0.097962964   -3.1196181    1.5533988   489697 
 3809000    1.1561846   -3.1204696   -1.5656999  0.096689848   -3.1204696    1.5547697   489752 
 3810000    1.1562739   -3.1204456   -1.5656987   0.10185987   -3.1204456     1.554747   489797 
 3811000    1.1570328   -3.1206065   -1.5650233   0.10376986   -3.1206065    1.5555832   489855 
 3812000    1.1564477   -3.1210437   -1.5665073    0.0979858   -3.1210437    1.5545364   489937 
 3813000    1.1575637   -3.1228645     -1.56699  0.096240682   -3.1228645    1.5558745   489988 
 3814000    1.1566244   -3.1212663   -1.5668859   0.10045007   -3.1212663    1.5543805   490061 
 3815000    1.1558593   -3.1207953   -1.5676744  0.096900536   -3.1207953    1.5531209   490134 
 3816000    1.1572584   -3.1215074      -1.5667  0.097853534   -3.1215074    1.5548074   490195 
 3817000    1.1569453   -3.1205309   -1.5662837   0.10272727   -3.1205309    1.5542472   490239 
 3818000    1.1566087   -3.1200999   -1.5665077  0.098426532   -3.1200999    1.5535922   490303 
 3819000    1.1582923   -3.1210233   -1.5653092   0.10191213   -3.1210233    1.5557141   490347 
 3820000    1.1566733   -3.1212334   -1.5678269  0.098164921   -3.1212334    1.5534065   490389 
 3821000    1.1586072   -3.1236291   -1.5678189   0.09486307   -3.1236291    1.5558102   490450 
 3822000    1.1576743   -3.1238102    -1.569332   0.10301522   -3.1238102    1.5544782   490475 
 3823000    1.1575796    -3.121633   -1.5673833  0.096276849    -3.121633    1.5542496   490507 
 3824000    1.1569874    -3.121139   -1.5678649   0.10026006    -3.121139    1.5532741   490564 
 3825000    1.1566823   -3.1209944   -1.5682913  0.099309498   -3.1209944    1.5527031   490615 
 3826000    1.1570511   -3.1198546   -1.5668717  0.091799654   -3.1198546    1.5529829   490683 
 3827000    1.1588928   -3.1234345   -1.5681446  0.091131687   -3.1234345    1.5552899   490735 
 3828000    1.1568666   -3.1210719   -1.5686245   0.10092344   -3.1210719    1.5524474   490774 
 3829000    1.1584127   -3.1231698   -1.5688346  0.093660145   -3.1231698    1.5543352   490833 
 3830000     1.158288   -3.1211434   -1.5671654  0.097434771   -3.1211434     1.553978   490893 
 3831000    1.1579857   -3.1209503   -1.5676596  0.098479241   -3.1209503    1.5532907   490982 
 3832000    1.1590929   -3.1226294   -1.5680466  0.096325264   -3.1226294    1.5545828   491043 
 3833000    1.1583209   -3.1217376    -1.568399  0.098560086   -3.1217376    1.5533386   491109 
 3834000    1.1590748    -3.123187   -1.5691064  0.093028061    -3.123187    1.5540806   491194 
 3835000    1.1575984   -3.1201962   -1.5682057  0.098729406   -3.1201962    1.5519905   491229 
 3836000    1.1590396   -3.1222055   -1.5684125  0.091393741   -3.1222055     1.553793   491270 
 3837000    1.1580564     -3.12054   -1.5682388  0.093475336     -3.12054    1.5523012   491325 
 3838000     1.160193   -3.1231343   -1.5680325  0.097242121   -3.1231343    1.5551018   491345 
 3839000     1.158756   -3.1221914   -1.5690979  0.097072712   -3.1221914    1.5530936   491371 
 3840000    1.1600084   -3.1242843   -1.5696102  0.098718003   -3.1242843    1.5546741   491402 
 3841000    1.1605776   -3.1238527   -1.5685645  0.098581022   -3.1238527    1.5552881   491449 
 3842000    1.1585334   -3.1214374    -1.568993  0.099940898   -3.1214374    1.5524444   491482 
 3843000    1.1590819   -3.1235037   -1.5704507  0.094599059   -3.1235037     1.553053   491522 
 3844000    1.1606714   -3.1249738   -1.5699903  0.095949776   -3.1249738    1.5549835   491585 
 3845000    1.1592585   -3.1231733   -1.5701365  0.099104965   -3.1231733    1.5530369   491602 
 3846000    1.1594428   -3.1222769   -1.5691699  0.099891343   -3.1222769     1.553107   491658 
 3847000    1.1603961   -3.1248431   -1.5706489  0.094614878   -3.1248431    1.5541942   491718 
 3848000    1.1598164   -3.1248159   -1.5715749  0.097104696   -3.1248159    1.5532409   491774 
 3849000    1.1606037   -3.1251637   -1.5710549   0.10164561   -3.1251637    1.5541088   491833 
 3850000    1.1610491   -3.1249611   -1.5704424  0.094132285   -3.1249611    1.5545187   491892 
 3851000     1.159271   -3.1245815    -1.572513  0.096422588   -3.1245815    1.5520686   491914 
 3852000    1.1600248   -3.1257353   -1.5728122  0.096566232   -3.1257353    1.5529231   491963 
 3853000    1.1595202   -3.1248399   -1.5727027  0.096397937   -3.1248399    1.5521373   491998 
 3854000    1.1597028   -3.1242747   -1.5719751   0.10185997   -3.1242747    1.5522996   492024 
 3855000    1.1612529   -3.1273545   -1.5731696  0.096303271   -3.1273545    1.5541849   492084 
 3856000    1.1611447   -3.1268557   -1.5730429  0.097874876   -3.1268557    1.5538128   492156 
 3857000    1.1621489   -3.1285729   -1.5735553   0.10031043   -3.1285729    1.5550176   492200 
 3858000     1.161274   -3.1271867   -1.5735986  0.099472777   -3.1271867    1.5535881   492282 
 3859000    1.1610321   -3.1258844    -1.572765  0.094422128   -3.1258844    1.5531194   492328 
 3860000     1.161557   -3.1266123    -1.572835  0.098853261   -3.1266123    1.5537773   492342 
 3861000    1.1628946   -3.1271151   -1.5717348   0.10139851   -3.1271151    1.5553802   492401 
 3862000    1.1614173   -3.1246804    -1.571437   0.10010342   -3.1246804    1.5532434   492452 
 3863000     1.163229   -3.1271319   -1.5715541   0.10020379   -3.1271319    1.5555778   492480 
 3864000    1.1630782   -3.1272976   -1.5720856  0.096706691   -3.1272976     1.555212   492532 
 3865000    1.1633749   -3.1268776   -1.5714142   0.10171417   -3.1268776    1.5554634   492578 
 3866000    1.1617671   -3.1257033   -1.5724904  0.096736096   -3.1257033    1.5532129   492610 
 3867000    1.1617265   -3.1254863   -1.5724854  0.098094368   -3.1254863    1.5530009   492660 
 3868000    1.1618577   -3.1258385   -1.5727662  0.097215843   -3.1258385    1.5530723   492693 
 3869000    1.1613446   -3.1264065   -1.5741114  0.091032321   -3.1264065    1.5522951   492722 
 3870000     1.159012   -3.1234318   -1.5744369  0.095690195   -3.1234318    1.5489949   492780 
 3871000    1.1604604   -3.1255326   -1.5748128  0.093144809   -3.1255326    1.5507198   492847 
 3872000    1.1620459   -3.1251493   -1.5724494  0.099021481   -3.1251493    1.5526998   492891 
 3873000    1.1611617   -3.1238531   -1.5724385  0.097414985   -3.1238531    1.5514145   492924 
 3874000    1.1621635   -3.1255392   -1.5729247  0.094463166   -3.1255392    1.5526145   492968 
 3875000    1.1628064     -3.12527   -1.5719762     0.094503     -3.12527    1.5532938   493025 
 3876000    1.1611288   -3.1237578   -1.5728874  0.096418659   -3.1237578    1.5508704   493083 
 3877000    1.1617018   -3.1253188   -1.5739379  0.087318677   -3.1253188    1.5513809   493164 
 3878000    1.1613864   -3.1253613    -1.574606  0.090901484   -3.1253613    1.5507553   493229 
 3879000    1.1620625   -3.1250009   -1.5735159  0.095070136   -3.1250009     1.551485   493284 
 3880000     1.162562   -3.1260254   -1.5739742  0.098139223   -3.1260254    1.5520512   493316 
 3881000    1.1617085    -3.123463   -1.5726423  0.094896626    -3.123463    1.5508207   493345 
 3882000    1.1635529   -3.1250209    -1.571949  0.099905303   -3.1250209    1.5530719   493412 
 3883000    1.1642986   -3.1264915   -1.5725597  0.097531913   -3.1264915    1.5539318   493455 
 3884000    1.1641711   -3.1261014   -1.5725287   0.09779942   -3.1261014    1.5535727   493515 
 3885000    1.1653548    -3.125285   -1.5703564  0.099218722    -3.125285    1.5549287   493586 
 3886000    1.1640795   -3.1253281   -1.5722993  0.098953843   -3.1253281    1.5530289   493649 
 3887000    1.1641265   -3.1254217   -1.5725033   0.10069043   -3.1254217    1.5529184   493704 
 3888000    1.1640989   -3.1246483   -1.5718798  0.098711241   -3.1246483    1.5527684   493740 
 3889000    1.1652026    -3.126137   -1.5720317  0.094020525    -3.126137    1.5541053   493783 
 3890000    1.1651938    -3.126622   -1.5726952   0.10165494    -3.126622    1.5539267   493836 
 3891000    1.1662913   -3.1283513   -1.5731687  0.093442297   -3.1283513    1.5551826   493902 
 3892000    1.1657602   -3.1280643   -1.5737378  0.098011653   -3.1280643    1.5543265   493949 
 3893000    1.1634898   -3.1260415   -1.5749651  0.098778312   -3.1260415    1.5510764   494020 
 3894000    1.1645668   -3.1278639   -1.5754994  0.094383545   -3.1278639    1.5523645   494067 
 3895000    1.1650687   -3.1278114   -1.5749256  0.090924945   -3.1278114    1.5528858   494114 
 3896000    1.1634078   -3.1259381   -1.5754388   0.09976908   -3.1259381    1.5504994   494169 
 3897000    1.1647866   -3.1273958   -1.5751813  0.095911128   -3.1273958    1.5522145   494208 
 3898000    1.1656796   -3.1287339   -1.5754582   0.10038487   -3.1287339    1.5532757   494249 
 3899000    1.1670292   -3.1299388   -1.5749593    0.1007963   -3.1299388    1.5549795   494279 
 3900000     1.166813   -3.1306367   -1.5761433  0.099155345   -3.1306367    1.5544934   494342 
 3901000    1.1666244   -3.1303097   -1.5762091  0.099619919   -3.1303097    1.5541006   494387 
 3902000     1.166813   -3.1309968     -1.57678  0.099490271   -3.1309968    1.5542168   494430 
 3903000    1.1661745   -3.1288522   -1.5756493  0.099750958   -3.1288522    1.5532029   494482 
 3904000    1.1677586   -3.1298829   -1.5747149   0.10085305   -3.1298829    1.5551681   494528 
 3905000    1.1673549   -3.1317217   -1.5772171   0.10052257   -3.1317217    1.5545047   494568 
 3906000    1.1661966   -3.1296221   -1.5768043  0.096667371   -3.1296221    1.5528178   494614 
 3907000    1.1677261   -3.1317025   -1.5769958  0.097026684   -3.1317025    1.5547067   494661 
 3908000    1.1673507   -3.1316168   -1.5775482  0.096830608   -3.1316168    1.5540686   494705 
 3909000    1.1680193    -3.131784   -1.5770516  0.099279051    -3.131784    1.5547324   494777 
 3910000    1.1684668   -3.1317402   -1.5765693  0.096906337   -3.1317402    1.5551708   494827 
 3911000    1.1697163   -3.1337834   -1.5770817   0.09667509   -3.1337834    1.5567017   494869 
 3912000    1.1678091    -3.130666   -1.5766281   0.10334181    -3.130666    1.5540379   494909 
 3913000    1.1692749    -3.131945   -1.5761639   0.10153313    -3.131945    1.5557811   494975 
 3914000    1.1693029   -3.1322015     -1.57649  0.097054894   -3.1322015    1.5557115   495009 
 3915000    1.1680385   -3.1311919   -1.5772819   0.10218632   -3.1311919    1.5539099   495047 
 3916000    1.1698874   -3.1330933   -1.5768714  0.094781089   -3.1330933     1.556222   495094 
 3917000    1.1700421   -3.1326414   -1.5763583  0.097570794   -3.1326414    1.5562831   495140 
 3918000    1.1697193   -3.1322482   -1.5765892   0.10308054   -3.1322482     1.555659   495202 
 3919000    1.1709284   -3.1334718   -1.5763902    0.1011406   -3.1334718    1.5570815   495261 
 3920000    1.1680425   -3.1304365   -1.5773557  0.094998401   -3.1304365    1.5530808   495313 
 3921000    1.1704029   -3.1331536   -1.5771447  0.094064668   -3.1331536    1.5560089   495380 
 3922000    1.1702109   -3.1315299   -1.5759616    0.1005311   -3.1315299    1.5555683   495439 
 3923000    1.1698096   -3.1316308   -1.5767278   0.10334721   -3.1316308     1.554903   495481 
 3924000    1.1703356   -3.1314431   -1.5760167   0.09846114   -3.1314431    1.5554264   495537 
 3925000    1.1689245   -3.1294954   -1.5761136   0.10140525   -3.1294954    1.5533817   495591 
 3926000    1.1686629   -3.1294382   -1.5766204   0.10617468   -3.1294382    1.5528178   495660 
 3927000    1.1703609   -3.1303381   -1.5754115   0.10020266   -3.1303381    1.5549266   495707 
 3928000    1.1692021   -3.1276621   -1.5744537  0.098919201   -3.1276621    1.5532084   495764 
 3929000    1.1712639   -3.1294202   -1.5736423    0.1008738   -3.1294202     1.555778   495818 
 3930000    1.1702827   -3.1290828   -1.5747681  0.097514817   -3.1290828    1.5543147   495869 
 3931000    1.1731859   -3.1311773   -1.5731449  0.096893343   -3.1311773    1.5580324   495913 
 3932000    1.1721004   -3.1304967   -1.5740221  0.099201439   -3.1304967    1.5564746   495950 
 3933000    1.1710051   -3.1290825   -1.5741563   0.10186229   -3.1290825    1.5549261   495980 
 3934000    1.1711141   -3.1294687    -1.574495   0.10314407   -3.1294687    1.5549737   496011 
 3935000    1.1715026   -3.1294038   -1.5740242   0.10361075   -3.1294038    1.5553797   496046 
 3936000    1.1720446   -3.1289419   -1.5730872   0.10063977   -3.1289419    1.5558548   496124 
 3937000    1.1742626   -3.1316668   -1.5729621   0.10352002   -3.1316668    1.5587048   496154 
 3938000    1.1727039   -3.1293029   -1.5727988  0.099551625   -3.1293029     1.556504   496196 
 3939000    1.1718473   -3.1293263   -1.5741441   0.10589615   -3.1293263    1.5551822   496255 
 3940000    1.1732261   -3.1310581   -1.5741214  0.097418849   -3.1310581    1.5569367   496279 
 3941000    1.1725152   -3.1297855   -1.5739458   0.10196683   -3.1297855    1.5558397   496328 
 3942000    1.1720845   -3.1305473    -1.575486  0.095952984   -3.1305473    1.5550613   496394 
 3943000    1.1734687   -3.1316487   -1.5748448  0.099243539   -3.1316487    1.5568038   496424 
 3944000    1.1736715   -3.1323764   -1.5753663  0.098422412   -3.1323764    1.5570101   496444 
 3945000    1.1716472   -3.1296752   -1.5754602   0.10250295   -3.1296752     1.554215   496479 
 3946000    1.1727132   -3.1315773   -1.5762019  0.097029252   -3.1315773    1.5553754   496560 
 3947000     1.172286    -3.131663    -1.576992  0.095566754    -3.131663     1.554671   496604 
 3948000    1.1731743   -3.1320454   -1.5763718  0.099763149   -3.1320454    1.5556737   496660 
 3949000    1.1745697   -3.1340458   -1.5767226   0.10287993   -3.1340458    1.5573233   496724 
 3950000    1.1739354   -3.1324675   -1.5761419  0.098463731   -3.1324675    1.5563256   496774 
 3951000    1.1743758    -3.132419   -1.5755879  0.097891411    -3.132419    1.5568311   496799 
 3952000    1.1752449   -3.1319806   -1.5741383   0.09437154   -3.1319806    1.5578422   496844 
 3953000    1.1758082   -3.1329916   -1.5745721  0.097255496   -3.1329916    1.5584195   496898 
 3954000    1.1760407   -3.1344524   -1.5759475  0.099815555   -3.1344524     1.558505   496969 
 3955000    1.1753053   -3.1325981   -1.5752714   0.10482106   -3.1325981    1.5573266   497034 
 3956000    1.1748354   -3.1330434    -1.576499  0.097812761   -3.1330434    1.5565444   497085 
 3957000    1.1767049   -3.1354432   -1.5765631  0.096121337   -3.1354432    1.5588801   497130 
 3958000    1.1744935   -3.1325662   -1.5766783   0.10198161   -3.1325662    1.5558879   497150 
 3959000    1.1753654   -3.1339264   -1.5770181   0.10335602   -3.1339264    1.5569083   497193 
 3960000    1.1755117   -3.1353483   -1.5784843   0.09877661   -3.1353483     1.556864   497269 
 3961000    1.1752154   -3.1350026   -1.5786843  0.098197791   -3.1350026    1.5563183   497318 
 3962000    1.1753003   -3.1351309   -1.5788316   0.10309281   -3.1351309    1.5562993   497360 
 3963000    1.1745763   -3.1340102   -1.5787822   0.10531213   -3.1340102     1.555228   497396 
 3964000    1.1750153   -3.1349229   -1.5792388  0.096215968   -3.1349229    1.5556842   497436 
 3965000    1.1755281    -3.134853    -1.578615   0.10495024    -3.134853     1.556238   497476 
 3966000    1.1753437   -3.1345439   -1.5787219   0.10136267   -3.1345439    1.5558219   497531 
 3967000    1.1753869   -3.1345913   -1.5787748   0.10345134   -3.1345913    1.5558165   497551 
 3968000    1.1764388   -3.1363921   -1.5794681  0.098619832   -3.1363921    1.5569241   497642 
 3969000      1.17658   -3.1361759   -1.5791587   0.10157572   -3.1361759    1.5570172   497672 
 3970000    1.1752341   -3.1352321   -1.5801303    0.1000409   -3.1352321    1.5551017   497715 
 3971000    1.1767679   -3.1372814   -1.5802096   0.10094003   -3.1372814    1.5570718   497734 
 3972000    1.1767508     -3.13507   -1.5781772   0.10312991     -3.13507    1.5568928   497784 
 3973000    1.1787795   -3.1377603   -1.5783056  0.096970477   -3.1377603    1.5594547   497823 
 3974000    1.1771884   -3.1380368   -1.5808342  0.097025941   -3.1380368    1.5572027   497870 
 3975000    1.1771144   -3.1366506   -1.5796021    0.1045708   -3.1366506    1.5570485   497888 
 3976000    1.1760699    -3.134915   -1.5794043  0.094814289    -3.134915    1.5555107   497938 
 3977000    1.1775196   -3.1366836   -1.5793868   0.10219886   -3.1366836    1.5572968   497980 
 3978000    1.1774012   -3.1362475   -1.5792417  0.096126362   -3.1362475    1.5570057   498023 
 3979000    1.1790472   -3.1373898   -1.5783514   0.10534151   -3.1373898    1.5590384   498069 
 3980000    1.1788875   -3.1372721   -1.5785481  0.095955386   -3.1372721     1.558724   498102 
 3981000    1.1782439   -3.1361163   -1.5783121   0.10463125   -3.1361163    1.5578042   498124 
 3982000     1.178263   -3.1362281   -1.5784925  0.097148809   -3.1362281    1.5577356   498154 
 3983000    1.1778754   -3.1369939   -1.5799238   0.10279899   -3.1369939    1.5570701   498203 
 3984000    1.1780265   -3.1371323   -1.5799156   0.10174759   -3.1371323    1.5572167   498220 
 3985000    1.1784597   -3.1371204     -1.57955    0.1010006   -3.1371204    1.5575705   498290 
 3986000    1.1791856   -3.1381456   -1.5798471   0.10375253   -3.1381456    1.5582984   498364 
 3987000    1.1796508   -3.1384877   -1.5796996   0.10354702   -3.1384877    1.5587881   498404 
 3988000    1.1778233   -3.1377625   -1.5815329  0.097291829   -3.1377625    1.5562296   498450 
 3989000    1.1764787   -3.1358127   -1.5814283  0.099364401   -3.1358127    1.5543844   498472 
 3990000    1.1777205   -3.1376864   -1.5817892  0.097380643   -3.1376864    1.5558972   498513 
 3991000    1.1768808   -3.1375663   -1.5829687   0.09660768   -3.1375663    1.5545976   498574 
 3992000    1.1782906   -3.1386947   -1.5823223   0.10111751   -3.1386947    1.5563725   498602 
 3993000    1.1790233   -3.1389967   -1.5818251  0.093605267   -3.1389967    1.5571716   498656 
 3994000    1.1773973   -3.1364104   -1.5815921  0.099356853   -3.1364104    1.5548183   498722 
 3995000    1.1775473   -3.1366076   -1.5817627  0.092943589   -3.1366076    1.5548449   498777 
 3996000    1.1784954   -3.1379598   -1.5820284  0.097083652   -3.1379598    1.5559314   498830 
 3997000    1.1798183   -3.1386902   -1.5810746  0.098689587   -3.1386902    1.5576156   498850 
 3998000    1.1786547   -3.1378563   -1.5819922   0.10443207   -3.1378563    1.5558641   498919 
 3999000    1.1788841   -3.1381785   -1.5821829   0.10230751   -3.1381785    1.5559955   498974 
 4000000    1.1797196   -3.1395012   -1.5825215   0.10023207   -3.1395012    1.5569797   499012 
 4001000      1.17959   -3.1396557   -1.5830467   0.10530019   -3.1396557     1.556609   499076 
 4002000     1.179976   -3.1399609   -1.5828613  0.099667904   -3.1399609    1.5570996   499082 
 4003000    1.1791905   -3.1393342   -1.5833086  0.098317997   -3.1393342    1.5560256   499094 
 4004000    1.1804822   -3.1415742   -1.5840251  0.099929627   -3.1415742    1.5575491   499152 
 4005000    1.1797723   -3.1407129   -1.5842906  0.099821195   -3.1407129    1.5564223   499213 
 4006000    1.1785474   -3.1403124   -1.5856399   0.10301617   -3.1403124    1.5546725   499256 
 4007000    1.1808863   -3.1432631   -1.5855552   0.10045058   -3.1432631    1.5577078   499272 
 4008000    1.1803185   -3.1421627   -1.5853254   0.10099947   -3.1421627    1.5568373   499311 
 4009000    1.1811407   -3.1425113   -1.5847331  0.099354594   -3.1425113    1.5577782   499357 
 4010000    1.1813026   -3.1430004   -1.5851709   0.10499794   -3.1430004    1.5578295   499409 
 4011000    1.1788552   -3.1401603   -1.5857139   0.10110778   -3.1401603    1.5544464   499459 
 4012000    1.1805792   -3.1421569   -1.5855618   0.10182964   -3.1421569    1.5565951   499499 
 4013000    1.1812201   -3.1435498    -1.586275  0.099539202   -3.1435498    1.5572748   499552 
 4014000    1.1797954    -3.140451   -1.5852507   0.11061189    -3.140451    1.5552004   499615 
 4015000    1.1818608   -3.1433411   -1.5856083   0.10443083   -3.1433411    1.5577329   499676 
 4016000    1.1820967   -3.1443202   -1.5863919   0.10343141   -3.1443202    1.5579284   499713 
 4017000      1.18242    -3.143927    -1.585797  0.097732607    -3.143927      1.55813   499785 
 4018000    1.1824436   -3.1451077   -1.5870838   0.10120794   -3.1451077    1.5580239   499829 
 4019000    1.1803552   -3.1418108   -1.5866724   0.10476893   -3.1418108    1.5551384   499872 
 4020000    1.1822869   -3.1445619   -1.5870592   0.10004311   -3.1445619    1.5575027   499930 
 4021000    1.1798976   -3.1400762   -1.5858268   0.10374644   -3.1400762    1.5542494   499964 
 4022000    1.1820235   -3.1426438   -1.5857653   0.10125574   -3.1426438    1.5568785   500019 
 4023000    1.1832422   -3.1437211   -1.5853869  0.091235971   -3.1437211    1.5583342   500067 
 4024000    1.1816259    -3.141941   -1.5858258  0.093816117    -3.141941    1.5561152   500096 
 4025000    1.1810386   -3.1400449   -1.5849332   0.10411331   -3.1400449    1.5551117   500170 
 4026000    1.1826111   -3.1415849   -1.5844836  0.096217195   -3.1415849    1.5571013   500196 
 4027000    1.1803197   -3.1390795   -1.5851971   0.10352612   -3.1390795    1.5538824   500261 
 4028000    1.1822257   -3.1412987   -1.5850938   0.10231387   -3.1412987    1.5562049   500321 
 4029000    1.1828078   -3.1418913   -1.5850321  0.094485214   -3.1418913    1.5568592   500357 
 4030000    1.1815037   -3.1410323   -1.5859798   0.10199976   -3.1410323    1.5550525   500386 
 4031000    1.1814792   -3.1403291   -1.5854704    0.1022673   -3.1403291    1.5548587   500438 
 4032000    1.1809014   -3.1391288   -1.5851827  0.095251802   -3.1391288    1.5539461   500487 
 4033000    1.1810399   -3.1398169   -1.5858034   0.10210985   -3.1398169    1.5540135   500524 
 4034000    1.1812437   -3.1397388   -1.5855596   0.10118401   -3.1397388    1.5541793   500557 
 4035000     1.180445   -3.1408804   -1.5878731  0.094583944   -3.1408804    1.5530073   500596 
 4036000    1.1805337   -3.1403888   -1.5873702  0.098029784   -3.1403888    1.5530186   500630 
 4037000    1.1798744   -3.1394719   -1.5874818  0.098147392   -3.1394719      1.55199   500682 
 4038000     1.178656   -3.1371439   -1.5869702  0.098761547   -3.1371439    1.5501737   500751 
 4039000    1.1794242   -3.1388571   -1.5877536  0.095273828   -3.1388571    1.5511035   500777 
 4040000    1.1790713   -3.1381538   -1.5875639  0.098932209   -3.1381538    1.5505899   500793 
 4041000    1.1825813   -3.1421835    -1.587164   0.09553719   -3.1421835    1.5550195   500853 
 4042000    1.1824371   -3.1415391   -1.5868332  0.096532065   -3.1415391    1.5547058   500893 
 4043000     1.182206   -3.1407282    -1.586531  0.098241818   -3.1407282    1.5541971   500959 
 4044000    1.1845718   -3.1433491   -1.5862064   0.10499799   -3.1433491    1.5571427   501012 
 4045000    1.1846999   -3.1436873   -1.5866405   0.10059884   -3.1436873    1.5570469   501097 
 4046000    1.1851025   -3.1437818   -1.5862462   0.10156779   -3.1437818    1.5575356   501110 
 4047000    1.1845845   -3.1429118   -1.5861285   0.10454251   -3.1429118    1.5567833   501133 
 4048000    1.1865825   -3.1456355   -1.5863913   0.09760208   -3.1456355    1.5592442   501186 
 4049000    1.1852556   -3.1433202   -1.5858444   0.10355988   -3.1433202    1.5574758   501194 
 4050000    1.1871403    -3.145442   -1.5855582    0.1046067    -3.145442    1.5598838   501216 
 4051000    1.1858629   -3.1441675   -1.5860928   0.10413538   -3.1441675    1.5580747   501258 
 4052000    1.1864607    -3.145519   -1.5868267  0.098165187    -3.145519    1.5586923   501312 
 4053000    1.1862132   -3.1461354   -1.5879081  0.097051181   -3.1461354    1.5582273   501357 
 4054000    1.1860324    -3.145769   -1.5878849  0.099739993    -3.145769    1.5578841   501391 
 4055000    1.1868104   -3.1469937   -1.5882835   0.10675753   -3.1469937    1.5587102   501454 
 4056000    1.1863152   -3.1460097   -1.5881518   0.10044094   -3.1460097    1.5578579   501519 
 4057000    1.1865057   -3.1465061    -1.588485   0.10093287   -3.1465061    1.5580211   501547 
 4058000    1.1853871   -3.1455274   -1.5891459   0.10494342   -3.1455274    1.5563815   501602 
 4059000     1.183188   -3.1431102   -1.5897089   0.10336147   -3.1431102    1.5534013   501632 
 4060000    1.1853315   -3.1443717   -1.5883516    0.1043482   -3.1443717    1.5560201   501695 
 4061000    1.1854777   -3.1440275   -1.5879645   0.10418149   -3.1440275     1.556063   501743 
 4062000    1.1859844   -3.1439381   -1.5874426   0.10349297   -3.1439381    1.5564955   501818 
 4063000    1.1843586   -3.1413804    -1.587192   0.10301058   -3.1413804    1.5541883   501874 
 4064000    1.1851683   -3.1425086   -1.5873352   0.10063789   -3.1425086    1.5551734   501899 
 4065000    1.1857839   -3.1427133   -1.5868468   0.10347997   -3.1427133    1.5558665   501936 
 4066000    1.1871895   -3.1446843   -1.5870634  0.095794143   -3.1446843    1.5576209   501965 
 4067000    1.1869082   -3.1437409   -1.5867155  0.094598514   -3.1437409    1.5570254   502038 
 4068000    1.1865432   -3.1432272    -1.586811   0.10258891   -3.1432272    1.5564162   502080 
 4069000    1.1862387   -3.1429539   -1.5871075   0.10710425   -3.1429539    1.5558464   502135 
 4070000    1.1866278   -3.1430296   -1.5868278  0.098712035   -3.1430296    1.5562018   502185 
 4071000    1.1851796   -3.1420447   -1.5878876  0.097167553   -3.1420447    1.5541572   502232 
 4072000    1.1853713   -3.1418808   -1.5875775   0.10150355   -3.1418808    1.5543033   502266 
 4073000    1.1861819   -3.1427267   -1.5875278  0.099192152   -3.1427267    1.5551989   502320 
 4074000    1.1854447   -3.1414334   -1.5873092  0.096418067   -3.1414334    1.5541241   502355 
 4075000    1.1857995   -3.1419766   -1.5875823  0.099477907   -3.1419766    1.5543944   502418 
 4076000    1.1868144   -3.1431098   -1.5875894  0.099713483   -3.1431098    1.5555203   502484 
 4077000    1.1857341   -3.1405477   -1.5865854   0.10114702   -3.1405477    1.5539622   502530 
 4078000    1.1880829   -3.1430299   -1.5861815  0.095870045   -3.1430299    1.5568484   502592 
 4079000    1.1861612   -3.1416804   -1.5875636   0.10330302   -3.1416804    1.5541168   502661 
 4080000    1.1872641   -3.1440975   -1.5886564  0.097925927   -3.1440975    1.5554411   502700 
 4081000    1.1874182   -3.1441575   -1.5886568   0.10111495   -3.1441575    1.5555007   502746 
 4082000    1.1880693   -3.1437731   -1.5875649  0.099630557   -3.1437731    1.5562082   502793 
 4083000    1.1885666   -3.1434597   -1.5867085   0.10049472   -3.1434597    1.5567511   502828 
 4084000    1.1890132   -3.1447175   -1.5874589   0.10146073   -3.1447175    1.5572586   502853 
 4085000    1.1891345   -3.1450974   -1.5878037  0.099083649   -3.1450974    1.5572937   502893 
 4086000    1.1900398   -3.1466719   -1.5882825   0.10190274   -3.1466719    1.5583894   502922 
 4087000    1.1887047   -3.1441344    -1.587549   0.10522392   -3.1441344    1.5565854   502940 
 4088000    1.1889398   -3.1458839   -1.5891175  0.097056192   -3.1458839    1.5567663   502981 
 4089000    1.1904135   -3.1478575    -1.589301    0.1015882   -3.1478575    1.5585565   503026 
 4090000     1.190053   -3.1472174   -1.5892538   0.10012349   -3.1472174    1.5579637   503065 
 4091000    1.1890668   -3.1465102   -1.5899489  0.098411378   -3.1465102    1.5565613   503101 
 4092000      1.19019   -3.1474399   -1.5895105  0.099759537   -3.1474399    1.5579294   503134 
 4093000    1.1905521   -3.1474988   -1.5892967  0.098975146   -3.1474988    1.5582021   503199 
 4094000    1.1892901   -3.1469218   -1.5905942   0.10104866   -3.1469218    1.5563276   503271 
 4095000    1.1901591   -3.1471475   -1.5898187   0.10053033   -3.1471475    1.5573287   503315 
 4096000    1.1903968   -3.1476862   -1.5901981   0.10390567   -3.1476862    1.5574881   503364 
 4097000    1.1920506   -3.1498688   -1.5904121   0.10524535   -3.1498688    1.5594567   503427 
 4098000    1.1899091    -3.147346   -1.5909134   0.10235316    -3.147346    1.5564325   503499 
 4099000    1.1901471   -3.1480078   -1.5914494  0.099860115   -3.1480078    1.5565583   503559 
 4100000    1.1898773   -3.1460844   -1.5900551   0.10131017   -3.1460844    1.5560294   503616 
 4101000    1.1899751   -3.1469562   -1.5909596   0.10102626   -3.1469562    1.5559966   503668 
 4102000    1.1906898   -3.1475521    -1.590828   0.10405424   -3.1475521    1.5567241   503735 
 4103000    1.1904491   -3.1461825    -1.589943   0.10672041   -3.1461825    1.5562395   503790 
 4104000    1.1907676   -3.1465948   -1.5901459   0.10086507   -3.1465948    1.5564488   503857 
 4105000    1.1916296   -3.1481165   -1.5906583  0.097662216   -3.1481165    1.5574581   503895 
 4106000    1.1909083   -3.1477887   -1.5914711   0.10131762   -3.1477887    1.5563176   503959 
 4107000    1.1914481   -3.1478263   -1.5909824   0.10029141   -3.1478263    1.5568439   504017 
 4108000    1.1903728   -3.1475143   -1.5921773  0.099537101   -3.1475143     1.555337   504050 
 4109000    1.1921699   -3.1498509   -1.5923202  0.096650455   -3.1498509    1.5575307   504100 
 4110000     1.190528   -3.1469202   -1.5916118   0.10274682   -3.1469202    1.5553084   504125 
 4111000    1.1928963   -3.1490832   -1.5907736  0.098850233   -3.1490832    1.5583096   504155 
 4112000    1.1930043   -3.1480701   -1.5898141   0.10203507   -3.1480701     1.558256   504218 
 4113000    1.1935052   -3.1472055   -1.5884623   0.10508465   -3.1472055    1.5587433   504272 
 4114000    1.1929202   -3.1468332   -1.5889837   0.10519989   -3.1468332    1.5578496   504314 
 4115000    1.1947416   -3.1482574   -1.5881562   0.10146343   -3.1482574    1.5601013   504355 
 4116000    1.1935325   -3.1473703    -1.588922   0.10539488   -3.1473703    1.5584483   504379 
 4117000    1.1941867   -3.1479199    -1.588775   0.10145644   -3.1479199    1.5591449   504430 
 4118000    1.1941781   -3.1484725   -1.5894874  0.099917426   -3.1484725    1.5589852   504478 
 4119000    1.1935026   -3.1480055   -1.5900102    0.1019271   -3.1480055    1.5579952   504513 
 4120000     1.193528   -3.1470601   -1.5891799   0.10970282   -3.1470601    1.5578802   504561 
 4121000    1.1936965   -3.1472316   -1.5892271  0.099737202   -3.1472316    1.5580045   504592 
 4122000     1.195233   -3.1490564   -1.5891887   0.10173224   -3.1490564    1.5598676   504638 
 4123000    1.1926351   -3.1465751   -1.5901997  0.095539366   -3.1465751    1.5563754   504671 
 4124000    1.1935728   -3.1471975   -1.5897773   0.10415817   -3.1471975    1.5574202   504729 
 4125000    1.1939787   -3.1471515   -1.5893591   0.10304445   -3.1471515    1.5577924   504780 
 4126000    1.1948339   -3.1488595   -1.5900995   0.10505208   -3.1488595    1.5587599   504828 
 4127000    1.1961834    -3.148681   -1.5882872   0.10086815    -3.148681    1.5603938   504869 
 4128000    1.1947443   -3.1469333   -1.5886051   0.10620747   -3.1469333    1.5583282   504930 
 4129000    1.1942323   -3.1472265   -1.5897666   0.10145782   -3.1472265    1.5574599   504995 
 4130000    1.1951585   -3.1482355   -1.5897159   0.09976819   -3.1482355    1.5585196   505043 
 4131000    1.1954944    -3.148634   -1.5897752   0.10116664    -3.148634    1.5588589   505075 
 4132000    1.1950901   -3.1485795   -1.5903558   0.10525088   -3.1485795    1.5582237   505110 
 4133000    1.1941348   -3.1470411   -1.5902355   0.10252222   -3.1470411    1.5568056   505166 
 4134000    1.1928387   -3.1464978    -1.591539  0.099614088   -3.1464978    1.5549588   505217 
 4135000    1.1927934   -3.1458486   -1.5910412   0.10049165   -3.1458486    1.5548074   505247 
 4136000    1.1970323   -3.1500551   -1.5898117   0.10009679   -3.1500551    1.5602433   505276 
 4137000    1.1967016   -3.1494556   -1.5897884   0.10093829   -3.1494556    1.5596672   505323 
 4138000    1.1953942   -3.1490203   -1.5911895  0.098587753   -3.1490203    1.5578307   505366 
 4139000    1.1963528   -3.1488004    -1.589887  0.098999604   -3.1488004    1.5589134   505420 
 4140000    1.1962645    -3.148617   -1.5898866   0.10237533    -3.148617    1.5587304   505442 
 4141000    1.1973668   -3.1495575   -1.5895203   0.10192583   -3.1495575    1.5600371   505484 
 4142000    1.1965631   -3.1485416    -1.589752   0.10065697   -3.1485416    1.5587896   505549 
 4143000     1.197516   -3.1490588    -1.589145   0.10774909   -3.1490588    1.5599137   505587 
 4144000    1.1973366    -3.149002   -1.5894546   0.10006567    -3.149002    1.5595473   505630 
 4145000     1.197893   -3.1489977     -1.58892   0.10381501   -3.1489977    1.5600777   505693 
 4146000    1.1975217   -3.1498084    -1.590347   0.10259168   -3.1498084    1.5594614   505736 
 4147000     1.196135   -3.1469433   -1.5894755   0.10542963   -3.1469433    1.5574678   505797 
 4148000    1.1980227   -3.1504505   -1.5906634   0.10210111   -3.1504505     1.559787   505842 
 4149000    1.1963154   -3.1504655   -1.5930122   0.10045837   -3.1504655    1.5574533   505878 
 4150000    1.1960669    -3.150948   -1.5939321   0.10297395    -3.150948    1.5570159   505915 
 4151000    1.1964034   -3.1502731   -1.5929885  0.096544907   -3.1502731    1.5572846   505970 
 4152000    1.1940751   -3.1482597   -1.5940701   0.10272095   -3.1482597    1.5541895   505991 
 4153000     1.196124   -3.1506839   -1.5939229   0.10351682   -3.1506839     1.556761   506022 
 4154000    1.1965065   -3.1504714   -1.5933725   0.10092087   -3.1504714    1.5570988   506074 
 4155000    1.1955994   -3.1484149   -1.5927394   0.10114381   -3.1484149    1.5556755   506153 
 4156000    1.1949302   -3.1478781   -1.5931839   0.10200111   -3.1478781    1.5546942   506189 
 4157000    1.1970722   -3.1500333   -1.5926906   0.09910467   -3.1500333    1.5573426   506234 
 4158000    1.1994341   -3.1520731   -1.5918056   0.10554146   -3.1520731    1.5602675   506282 
 4159000    1.1975425   -3.1508676   -1.5931839   0.10083994   -3.1508676    1.5576837   506322 
 4160000      1.19706   -3.1506084   -1.5936754   0.10090158   -3.1506084     1.556933   506362 
 4161000    1.1982202   -3.1503007   -1.5920249   0.10210054   -3.1503007    1.5582759   506416 
 4162000    1.1985074    -3.151264   -1.5927132    0.1072765    -3.151264    1.5585509   506448 
 4163000    1.1995752   -3.1515662   -1.5917131   0.10107378   -3.1515662    1.5598532   506476 
 4164000     1.199532    -3.152099   -1.5924066   0.10154938    -3.152099    1.5596924   506510 
 4165000    1.2010206   -3.1532246   -1.5916675   0.10022966   -3.1532246     1.561557   506533 
 4166000    1.2016944   -3.1526282   -1.5902722   0.10230779   -3.1526282     1.562356   506558 
 4167000     1.200761   -3.1517366   -1.5907329   0.10895396   -3.1517366    1.5610037   506603 
 4168000    1.2003199   -3.1513614   -1.5909588   0.10822522   -3.1513614    1.5604026   506612 
 4169000    1.1995815   -3.1512684   -1.5919703   0.10180429   -3.1512684    1.5592981   506659 
 4170000    1.1987137   -3.1508213   -1.5927682   0.10423156   -3.1508213    1.5580531   506697 
 4171000    1.2003423    -3.152847   -1.5928187   0.10054017    -3.152847    1.5600283   506743 
 4172000    1.1997049   -3.1523543   -1.5932129   0.10734845   -3.1523543    1.5591414   506762 
 4173000    1.1999792   -3.1527047   -1.5932744   0.10047707   -3.1527047    1.5594303   506784 
 4174000    1.1993402   -3.1526785   -1.5942724   0.10627548   -3.1526785    1.5584061   506847 
 4175000    1.1992578   -3.1517045   -1.5935223   0.10304944   -3.1517045    1.5581822   506885 
 4176000    1.1990846   -3.1530894   -1.5951814   0.10118011   -3.1530894     1.557908   506901 
 4177000    1.1995107   -3.1528313   -1.5944527   0.10167672   -3.1528313    1.5583787   506928 
 4178000    1.1996286   -3.1524974   -1.5941193    0.1039839   -3.1524974    1.5583781   506978 
 4179000    1.2013037   -3.1543308   -1.5940844    0.1009626   -3.1543308    1.5602463   507078 
 4180000    1.1993713   -3.1517994   -1.5941611   0.10386246   -3.1517994    1.5576383   507110 
 4181000    1.2010135   -3.1536463   -1.5940167    0.1012562   -3.1536463    1.5596296   507156 
 4182000    1.2007562   -3.1533188    -1.594088    0.1022354   -3.1533188    1.5592308   507177 
 4183000    1.2003948   -3.1536326   -1.5950155   0.10444157   -3.1536326    1.5586172   507224 
 4184000    1.1993011   -3.1534424   -1.5963191   0.10136606   -3.1534424    1.5571233   507248 
 4185000    1.2000048    -3.152777   -1.5948383    0.1070889    -3.152777    1.5579387   507280 
 4186000    1.2011256   -3.1547326   -1.5954217   0.10637945   -3.1547326    1.5593108   507307 
 4187000    1.2004238   -3.1535923   -1.5953246   0.10276867   -3.1535923    1.5582677   507350 
 4188000    1.2021794   -3.1548139    -1.594378   0.10365277   -3.1548139    1.5604359   507386 
 4189000    1.2009202   -3.1531897   -1.5945633   0.10570882   -3.1531897    1.5586263   507443 
 4190000    1.2018785   -3.1529427   -1.5931956   0.10407095   -3.1529427    1.5597471   507483 
 4191000    1.2023962   -3.1543698   -1.5940338    0.1000103   -3.1543698     1.560336   507510 
 4192000    1.2028304   -3.1553359   -1.5945564   0.11057392   -3.1553359    1.5607795   507549 
 4193000    1.2009617   -3.1521044   -1.5939339   0.11081812   -3.1521044    1.5581705   507609 
 4194000    1.2023043   -3.1546253   -1.5948082   0.10074943   -3.1546253    1.5598171   507640 
 4195000    1.2021265   -3.1536242   -1.5941606   0.10610665   -3.1536242    1.5594637   507680 
 4196000    1.2017185   -3.1526586   -1.5939024   0.10555751   -3.1526586    1.5587563   507738 
 4197000    1.2009117   -3.1526375   -1.5951179   0.10630338   -3.1526375    1.5575196   507800 
 4198000    1.2023304   -3.1551456   -1.5959734   0.10391172   -3.1551456    1.5591722   507861 
 4199000    1.2008774   -3.1547779   -1.5976033   0.10398205   -3.1547779    1.5571746   507898 
 4200000    1.2012441   -3.1542625   -1.5967442   0.10035461   -3.1542625    1.5575183   507941 
 4201000    1.2005271   -3.1527225   -1.5962443   0.10874844   -3.1527225    1.5564783   507977 
 4202000    1.2016058    -3.153749   -1.5960716   0.10041539    -3.153749    1.5576774   508042 
 4203000    1.2007173   -3.1524712   -1.5960467   0.10491931   -3.1524712    1.5564245   508075 
 4204000    1.2017913   -3.1542688   -1.5965318   0.10088435   -3.1542688     1.557737   508101 
 4205000    1.2007484   -3.1525653   -1.5962934   0.10483247   -3.1525653    1.5562719   508138 
 4206000    1.2016153   -3.1530812   -1.5958145  0.096679687   -3.1530812    1.5572667   508180 
 4207000    1.2026285   -3.1559805   -1.5975478   0.10345627   -3.1559805    1.5584327   508228 
 4208000    1.2019566   -3.1558844   -1.5984971   0.10702611   -3.1558844    1.5573873   508285 
 4209000    1.2019872   -3.1548938   -1.5976169   0.10309098   -3.1548938    1.5572768   508334 
 4210000    1.2039492   -3.1569948   -1.5972466   0.10251819   -3.1569948    1.5597481   508357 
 4211000     1.203403   -3.1565776    -1.597626  0.097430128   -3.1565776    1.5589517   508386 
 4212000    1.2033666   -3.1552601   -1.5964047   0.10523493   -3.1552601    1.5588554   508402 
 4213000    1.2035477   -3.1555928   -1.5966162   0.10826454   -3.1555928    1.5589766   508439 
 4214000    1.2030467   -3.1556646   -1.5974872  0.099718488   -3.1556646    1.5581774   508488 
 4215000    1.2050819   -3.1580537   -1.5973416    0.1015052   -3.1580537    1.5607121   508521 
 4216000    1.2048894   -3.1575578   -1.5971839  0.099555428   -3.1575578    1.5603739   508550 
 4217000    1.2062052   -3.1588779   -1.5969813  0.099244353   -3.1588779    1.5618966   508609 
 4218000    1.2050906   -3.1563829   -1.5961535   0.10291911   -3.1563829    1.5602294   508682 
 4219000    1.2031514    -3.153234   -1.5956102   0.10539425    -3.153234    1.5576238   508713 
 4220000     1.201458   -3.1534189   -1.5981494   0.10019813   -3.1534189    1.5552695   508766 
 4221000    1.2045572   -3.1550588   -1.5959001   0.10208493   -3.1550588    1.5591587   508806 
 4222000    1.2032111     -3.15441   -1.5971558   0.10708074     -3.15441    1.5572542   508859 
 4223000    1.2046216   -3.1554826   -1.5965622   0.10406076   -3.1554826    1.5589204   508911 
 4224000    1.2034507   -3.1543568   -1.5970618    0.1015244   -3.1543568     1.557295   508947 
 4225000    1.2038638   -3.1547296   -1.5970225   0.10365601   -3.1547296    1.5577071   508987 
 4226000    1.2046917    -3.155328   -1.5966355  0.095703109    -3.155328    1.5586926   509015 
 4227000    1.2034032   -3.1543675   -1.5975012  0.099203377   -3.1543675    1.5568664   509067 
 4228000    1.2038746   -3.1561322   -1.5986987   0.10177719   -3.1561322    1.5574335   509081 
 4229000    1.2032252   -3.1550264   -1.5985615   0.09608236   -3.1550264    1.5564649   509123 
 4230000     1.202974   -3.1543099    -1.598335  0.099501041   -3.1543099     1.555975   509177 
 4231000    1.2040657   -3.1559851   -1.5986837   0.09501713   -3.1559851    1.5573014   509205 
 4232000    1.2033033   -3.1552423   -1.5989913   0.10037432   -3.1552423     1.556251   509226 
 4233000    1.2037073   -3.1554095   -1.5987643  0.098353292   -3.1554095    1.5566452   509268 
 4234000    1.2036952   -3.1541299   -1.5974882    0.1078715   -3.1541299    1.5566417   509264 
 4235000    1.2049094   -3.1547827   -1.5966595   0.10465508   -3.1547827    1.5581232   509293 
 4236000    1.2062213   -3.1572743   -1.5975372  0.098051075   -3.1572743    1.5597371   509320 
 4237000    1.2053224   -3.1560843   -1.5975983   0.10378713   -3.1560843     1.558486   509349 
 4238000    1.2044798   -3.1549894    -1.597706   0.10067412   -3.1549894    1.5572834   509386 
 4239000    1.2052787    -3.155863   -1.5976659   0.10153665    -3.155863     1.558197   509425 
 4240000    1.2066079   -3.1582614   -1.5985052   0.10507837   -3.1582614    1.5597562   509477 
 4241000    1.2053653   -3.1569216    -1.598836   0.10638559   -3.1569216    1.5580857   509498 
 4242000    1.2055172   -3.1579819   -1.5998099   0.10430865   -3.1579819     1.558172   509534 
 4243000    1.2085055   -3.1616505   -1.5998153    0.1047761   -3.1616505    1.5618351   509599 
 4244000    1.2074117   -3.1587614   -1.5984195   0.10479556   -3.1587614    1.5603419   509625 
 4245000    1.2089394   -3.1606322   -1.5985183   0.10878777   -3.1606322    1.5621139   509691 
 4246000    1.2068046   -3.1590624   -1.5998109   0.10678387   -3.1590624    1.5592515   509725 
 4247000    1.2082475   -3.1599539   -1.5989791   0.10569717   -3.1599539    1.5609748   509771 
 4248000     1.207698   -3.1593334    -1.599197   0.10081518   -3.1593334    1.5601364   509813 
 4249000    1.2062618   -3.1589788   -1.6008445   0.10930657   -3.1589788    1.5581343   509861 
 4250000    1.2084182    -3.162093   -1.6012619   0.10186751    -3.162093    1.5608311   509890 
 4251000    1.2069821   -3.1620711   -1.6032265   0.10536894   -3.1620711    1.5588446   509933 
 4252000    1.2071196   -3.1614187   -1.6025492   0.10734878   -3.1614187    1.5588694   509983 
 4253000    1.2065004    -3.159426   -1.6014754   0.10699576    -3.159426    1.5579506   510022 
 4254000    1.2060625   -3.1598231   -1.6024747   0.10345733   -3.1598231    1.5573485   510034 
 4255000    1.2074988   -3.1638182   -1.6047282   0.10016576   -3.1638182    1.5590901   510071 
 4256000    1.2068458   -3.1624629   -1.6043321   0.10596156   -3.1624629    1.5581308   510109 
 4257000     1.207129   -3.1609304   -1.6025623    0.1040043   -3.1609304    1.5583681   510151 
 4258000    1.2067282   -3.1611117   -1.6033068   0.10413137   -3.1611117     1.557805   510166 
 4259000    1.2060563   -3.1598113   -1.6030965   0.10562628   -3.1598113    1.5567148   510239 
 4260000    1.2072105     -3.16068   -1.6025701   0.10352321     -3.16068    1.5581099   510270 
 4261000    1.2070607   -3.1609412   -1.6031345  0.098996241   -3.1609412    1.5578067   510306 
 4262000    1.2067491   -3.1599926   -1.6026857    0.1028255   -3.1599926    1.5573069   510338 
 4263000    1.2066917   -3.1611546   -1.6040256   0.10177945   -3.1611546     1.557129   510372 
 4264000    1.2068152   -3.1611786   -1.6040092   0.10522008   -3.1611786    1.5571694   510411 
 4265000    1.2058322   -3.1586076   -1.6028101   0.10245519   -3.1586076    1.5557975   510445 
 4266000    1.2070606   -3.1609382   -1.6037358   0.10690951   -3.1609382    1.5572023   510504 
 4267000    1.2073628   -3.1596069   -1.6021366   0.10302453   -3.1596069    1.5574702   510544 
 4268000    1.2076022   -3.1597965   -1.6020906   0.10260025   -3.1597965    1.5577058   510568 
 4269000    1.2072747   -3.1590633   -1.6018746   0.10133132   -3.1590633    1.5571887   510599 
 4270000    1.2080316   -3.1591729   -1.6010659   0.10438582   -3.1591729     1.558107   510618 
 4271000    1.2075512   -3.1590358   -1.6016824    0.1051325   -3.1590358    1.5573534   510662 
 4272000    1.2094385   -3.1604141   -1.6008528  0.099748123   -3.1604141    1.5595613   510736 
 4273000      1.20877   -3.1597543   -1.6012259   0.10110639   -3.1597543    1.5585284   510792 
 4274000    1.2079323   -3.1587515   -1.6013611  0.096617027   -3.1587515    1.5573903   510811 
 4275000    1.2095654   -3.1610379   -1.6016091  0.097261242   -3.1610379    1.5594288   510833 
 4276000    1.2095908   -3.1608979   -1.6016073   0.10082303   -3.1608979    1.5592906   510889 
 4277000     1.208093   -3.1601081   -1.6028336    0.1007719   -3.1601081    1.5572744   510917 
 4278000    1.2087468   -3.1608355   -1.6028311   0.10594123   -3.1608355    1.5580044   510954 
 4279000    1.2089095   -3.1608572   -1.6027561   0.10316426   -3.1608572    1.5581012   510991 
 4280000    1.2095245   -3.1612434    -1.602563    0.1081674   -3.1612434    1.5586803   511061 
 4281000    1.2103704   -3.1614747   -1.6018141   0.10403291   -3.1614747    1.5596606   511097 
 4282000    1.2106858   -3.1613339   -1.6013493   0.10799989   -3.1613339    1.5599846   511124 
 4283000    1.2102515   -3.1621906   -1.6028419   0.10229536   -3.1621906    1.5593487   511149 
 4284000    1.2101597    -3.162014   -1.6029299   0.10415282    -3.162014    1.5590841   511197 
 4285000     1.210798   -3.1617699   -1.6019886  0.098419728   -3.1617699    1.5597813   511238 
 4286000    1.2115543   -3.1616977   -1.6011193   0.10644975   -3.1616977    1.5605785   511296 
 4287000    1.2115061   -3.1612407   -1.6008342   0.10719012   -3.1612407    1.5604065   511332 
 4288000    1.2113031   -3.1617368   -1.6016924   0.10809062   -3.1617368    1.5600444   511365 
 4289000    1.2129213   -3.1641224   -1.6021222   0.10190445   -3.1641224    1.5620002   511407 
 4290000    1.2117404   -3.1629067   -1.6024851    0.1008437   -3.1629067    1.5604215   511426 
 4291000    1.2123097   -3.1641303   -1.6030795  0.099482311   -3.1641303    1.5610508   511460 
 4292000    1.2096869   -3.1607067   -1.6031762   0.10357197   -3.1607067    1.5575304   511507 
 4293000    1.2111702   -3.1637816    -1.604448   0.10167578   -3.1637816    1.5593336   511542 
 4294000    1.2109252    -3.162606   -1.6037129   0.10471922    -3.162606    1.5588932   511583 
 4295000    1.2105849   -3.1624248   -1.6041526   0.10388662   -3.1624248    1.5582723   511643 
 4296000    1.2102645   -3.1616611   -1.6039748   0.10193352   -3.1616611    1.5576863   511700 
 4297000    1.2097771   -3.1613886   -1.6044665   0.10407157   -3.1613886    1.5569221   511745 
 4298000    1.2098568   -3.1599751   -1.6030509   0.10339414   -3.1599751    1.5569242   511778 
 4299000    1.2122434   -3.1645446   -1.6046406   0.10001895   -3.1645446     1.559904   511808 
 4300000     1.210655   -3.1632462   -1.6055017   0.10672526   -3.1632462    1.5577445   511846 
 4301000    1.2101898   -3.1624061   -1.6053971  0.098662993   -3.1624061     1.557009   511891 
 4302000    1.2107706   -3.1637743   -1.6062128   0.10264568   -3.1637743    1.5575616   511955 
 4303000    1.2116965   -3.1644892   -1.6058249  0.099194499   -3.1644892    1.5586643   511984 
 4304000    1.2111656   -3.1629581    -1.605144   0.10172829   -3.1629581    1.5578141   512039 
 4305000    1.2126643   -3.1646172   -1.6051253   0.10064337   -3.1646172    1.5594919   512121 
 4306000    1.2112431    -3.163829   -1.6062772   0.10220453    -3.163829    1.5575517   512158 
 4307000    1.2120229   -3.1655004   -1.6070951    0.1053473   -3.1655004    1.5584054   512207 
 4308000    1.2117144   -3.1627768   -1.6049141   0.10443514   -3.1627768    1.5578627   512255 
 4309000    1.2133505   -3.1649832    -1.605087   0.10104824   -3.1649832    1.5598962   512278 
 4310000    1.2129089    -3.164271   -1.6050522   0.10549089    -3.164271    1.5592189   512314 
 4311000    1.2125775   -3.1654552   -1.6066685   0.10153132   -3.1654552    1.5587868   512316 
 4312000     1.212191   -3.1639816   -1.6058864   0.10723192   -3.1639816    1.5580953   512380 
 4313000     1.216181   -3.1675119   -1.6045046   0.10344344   -3.1675119    1.5630073   512451 
 4314000     1.215869   -3.1670437   -1.6045716  0.096498454   -3.1670437    1.5624721   512495 
 4315000     1.215681   -3.1679372   -1.6057341   0.10794809   -3.1679372    1.5622031   512504 
 4316000    1.2141801   -3.1669993    -1.606871   0.10092773   -3.1669993    1.5601283   512552 
 4317000    1.2150011   -3.1667501   -1.6057009   0.10740426   -3.1667501    1.5610492   512596 
 4318000    1.2157389   -3.1686661   -1.6067847   0.10778874   -3.1686661    1.5618813   512634 
 4319000    1.2158673    -3.168857   -1.6069174   0.10359948    -3.168857    1.5619397   512669 
 4320000    1.2150337    -3.166934   -1.6061444     0.105874    -3.166934    1.5607896   512695 
 4321000    1.2139126   -3.1666159   -1.6074124   0.10485703   -3.1666159    1.5592036   512743 
 4322000    1.2139595   -3.1668932   -1.6077359   0.09850222   -3.1668932    1.5591573   512778 
 4323000     1.214429   -3.1667996    -1.607164   0.10459467   -3.1667996    1.5596356   512819 
 4324000    1.2158506   -3.1680755    -1.606675   0.10306119   -3.1680755    1.5614005   512839 
 4325000    1.2152619   -3.1676144   -1.6070338   0.10574476   -3.1676144    1.5605806   512860 
 4326000    1.2156782   -3.1674318    -1.606405   0.10673761   -3.1674318    1.5610268   512889 
 4327000    1.2143816   -3.1670469   -1.6077579   0.10214048   -3.1670469     1.559289   512913 
 4328000    1.2144479   -3.1670896   -1.6079284   0.10369941   -3.1670896    1.5591612   512983 
 4329000     1.213537   -3.1656937   -1.6078233   0.10812132   -3.1656937    1.5578704   513023 
 4330000    1.2150557   -3.1662956   -1.6066124   0.10981039   -3.1662956    1.5596832   513068 
 4331000    1.2151296   -3.1681866   -1.6084967   0.10459583   -3.1681866    1.5596898   513097 
 4332000    1.2149982   -3.1672265   -1.6079211   0.10190722   -3.1672265    1.5593055   513168 
 4333000    1.2149166   -3.1661275   -1.6069784   0.10105802   -3.1661275    1.5591491   513185 
 4334000    1.2141499   -3.1659151   -1.6078289   0.10808212   -3.1659151    1.5580862   513211 
 4335000    1.2144487   -3.1655633    -1.607209   0.10725962   -3.1655633    1.5583543   513249 
 4336000    1.2165574   -3.1695481   -1.6085762    0.1089535   -3.1695481    1.5609719   513278 
 4337000    1.2172903   -3.1685825   -1.6068406    0.1049676   -3.1685825    1.5617419   513334 
 4338000    1.2152646   -3.1665529   -1.6075465    0.1086494   -3.1665529    1.5590064   513379 
 4339000    1.2166045   -3.1680902   -1.6074713   0.10275156   -3.1680902    1.5606189   513414 
 4340000    1.2143355   -3.1651934   -1.6074851    0.1086879   -3.1651934    1.5577083   513414 
 4341000    1.2166912   -3.1684029   -1.6077641   0.10151613   -3.1684029    1.5606389   513444 
 4342000    1.2159846   -3.1670358   -1.6074036   0.11000301   -3.1670358    1.5596323   513477 
 4343000    1.2164065   -3.1669945   -1.6068971   0.10513545   -3.1669945    1.5600974   513502 
 4344000    1.2135572   -3.1648909    -1.608672   0.10294839   -3.1648909    1.5562188   513576 
 4345000    1.2157424   -3.1680091    -1.609155   0.10645652   -3.1680091    1.5588541   513631 
 4346000    1.2152065     -3.16703   -1.6090965   0.10075612     -3.16703    1.5579334   513708 
 4347000    1.2153809   -3.1664938   -1.6084491  0.099082614   -3.1664938    1.5580447   513745 
 4348000    1.2153621   -3.1657044   -1.6077475    0.1028884   -3.1657044     1.557957   513766 
 4349000    1.2150345   -3.1655195    -1.608128   0.10256276   -3.1655195    1.5573915   513814 
 4350000    1.2155152   -3.1660533   -1.6080973   0.10291813   -3.1660533    1.5579561   513831 
 4351000    1.2178141   -3.1692122   -1.6083581  0.096161295   -3.1692122    1.5608541   513847 
 4352000    1.2146705   -3.1653252   -1.6086002   0.10011851   -3.1653252     1.556725   513880 
 4353000    1.2162176   -3.1662418   -1.6076584   0.10575259   -3.1662418    1.5585835   513921 
 4354000    1.2152566   -3.1657444   -1.6086168   0.10401745   -3.1657444    1.5571276   513995 
 4355000    1.2176788   -3.1682785   -1.6081231   0.10361387   -3.1682785    1.5601554   514020 
 4356000     1.217085   -3.1671341    -1.607791  0.097492065   -3.1671341    1.5593431   514037 
 4357000    1.2169802   -3.1679019   -1.6087811   0.10051939   -3.1679019    1.5591208   514066 
 4358000    1.2174501   -3.1682883   -1.6086626   0.10466432   -3.1682883    1.5596257   514098 
 4359000    1.2172218   -3.1677037   -1.6085676   0.10031923   -3.1677037    1.5591361   514163 
 4360000    1.2165172   -3.1669837   -1.6088805    0.1015083   -3.1669837    1.5581033   514206 
 4361000    1.2179906   -3.1681793   -1.6083921  0.099685983   -3.1681793    1.5597872   514273 
 4362000    1.2152408   -3.1650505   -1.6088151   0.10278114   -3.1650505    1.5562354   514283 
 4363000    1.2158689   -3.1662579   -1.6092635   0.10262232   -3.1662579    1.5569944   514298 
 4364000    1.2169305   -3.1678444   -1.6095723   0.10389328   -3.1678444    1.5582721   514325 
 4365000    1.2170283   -3.1682328   -1.6099507   0.10240448   -3.1682328    1.5582821   514363 
 4366000    1.2175253   -3.1688975    -1.610067   0.10006992   -3.1688975    1.5588305   514392 
 4367000    1.2146413   -3.1659146   -1.6109457   0.10529318   -3.1659146    1.5549688   514448 
 4368000    1.2173105     -3.16891   -1.6105755   0.10662776     -3.16891    1.5583345   514465 
 4369000    1.2165906   -3.1669654   -1.6097765   0.10501994   -3.1669654    1.5571889   514539 
 4370000    1.2168848   -3.1678697   -1.6104345  0.097561757   -3.1678697    1.5574353   514582 
 4371000     1.218869   -3.1686746   -1.6088271   0.10272053   -3.1686746    1.5598474   514624 
 4372000    1.2191059    -3.169221   -1.6092461   0.10031198    -3.169221    1.5599749   514682 
 4373000    1.2190903   -3.1686232   -1.6087865   0.10738939   -3.1686232    1.5598367   514721 
 4374000    1.2186467   -3.1676013   -1.6084534    0.1022956   -3.1676013    1.5591478   514761 
 4375000    1.2188735    -3.167869   -1.6086248   0.10783295    -3.167869    1.5592443   514825 
 4376000    1.2206783   -3.1694655   -1.6080671    0.1050591   -3.1694655    1.5613984   514876 
 4377000    1.2194766   -3.1695738   -1.6097883   0.10820116   -3.1695738    1.5597855   514901 
 4378000    1.2192081   -3.1693265    -1.610054    0.1008249   -3.1693265    1.5592724   514957 
 4379000    1.2206314   -3.1700514   -1.6090041   0.10394776   -3.1700514    1.5610473   514972 
 4380000    1.2199609   -3.1702043    -1.610166   0.10963935   -3.1702043    1.5600383   515022 
 4381000    1.2201158   -3.1712972   -1.6111365   0.10424363   -3.1712972    1.5601607   515047 
 4382000    1.2196068   -3.1701424   -1.6107415   0.10213437   -3.1701424    1.5594008   515083 
 4383000    1.2180299   -3.1684731   -1.6111641   0.10385182   -3.1684731     1.557309   515108 
 4384000    1.2191185   -3.1702518   -1.6116388   0.10239208   -3.1702518     1.558613   515137 
 4385000    1.2183409   -3.1704935   -1.6129955  0.099239623   -3.1704935    1.5574979   515177 
 4386000    1.2200832   -3.1718292   -1.6122402  0.098419155   -3.1718292     1.559589   515222 
 4387000    1.2190062   -3.1700087   -1.6119505   0.10927317   -3.1700087    1.5580582   515273 
 4388000    1.2189017   -3.1683871   -1.6105653   0.10288177   -3.1683871    1.5578218   515307 
 4389000    1.2184493   -3.1679614   -1.6107843   0.09935079   -3.1679614    1.5571771   515329 
 4390000    1.2195597   -3.1689946   -1.6105646   0.10553965   -3.1689946    1.5584299   515384 
 4391000    1.2189792   -3.1683357   -1.6108109   0.10101266   -3.1683357    1.5575248   515438 
 4392000    1.2212893   -3.1707803   -1.6104037   0.10237374   -3.1707803    1.5603766   515471 
 4393000    1.2207805   -3.1705741   -1.6109746   0.10515353   -3.1705741    1.5595995   515513 
 4394000     1.221412   -3.1715001   -1.6112148  0.096528646   -3.1715001    1.5602853   515553 
 4395000    1.2194975   -3.1698476   -1.6121349  0.098693383   -3.1698476    1.5577127   515595 
 4396000    1.2201547   -3.1710561   -1.6125554  0.096368415   -3.1710561    1.5585007   515612 
 4397000    1.2200903   -3.1699349    -1.611586  0.099300781   -3.1699349     1.558349   515635 
 4398000    1.2197122   -3.1695894   -1.6118653   0.10299858   -3.1695894     1.557724   515682 
 4399000    1.2199786   -3.1712033   -1.6133353   0.10185423   -3.1712033     1.557868   515747 
 4400000    1.2213044   -3.1722024   -1.6127503   0.10401203   -3.1722024    1.5594521   515783 
 4401000    1.2208678   -3.1705571   -1.6117894    0.1017282   -3.1705571    1.5587677   515825 
 4402000    1.2215621   -3.1705895   -1.6110171  0.099823655   -3.1705895    1.5595724   515852 
 4403000    1.2200627   -3.1697651   -1.6123031  0.098068173   -3.1697651     1.557462   515917 
 4404000     1.219833   -3.1689386   -1.6119419   0.10045547   -3.1689386    1.5569967   515974 
 4405000    1.2201982   -3.1698293   -1.6124479  0.099571815   -3.1698293    1.5573814   516001 
 4406000    1.2197845   -3.1688411   -1.6121568   0.10737601   -3.1688411    1.5566843   516057 
 4407000    1.2209297   -3.1714185   -1.6134266  0.099518429   -3.1714185    1.5579919   516108 
 4408000    1.2220673   -3.1724847   -1.6132073    0.1022471   -3.1724847    1.5592774   516163 
 4409000    1.2212523   -3.1715867    -1.613476   0.10043432   -3.1715867    1.5581107   516205 
 4410000    1.2209172   -3.1703055    -1.612746    0.1102134   -3.1703055    1.5575595   516246 
 4411000    1.2228338   -3.1737942   -1.6139286   0.10453618   -3.1737942    1.5598656   516292 
 4412000     1.221812   -3.1718538   -1.6134516   0.10497567   -3.1718538    1.5584021   516345 
 4413000    1.2215174   -3.1704902   -1.6125965  0.099111846   -3.1704902    1.5578937   516389 
 4414000    1.2230279    -3.171609    -1.611961   0.10024635    -3.171609     1.559648   516446 
 4415000    1.2229033     -3.17159   -1.6122308  0.097280135     -3.17159    1.5593593   516489 
 4416000     1.222458    -3.170696   -1.6121007    0.1026633    -3.170696    1.5585953   516554 
 4417000    1.2225187   -3.1709567   -1.6123715   0.10353774   -3.1709567    1.5585852   516583 
 4418000    1.2238506   -3.1727224   -1.6125389   0.10064247   -3.1727224    1.5601835   516616 
 4419000    1.2230956   -3.1717717   -1.6126171  0.098522786   -3.1717717    1.5591546   516638 
 4420000    1.2236726   -3.1730444   -1.6132419   0.10543914   -3.1730444    1.5598026   516667 
 4421000     1.224514   -3.1740284   -1.6132349    0.1053462   -3.1740284    1.5607936   516694 
 4422000    1.2231493   -3.1731126   -1.6142184    0.1032844   -3.1731126    1.5588942   516747 
 4423000    1.2238596   -3.1740433   -1.6143556  0.098161325   -3.1740433    1.5596878   516784 
 4424000    1.2214245   -3.1713462    -1.614837   0.10275459   -3.1713462    1.5565092   516809 
 4425000    1.2236414   -3.1748002   -1.6155353  0.099805501   -3.1748002    1.5592648   516832 
 4426000     1.223426   -3.1744552   -1.6155613   0.09916599   -3.1744552    1.5588939   516864 
 4427000    1.2241293   -3.1741596   -1.6144782   0.10844403   -3.1741596    1.5596814   516900 
 4428000    1.2224308   -3.1735637   -1.6161157    0.1021759   -3.1735637     1.557448   516923 
 4429000    1.2224363   -3.1737087   -1.6163923   0.10227736   -3.1737087    1.5573164   516969 
 4430000     1.223567    -3.174974   -1.6163799  0.099905287    -3.174974    1.5585941   517023 
 4431000    1.2219482   -3.1729557   -1.6164387  0.098878714   -3.1729557     1.556517   517028 
 4432000    1.2232788   -3.1745324    -1.616438   0.10220662   -3.1745324    1.5580944   517067 
 4433000    1.2232999   -3.1750021   -1.6169321   0.10110589   -3.1750021      1.55807   517084 
 4434000    1.2232873   -3.1758475   -1.6179532   0.10240523   -3.1758475    1.5578942   517137 
 4435000    1.2236534   -3.1756659   -1.6173536  0.098945355   -3.1756659    1.5583123   517153 
 4436000    1.2242533   -3.1766855   -1.6177871   0.10132041   -3.1766855    1.5588984   517212 
 4437000    1.2244715   -3.1757871   -1.6167043   0.10226968   -3.1757871    1.5590828   517243 
 4438000    1.2256384   -3.1755345   -1.6150987    0.1007106   -3.1755345    1.5604358   517287 
 4439000    1.2239514   -3.1750686   -1.6168528   0.10413283   -3.1750686    1.5582158   517311 
 4440000    1.2245061   -3.1753891   -1.6166208   0.10921519   -3.1753891    1.5587683   517362 
 4441000    1.2236033   -3.1748895    -1.617424   0.10362484   -3.1748895    1.5574655   517413 
 4442000    1.2245286   -3.1759492   -1.6175048   0.10188852   -3.1759492    1.5584444   517479 
 4443000    1.2250308   -3.1777661   -1.6188753  0.098670497   -3.1777661    1.5588909   517543 
 4444000    1.2246835   -3.1773394   -1.6189868  0.098496849   -3.1773394    1.5583526   517575 
 4445000    1.2251887   -3.1777742   -1.6189686  0.097497682   -3.1777742    1.5588056   517638 
 4446000    1.2248176   -3.1756052   -1.6174644   0.10168486   -3.1756052    1.5581408   517702 
 4447000    1.2240222   -3.1745288   -1.6175082   0.10401086   -3.1745288    1.5570207   517738 
 4448000    1.2253476   -3.1765117   -1.6178622    0.1014794   -3.1765117    1.5586495   517757 
 4449000    1.2247199   -3.1733943   -1.6156786    0.1003048   -3.1733943    1.5577157   517802 
 4450000    1.2248805   -3.1743729   -1.6166064   0.10044211   -3.1743729    1.5577665   517853 
 4451000    1.2253168   -3.1750035   -1.6167724   0.10475677   -3.1750035    1.5582311   517883 
 4452000    1.2258078   -3.1746392   -1.6159102   0.10982253   -3.1746392     1.558729   517925 
 4453000    1.2272036   -3.1771075   -1.6167572   0.10513304   -3.1771075    1.5603503   517976 
 4454000    1.2264277   -3.1747108   -1.6154975   0.10552757   -3.1747108    1.5592132   518026 
 4455000    1.2267843   -3.1757661   -1.6162169   0.10242419   -3.1757661    1.5595492   518065 
 4456000    1.2276872   -3.1762852   -1.6157026   0.10484428   -3.1762852    1.5605826   518103 
 4457000    1.2270934   -3.1747507   -1.6150132   0.10253802   -3.1747507    1.5597375   518133 
 4458000    1.2271261   -3.1741913   -1.6144664   0.10509458   -3.1741913    1.5597249   518151 
 4459000    1.2282386   -3.1758345    -1.614798   0.10448936   -3.1758345    1.5610365   518185 
 4460000    1.2261991   -3.1745392   -1.6162031   0.10425589   -3.1745392    1.5583361   518221 
 4461000    1.2278759   -3.1756103   -1.6152396   0.10620435   -3.1756103    1.5603707   518253 
 4462000    1.2289334     -3.17726   -1.6156569    0.1002414     -3.17726    1.5616031   518290 
 4463000    1.2276941   -3.1760204   -1.6160945   0.10493994   -3.1760204    1.5599259   518324 
 4464000    1.2252657   -3.1729138   -1.6161966   0.10715086   -3.1729138    1.5567172   518365 
 4465000    1.2273283   -3.1758139   -1.6165934   0.11123485   -3.1758139    1.5592205   518404 
 4466000     1.225052   -3.1741267   -1.6179512   0.10562201   -3.1741267    1.5561755   518455 
 4467000    1.2269669   -3.1766062   -1.6181274   0.10269744   -3.1766062    1.5584788   518498 
 4468000    1.2248578   -3.1739851   -1.6182543   0.10750617   -3.1739851    1.5557309   518521 
 4469000    1.2264162   -3.1761802   -1.6186202   0.10518033   -3.1761802      1.55756   518571 
 4470000    1.2262495   -3.1757062     -1.61852    0.1000665   -3.1757062    1.5571862   518625 
 4471000    1.2278219   -3.1777794   -1.6186988    0.1057008   -3.1777794    1.5590807   518659 
 4472000    1.2287176   -3.1787448   -1.6186381   0.09986525   -3.1787448    1.5601067   518696 
 4473000    1.2281783   -3.1784889   -1.6192052   0.11305762   -3.1784889    1.5592837   518742 
 4474000    1.2287528   -3.1787101   -1.6188023  0.096312113   -3.1787101    1.5599078   518777 
 4475000    1.2272335   -3.1773736   -1.6195777   0.10133254   -3.1773736    1.5577959   518838 
 4476000    1.2270907   -3.1762696    -1.618751    0.1038412   -3.1762696    1.5575185   518870 
 4477000    1.2274558    -3.176121   -1.6182861   0.10537009    -3.176121    1.5578349   518919 
 4478000    1.2297357   -3.1793268   -1.6187127   0.09598879   -3.1793268    1.5606141   518957 
 4479000    1.2303835   -3.1801293   -1.6188164  0.098254392   -3.1801293    1.5613129   518998 
 4480000    1.2287768   -3.1786252   -1.6194563   0.10080113   -3.1786252     1.559169   519033 
 4481000    1.2274878   -3.1788069   -1.6214206  0.099127348   -3.1788069    1.5573862   519082 
 4482000     1.229144   -3.1796152   -1.6202777   0.10469782   -3.1796152    1.5593375   519132 
 4483000    1.2284808   -3.1779256   -1.6196247   0.10584754   -3.1779256    1.5583009   519197 
 4484000    1.2284625   -3.1785601   -1.6204054  0.095079362   -3.1785601    1.5581546   519238 
 4485000    1.2279622   -3.1794389   -1.6219728   0.10375213   -3.1794389    1.5574661   519256 
 4486000    1.2285664    -3.178641   -1.6205766   0.10230855    -3.178641    1.5580644   519312 
 4487000    1.2281979   -3.1777194   -1.6202873   0.10546232   -3.1777194    1.5574321   519367 
 4488000    1.2301889   -3.1793668    -1.619515   0.10239322   -3.1793668    1.5598518   519402 
 4489000     1.229371   -3.1785945   -1.6198759   0.10458588   -3.1785945    1.5587186   519434 
 4490000    1.2274844   -3.1773507   -1.6211769   0.10450299   -3.1773507    1.5561738   519485 
 4491000    1.2289486   -3.1777298   -1.6198676     0.104501   -3.1777298    1.5578622   519541 
 4492000    1.2295367   -3.1791369   -1.6206073   0.10047162   -3.1791369    1.5585297   519567 
 4493000    1.2293289   -3.1790617   -1.6208854   0.09771088   -3.1790617    1.5581763   519597 
 4494000     1.230084   -3.1800801   -1.6209708   0.10219867   -3.1800801    1.5591093   519605 
 4495000     1.229313   -3.1794293   -1.6214651   0.10364891   -3.1794293    1.5579642   519661 
 4496000    1.2298973   -3.1810271   -1.6224484   0.10708626   -3.1810271    1.5585787   519703 
 4497000    1.2297426   -3.1809155   -1.6226497   0.10367516   -3.1809155    1.5582658   519742 
 4498000    1.2301886   -3.1813151    -1.622616  0.096793117   -3.1813151     1.558699   519786 
 4499000    1.2311808   -3.1820094   -1.6222033   0.10091506   -3.1820094    1.5598061   519836 
 4500000    1.2308005   -3.1823965   -1.6231292   0.10891902   -3.1823965    1.5592673   519855 
 4501000     1.229881   -3.1809536    -1.622983   0.10510909   -3.1809536    1.5579706   519899 
 4502000    1.2327147   -3.1841987   -1.6227437   0.10311655   -3.1841987     1.561455   519934 
 4503000    1.2302539   -3.1806511   -1.6224121  0.095388946   -3.1806511    1.5582391   519967 
 4504000    1.2312817   -3.1825778   -1.6231869   0.10563274   -3.1825778     1.559391   520017 
 4505000    1.2311172   -3.1829058   -1.6238101   0.10554455   -3.1829058    1.5590957   520046 
 4506000    1.2318543    -3.182747   -1.6229069   0.10502581    -3.182747    1.5598402   520109 
 4507000     1.231529   -3.1845702   -1.6252828    0.1046011   -3.1845702    1.5592874   520156 
 4508000    1.2316045   -3.1842124   -1.6249703    0.1035805   -3.1842124    1.5592421   520203 
 4509000    1.2316177   -3.1846675   -1.6254417   0.10686199   -3.1846675    1.5592258   520214 
 4510000    1.2311258   -3.1832291    -1.624668    0.1031058   -3.1832291    1.5585611   520228 
 4511000    1.2331453   -3.1867229   -1.6257492  0.097433406   -3.1867229    1.5609737   520276 
 4512000    1.2322083    -3.184319   -1.6246663   0.10531848    -3.184319    1.5596528   520321 
 4513000    1.2313082   -3.1833281   -1.6249225   0.10604187   -3.1833281    1.5584056   520357 
 4514000    1.2320729   -3.1829132   -1.6236986   0.10757592   -3.1829132    1.5592147   520410 
 4515000    1.2320631   -3.1836188   -1.6244645   0.10223085   -3.1836188    1.5591543   520426 
 4516000    1.2324363   -3.1841855   -1.6248105   0.10449934   -3.1841855    1.5593749   520510 
 4517000    1.2319846   -3.1823689   -1.6236345   0.10666988   -3.1823689    1.5587344   520533 
 4518000    1.2313788   -3.1809017   -1.6230085   0.10723961   -3.1809017    1.5578931   520558 
 4519000    1.2325363   -3.1827603   -1.6235854   0.10301481   -3.1827603    1.5591749   520619 
 4520000     1.231179    -3.181292   -1.6239897    0.1074966    -3.181292    1.5573024   520671 
 4521000    1.2315931   -3.1824544   -1.6247031   0.10467843   -3.1824544    1.5577514   520696 
 4522000    1.2330528    -3.183882   -1.6244282   0.10204188    -3.183882    1.5594538   520744 
 4523000    1.2323201   -3.1827749   -1.6243465  0.099495413   -3.1827749    1.5584284   520777 
 4524000    1.2312207   -3.1810258   -1.6240953   0.10083093   -3.1810258    1.5569305   520813 
 4525000    1.2325191   -3.1830911   -1.6246264   0.10666589   -3.1830911    1.5584647   520849 
 4526000    1.2339963   -3.1833506    -1.623069    0.1019962   -3.1833506    1.5602816   520866 
 4527000    1.2341316   -3.1825435   -1.6221897   0.10296332   -3.1825435    1.5603538   520899 
 4528000    1.2339257   -3.1830894   -1.6230947   0.11029217   -3.1830894    1.5599947   520932 
 4529000    1.2345256    -3.183553   -1.6229168   0.10118864    -3.183553    1.5606362   520971 
 4530000    1.2330247   -3.1820765   -1.6234124    0.1031487   -3.1820765     1.558664   520996 
 4531000    1.2335899    -3.182477   -1.6232361  0.098305359    -3.182477    1.5592409   521042 
 4532000    1.2329549   -3.1814203   -1.6230568   0.10530501   -3.1814203    1.5583635   521067 
 4533000    1.2338445   -3.1821615   -1.6227634   0.10719383   -3.1821615    1.5593981   521097 
 4534000    1.2346284   -3.1830027   -1.6227427   0.10016489   -3.1830027      1.56026   521140 
 4535000    1.2345637    -3.181922   -1.6219293   0.10537207    -3.181922    1.5599927   521202 
 4536000    1.2350251   -3.1830528    -1.622549   0.10141534   -3.1830528    1.5605038   521226 
 4537000    1.2340583   -3.1808762   -1.6217225   0.10604875   -3.1808762    1.5591537   521269 
 4538000    1.2352767   -3.1824249   -1.6218278   0.10414983   -3.1824249    1.5605972   521301 
 4539000    1.2353471   -3.1826207   -1.6220424   0.10282594   -3.1826207    1.5605784   521337 
 4540000    1.2350892   -3.1821981   -1.6220473   0.10575457   -3.1821981    1.5601509   521371 
 4541000    1.2359722    -3.184243   -1.6230756   0.10006988    -3.184243    1.5611674   521404 
 4542000    1.2356991   -3.1830379    -1.622401   0.10229584   -3.1830379    1.5606369   521466 
 4543000    1.2340814   -3.1817936   -1.6233433   0.10147748   -3.1817936    1.5584503   521514 
 4544000    1.2346243   -3.1830597   -1.6240014  0.096777422   -3.1830597    1.5590583   521540 
 4545000     1.235838   -3.1830627   -1.6226125   0.10855634   -3.1830627    1.5604502   521587 
 4546000    1.2348418   -3.1810729   -1.6219253   0.11146182   -3.1810729    1.5591475   521602 
 4547000    1.2349727   -3.1835945   -1.6244551   0.10262233   -3.1835945    1.5591395   521660 
 4548000    1.2355995   -3.1841537   -1.6242617   0.10160276   -3.1841537    1.5598919   521673 
 4549000    1.2343368   -3.1830348   -1.6248744   0.10475883   -3.1830348    1.5581604   521719 
 4550000    1.2346105   -3.1838658   -1.6254405   0.10132915   -3.1838658    1.5584253   521746 
 4551000    1.2348771   -3.1839186   -1.6252823   0.10783013   -3.1839186    1.5586363   521788 
 4552000    1.2352071   -3.1838726   -1.6249692   0.10067539   -3.1838726    1.5589034   521838 
 4553000    1.2352188   -3.1845381   -1.6257065    0.1055678   -3.1845381    1.5588315   521867 
 4554000    1.2359986   -3.1851626   -1.6254397   0.10024691   -3.1851626     1.559723   521898 
 4555000     1.237218   -3.1872187   -1.6261364    0.1008753   -3.1872187    1.5610823   521958 
 4556000    1.2350912   -3.1848813    -1.626578   0.10731669   -3.1848813    1.5583033   521990 
 4557000    1.2360451   -3.1858996   -1.6265243   0.10391517   -3.1858996    1.5593753   522034 
 4558000    1.2369072   -3.1869692    -1.626593   0.10189965   -3.1869692    1.5603762   522063 
 4559000    1.2360159   -3.1855244   -1.6263054   0.10746503   -3.1855244     1.559219   522074 
 4560000     1.235839   -3.1857654    -1.626889   0.10785018   -3.1857654    1.5588764   522114 
 4561000    1.2363996   -3.1857408    -1.626211   0.10350039   -3.1857408    1.5595298   522132 
 4562000    1.2377959   -3.1870039   -1.6258444   0.10313469   -3.1870039    1.5611595   522176 
 4563000    1.2381998   -3.1869649   -1.6253917   0.10750075   -3.1869649    1.5615732   522208 
 4564000    1.2392532   -3.1880497   -1.6253006    0.1049669   -3.1880497    1.5627491   522259 
 4565000    1.2389257   -3.1874063   -1.6251809   0.10868142   -3.1874063    1.5622254   522296 
 4566000     1.239335   -3.1887331   -1.6260933   0.10741059   -3.1887331    1.5626397   522330 
 4567000    1.2406362   -3.1895623   -1.6253866  0.097186142   -3.1895623    1.5641756   522365 
 4568000    1.2385774   -3.1870944   -1.6255743   0.10567929   -3.1870944    1.5615201   522385 
 4569000    1.2383557   -3.1868393    -1.625772   0.10149695   -3.1868393    1.5610673   522443 
 4570000    1.2372344   -3.1867417   -1.6271566   0.10080872   -3.1867417    1.5595851   522466 
 4571000    1.2373029   -3.1894564   -1.6298565   0.10505194   -3.1894564    1.5595998   522490 
 4572000    1.2365032   -3.1884739   -1.6300282  0.096801622   -3.1884739    1.5584457   522539 
 4573000    1.2365099   -3.1871103   -1.6288321   0.10502588   -3.1871103    1.5582782   522598 
 4574000    1.2373186   -3.1876924   -1.6284278   0.10447297   -3.1876924    1.5592645   522609 
 4575000     1.236699    -3.188235   -1.6298706  0.099125894    -3.188235    1.5583644   522649 
 4576000    1.2373951   -3.1890865   -1.6298837  0.099350121   -3.1890865    1.5592028   522662 
 4577000    1.2367678   -3.1867138   -1.6283432   0.10212073   -3.1867138    1.5583706   522676 
 4578000    1.2372017   -3.1874088    -1.628584   0.10550555   -3.1874088    1.5588248   522707 
 4579000    1.2394238   -3.1901738   -1.6286029   0.10454862   -3.1901738    1.5615709   522725 
 4580000     1.237195   -3.1879454   -1.6292304   0.10628348   -3.1879454    1.5587151   522741 
 4581000    1.2375809    -3.189214   -1.6301112   0.10218021    -3.189214    1.5591028   522774 
 4582000    1.2366215    -3.188333   -1.6305312   0.10419633    -3.188333    1.5578018   522805 
 4583000    1.2368735   -3.1879782   -1.6300229   0.10372479   -3.1879782    1.5579553   522860 
 4584000    1.2363304   -3.1876461    -1.630482   0.10259873   -3.1876461     1.557164   522896 
 4585000    1.2371786   -3.1890603   -1.6308756   0.09660324   -3.1890603    1.5581847   522912 
 4586000    1.2388416   -3.1889808   -1.6288299   0.10686854   -3.1889808    1.5601509   522955 
 4587000    1.2402659   -3.1911071   -1.6292402   0.10169219   -3.1911071    1.5618669   522981 
 4588000    1.2395414    -3.189604   -1.6288286    0.1035848    -3.189604    1.5607755   523041 
 4589000    1.2400572   -3.1904868   -1.6291724   0.10187866   -3.1904868    1.5613145   523078 
 4590000    1.2395039   -3.1892032   -1.6286837   0.10140521   -3.1892032    1.5605195   523111 
 4591000     1.240938   -3.1894688   -1.6272574   0.10556482   -3.1894688    1.5622115   523149 
 4592000    1.2406496   -3.1902111   -1.6284164   0.10671256   -3.1902111    1.5617947   523167 
 4593000    1.2409171   -3.1903649   -1.6283111   0.10652885   -3.1903649    1.5620537   523193 
 4594000    1.2418845   -3.1914612   -1.6283033   0.10004561   -3.1914612    1.5631579   523231 
 4595000    1.2403073   -3.1901924   -1.6290942   0.10089649   -3.1901924    1.5610982   523256 
 4596000    1.2377422   -3.1871829   -1.6293579   0.10363556   -3.1871829     1.557825   523271 
 4597000    1.2386149   -3.1891899   -1.6303111   0.10165819   -3.1891899    1.5588787   523286 
 4598000    1.2390343   -3.1889444   -1.6296184   0.10375898   -3.1889444     1.559326   523313 
 4599000    1.2397559   -3.1895844   -1.6294456   0.10713727   -3.1895844    1.5601388   523345 
 4600000    1.2389053    -3.190427   -1.6314956  0.099428444    -3.190427    1.5589314   523391 
 4601000    1.2387112   -3.1902786   -1.6316987  0.099298456   -3.1902786    1.5585799   523427 
 4602000    1.2386544   -3.1897505   -1.6313879   0.10704469   -3.1897505    1.5583626   523476 
 4603000    1.2391149   -3.1902863   -1.6313771   0.10054479   -3.1902863    1.5589092   523487 
 4604000    1.2393877   -3.1902822   -1.6311222   0.10128775   -3.1902822      1.55916   523518 
 4605000    1.2401178   -3.1917837   -1.6318392   0.10420906   -3.1917837    1.5599445   523563 
 4606000    1.2376373    -3.189317   -1.6325582   0.10453317    -3.189317    1.5567587   523585 
 4607000    1.2393646   -3.1900842   -1.6311736   0.10248553   -3.1900842    1.5589106   523592 
 4608000    1.2395755   -3.1897698   -1.6306982   0.10668855   -3.1897698    1.5590717   523627 
 4609000    1.2420163    -3.191939   -1.6299197   0.10695946    -3.191939    1.5620193   523668 
 4610000    1.2409974   -3.1908876   -1.6302808   0.10799326   -3.1908876    1.5606068   523712 
 4611000    1.2407769   -3.1893379   -1.6291246   0.10906337   -3.1893379    1.5602133   523751 
 4612000    1.2417064   -3.1910067   -1.6297319   0.10766722   -3.1910067    1.5612748   523787 
 4613000    1.2422962     -3.19258   -1.6306323   0.10428405     -3.19258    1.5619478   523810 
 4614000    1.2418985   -3.1914347   -1.6301002   0.10848963   -3.1914347    1.5613344   523848 
 4615000    1.2425369   -3.1924671   -1.6304642   0.10820746   -3.1924671    1.5620029   523893 
 4616000    1.2410243   -3.1906344   -1.6306312   0.10515381   -3.1906344    1.5600031   523926 
 4617000    1.2418191   -3.1921097   -1.6311581   0.10015778   -3.1921097    1.5609516   523943 
 4618000    1.2409471   -3.1907118   -1.6309962   0.10125354   -3.1907118    1.5597156   523990 
 4619000    1.2411716   -3.1900752   -1.6301013   0.10364912   -3.1900752    1.5599739   523998 
 4620000    1.2420038   -3.1920025    -1.631069   0.10565409   -3.1920025    1.5609334   524027 
 4621000    1.2423762    -3.192489   -1.6311502     0.103594    -3.192489    1.5613389   524048 
 4622000    1.2416749   -3.1925387   -1.6321823   0.10877109   -3.1925387    1.5603564   524082 
 4623000    1.2417018   -3.1927957   -1.6325455   0.10440279   -3.1927957    1.5602502   524129 
 4624000    1.2409101   -3.1927207   -1.6335575   0.10388637   -3.1927207    1.5591632   524160 
 4625000    1.2395553   -3.1911738      -1.6339    0.1026261   -3.1911738    1.5572738   524223 
 4626000    1.2411621   -3.1930145   -1.6337845   0.10028921   -3.1930145      1.55923   524244 
 4627000    1.2404545   -3.1933477   -1.6351166  0.098142734   -3.1933477    1.5582311   524281 
 4628000    1.2422271   -3.1950943   -1.6347318   0.10531204   -3.1950943    1.5603626   524313 
 4629000    1.2408036   -3.1923521     -1.63384   0.10612651   -3.1923521    1.5585121   524334 
 4630000    1.2426198   -3.1944633   -1.6338219   0.10771602   -3.1944633    1.5606414   524385 
 4631000    1.2416344    -3.193634   -1.6343193   0.10987548    -3.193634    1.5593147   524415 
 4632000    1.2421149   -3.1934315   -1.6336294   0.10491556   -3.1934315    1.5598021   524454 
 4633000    1.2417714   -3.1931639   -1.6338854   0.11105602   -3.1931639    1.5592785   524485 
 4634000    1.2431878   -3.1952995   -1.6343941   0.10299466   -3.1952995    1.5609054   524536 
 4635000    1.2436945   -3.1956763   -1.6342628   0.10864029   -3.1956763    1.5614136   524579 
 4636000    1.2422009   -3.1939603   -1.6345408   0.10328007   -3.1939603    1.5594195   524619 
 4637000    1.2426275   -3.1937893   -1.6339175   0.11182871   -3.1937893    1.5598718   524647 
 4638000    1.2439767   -3.1961194   -1.6346492   0.10998774   -3.1961194    1.5614702   524679 
 4639000    1.2421628   -3.1925809   -1.6335539   0.10469639   -3.1925809     1.559027   524735 
 4640000    1.2447149   -3.1962284    -1.634034   0.10090293   -3.1962284    1.5621943   524747 
 4641000    1.2444428   -3.1957188   -1.6340356   0.10655039   -3.1957188    1.5616832   524804 
 4642000    1.2418437   -3.1927764   -1.6345004   0.10356349   -3.1927764     1.558276   524853 
 4643000    1.2421337    -3.193926   -1.6354138   0.10856517    -3.193926    1.5585122   524896 
 4644000    1.2438997    -3.194768   -1.6341351  0.099721803    -3.194768    1.5606329   524928 
 4645000    1.2441075   -3.1955871   -1.6348065   0.10316356   -3.1955871    1.5607806   524966 
 4646000    1.2431916   -3.1944962   -1.6349537   0.10298582   -3.1944962    1.5595424   524996 
 4647000    1.2422295   -3.1937748   -1.6355431   0.10591273   -3.1937748    1.5582316   525031 
 4648000     1.244041   -3.1958613   -1.6354733   0.10042843   -3.1958613    1.5603881   525070 
 4649000    1.2430679    -3.193396   -1.6343503   0.10754185    -3.193396    1.5590457   525111 
 4650000    1.2425012   -3.1932404   -1.6350211   0.10426955   -3.1932404    1.5582193   525150 
 4651000    1.2461005   -3.1973919   -1.6347777   0.10410373   -3.1973919    1.5626142   525190 
 4652000    1.2439953   -3.1950673   -1.6351139   0.10504991   -3.1950673    1.5599534   525197 
 4653000    1.2423311   -3.1944236   -1.6366372    0.1046263   -3.1944236    1.5577865   525224 
 4654000    1.2436739   -3.1952743    -1.635905   0.10859553   -3.1952743    1.5593693   525258 
 4655000      1.24505   -3.1969813   -1.6359312   0.10159586   -3.1969813    1.5610501   525273 
 4656000    1.2437618   -3.1968016   -1.6374677   0.10296466   -3.1968016     1.559334   525307 
 4657000    1.2435514    -3.196354   -1.6373313   0.10786491    -3.196354    1.5590227   525323 
 4658000    1.2433161   -3.1953021   -1.6365831   0.10800306   -3.1953021    1.5587189   525326 
 4659000    1.2437733   -3.1965904   -1.6373963   0.10712352   -3.1965904    1.5591941   525359 
 4660000    1.2426749   -3.1949229   -1.6371768   0.10193416   -3.1949229     1.557746   525383 
 4661000    1.2431327   -3.1957108   -1.6374918   0.10515331   -3.1957108     1.558219   525417 
 4662000    1.2441721   -3.1983772   -1.6390185   0.10448852   -3.1983772    1.5593587   525472 
 4663000    1.2431355   -3.1967086   -1.6388388  0.099581383   -3.1967086    1.5578697   525536 
 4664000    1.2444372   -3.1972038   -1.6378007   0.10304018   -3.1972038    1.5594031   525569 
 4665000     1.244695    -3.197084   -1.6374944   0.10811893    -3.197084    1.5595896   525615 
 4666000    1.2441304   -3.1985675   -1.6396823   0.10507149   -3.1985675    1.5588852   525614 
 4667000    1.2446276   -3.1983668   -1.6389358   0.10387237   -3.1983668    1.5594309   525640 
 4668000    1.2447027   -3.1986173   -1.6392287   0.10279448   -3.1986173    1.5593886   525686 
 4669000    1.2453761   -3.1990946   -1.6390316   0.10680628   -3.1990946    1.5600631   525743 
 4670000    1.2445288   -3.1981004   -1.6392322   0.10445119   -3.1981004    1.5588682   525788 
 4671000    1.2446456   -3.1978496   -1.6389626   0.10318819   -3.1978496     1.558887   525831 
 4672000    1.2440641   -3.1981818   -1.6401238   0.10251481   -3.1981818     1.558058   525865 
 4673000    1.2438866   -3.1987546   -1.6410788   0.10324914   -3.1987546    1.5576758   525919 
 4674000    1.2443199   -3.1991619   -1.6410679   0.10339879   -3.1991619     1.558094   525961 
 4675000    1.2442024   -3.1991717   -1.6412368  0.099670606   -3.1991717    1.5579349   525965 
 4676000     1.245594   -3.1999353   -1.6402816   0.10279226   -3.1999353    1.5596537   525973 
 4677000    1.2434994   -3.1971792   -1.6402755   0.10617559   -3.1971792    1.5569037   526016 
 4678000    1.2451838   -3.1994368    -1.640513  0.098904632   -3.1994368    1.5589238   526046 
 4679000    1.2461669   -3.2000233   -1.6399548   0.11012075   -3.2000233    1.5600685   526075 
 4680000    1.2458907   -3.2001391   -1.6405794  0.099631308   -3.2001391    1.5595597   526130 
 4681000    1.2442924   -3.1984749   -1.6410432  0.096392749   -3.1984749    1.5574318   526173 
 4682000    1.2464077   -3.2008786   -1.6408525   0.10011328   -3.2008786    1.5600261   526191 
 4683000     1.245184   -3.2000069   -1.6415954   0.10667479   -3.2000069    1.5584115   526219 
 4684000     1.244959   -3.2006148   -1.6425768   0.10350311   -3.2006148    1.5580381   526250 
 4685000    1.2431739   -3.1974834   -1.6417651   0.10541233   -3.1974834    1.5557183   526279 
 4686000    1.2445891   -3.1997768   -1.6423643   0.10309504   -3.1997768    1.5574125   526305 
 4687000    1.2460434    -3.201911   -1.6427676   0.10643941    -3.201911    1.5591434   526335 
 4688000     1.245906   -3.1997877   -1.6409644   0.10568236   -3.1997877    1.5588233   526385 
 4689000    1.2465518   -3.2014264   -1.6418928   0.10427954   -3.2014264    1.5595336   526418 
 4690000    1.2463275   -3.1999785   -1.6408765   0.10125821   -3.1999785    1.5591019   526469 
 4691000    1.2473983   -3.2012939   -1.6409443   0.10277781   -3.2012939    1.5603496   526500 
 4692000    1.2473835   -3.2008262   -1.6405633   0.10763067   -3.2008262    1.5602628   526523 
 4693000     1.245784    -3.199134   -1.6409221   0.10778935    -3.199134    1.5582118   526540 
 4694000    1.2475312    -3.200149   -1.6398703   0.11134269    -3.200149    1.5602787   526580 
 4695000    1.2471664   -3.1995431   -1.6398451   0.10822746   -3.1995431    1.5596981   526622 
 4696000    1.2480579   -3.1996825   -1.6389851   0.11069554   -3.1996825    1.5606974   526661 
 4697000    1.2504624    -3.203727   -1.6400999   0.10769981    -3.203727    1.5636271   526687 
 4698000    1.2478812   -3.2009839   -1.6407474   0.10669162   -3.2009839    1.5602365   526742 
 4699000    1.2477806    -3.201072   -1.6410472   0.10038744    -3.201072    1.5600248   526771 
 4700000    1.2482216   -3.2020544   -1.6415967   0.10545771   -3.2020544    1.5604576   526811 
 4701000    1.2479543   -3.2007859   -1.6408074   0.10360558   -3.2007859    1.5599785   526860 
 4702000    1.2468316   -3.1990396   -1.6405888   0.10655514   -3.1990396    1.5584508   526902 
 4703000    1.2476626   -3.2011797   -1.6418145   0.10887796   -3.2011797    1.5593652   526944 
 4704000    1.2458531   -3.1996597   -1.6426684     0.106064   -3.1996597    1.5569913   526982 
 4705000    1.2456926   -3.1992507   -1.6425338   0.10133874   -3.1992507    1.5567169   527007 
 4706000    1.2475233   -3.2002899    -1.641294   0.10083218   -3.2002899    1.5589958   527010 
 4707000    1.2497011   -3.2018646   -1.6402243    0.1052259   -3.2018646    1.5616403   527036 
 4708000    1.2486038   -3.2000396   -1.6398356   0.10815568   -3.2000396    1.5602039   527058 
 4709000    1.2496684   -3.2015816   -1.6401421   0.10221115   -3.2015816    1.5614395   527090 
 4710000    1.2483305   -3.1995836   -1.6399076   0.10614917   -3.1995836     1.559676   527121 
 4711000    1.2497775   -3.2023231   -1.6409725   0.10419606   -3.2023231    1.5613506   527166 
 4712000    1.2497531   -3.2011354   -1.6399603    0.1088077   -3.2011354    1.5611751   527215 
 4713000      1.24926   -3.2012671   -1.6408175   0.10698546   -3.2012671    1.5604496   527252 
 4714000     1.247126   -3.2001248   -1.6424206   0.10790128   -3.2001248    1.5577042   527279 
 4715000     1.249242   -3.2022331   -1.6418829   0.10322405   -3.2022331    1.5603502   527278 
 4716000    1.2482836   -3.2009248   -1.6419432   0.10540242   -3.2009248    1.5589816   527336 
 4717000    1.2483468   -3.2027571   -1.6438119  0.098045774   -3.2027571    1.5589452   527375 
 4718000    1.2473787   -3.2014315   -1.6437602   0.10650992   -3.2014315    1.5576712   527397 
 4719000    1.2479478   -3.2024871   -1.6441407   0.10380573   -3.2024871    1.5583464   527409 
 4720000    1.2494819   -3.2038728   -1.6436847   0.10136658   -3.2038728    1.5601882   527434 
 4721000    1.2492248   -3.2030142   -1.6432476  0.099831021   -3.2030142    1.5597666   527468 
 4722000    1.2499486   -3.2033612   -1.6427501    0.1005103   -3.2033612    1.5606111   527488 
 4723000    1.2481419   -3.2024907   -1.6443008   0.10012555   -3.2024907    1.5581899   527544 
 4724000    1.2510997   -3.2052499   -1.6434799   0.10626197   -3.2052499      1.56177   527582 
 4725000    1.2493849   -3.2033895   -1.6438931   0.10511525   -3.2033895    1.5594964   527627 
 4726000    1.2483188   -3.2021062   -1.6440498   0.10469811   -3.2021062    1.5580564   527664 
 4727000    1.2515303   -3.2056586   -1.6436708    0.1064422   -3.2056586    1.5619878   527690 
 4728000    1.2511994   -3.2053358    -1.643838   0.10672521   -3.2053358    1.5614979   527716 
 4729000    1.2503486   -3.2050223   -1.6447223   0.10642425   -3.2050223       1.5603   527762 
 4730000    1.2495521   -3.2043378   -1.6451823   0.11027937   -3.2043378    1.5591555   527813 
 4731000    1.2499316   -3.2046375   -1.6450262   0.11101501   -3.2046375    1.5596113   527819 
 4732000       1.2507   -3.2064225   -1.6459057   0.10608937   -3.2064225    1.5605168   527837 
 4733000    1.2512458   -3.2061821    -1.645076   0.10935583   -3.2061821    1.5611062   527868 
 4734000     1.249899   -3.2048495   -1.6455389   0.10820281   -3.2048495    1.5593106   527907 
 4735000    1.2508049   -3.2059188   -1.6455401   0.10472493   -3.2059188    1.5603787   527928 
 4736000    1.2521176   -3.2075331     -1.64565   0.10432213   -3.2075331    1.5618831   527973 
 4737000    1.2501629   -3.2054432   -1.6460987    0.1013385   -3.2054432    1.5593445   528007 
 4738000    1.2485302   -3.2029455   -1.6456819   0.10668619   -3.2029455    1.5572637   528022 
 4739000    1.2504447   -3.2046518   -1.6450652   0.10268013   -3.2046518    1.5595866   528044 
 4740000    1.2493332   -3.2045368   -1.6463807   0.10071743   -3.2045368    1.5581561   528059 
 4741000     1.249496   -3.2035114   -1.6452378   0.10868218   -3.2035114    1.5582736   528088 
 4742000    1.2487197   -3.2029328   -1.6457099   0.10652768   -3.2029328    1.5572228   528116 
 4743000    1.2514642   -3.2066585    -1.646081   0.10653835   -3.2066585    1.5605774   528139 
 4744000     1.250986   -3.2061575   -1.6462148   0.10606349   -3.2061575    1.5599427   528152 
 4745000     1.249432   -3.2046044   -1.6466969   0.10454903   -3.2046044    1.5579076   528185 
 4746000    1.2497488   -3.2047417    -1.646563     0.103177   -3.2047417    1.5581787   528227 
 4747000     1.249908   -3.2051533   -1.6468647  0.097943554   -3.2051533    1.5582886   528257 
 4748000    1.2496591   -3.2045583   -1.6466478   0.10134161   -3.2045583    1.5579106   528280 
 4749000    1.2495032   -3.2028242   -1.6451906    0.1061994   -3.2028242    1.5576336   528308 
 4750000    1.2515022    -3.204619   -1.6445702   0.10701902    -3.204619    1.5600489   528334 
 4751000    1.2508122   -3.2016704    -1.642582   0.10724147   -3.2016704    1.5590884   528368 
 4752000    1.2518673   -3.2030566   -1.6427594    0.1062041   -3.2030566    1.5602972   528404 
 4753000    1.2508105   -3.2029608   -1.6440516   0.10552019   -3.2029608    1.5589092   528428 
 4754000     1.250813   -3.2043129   -1.6454684   0.10694933   -3.2043129    1.5588445   528451 
 4755000     1.250263   -3.2037403   -1.6456136   0.10291504   -3.2037403    1.5581266   528462 
 4756000    1.2495221   -3.2038395   -1.6467217   0.10882673   -3.2038395    1.5571178   528491 
 4757000    1.2504668   -3.2052711   -1.6470467   0.10493222   -3.2052711    1.5582243   528515 
 4758000    1.2498342   -3.2045226   -1.6471632   0.09684121   -3.2045226    1.5573594   528541 
 4759000    1.2496567   -3.2055533   -1.6485064  0.099782089   -3.2055533    1.5570469   528572 
 4760000    1.2495079   -3.2052829   -1.6485067   0.10366544   -3.2052829    1.5567761   528601 
 4761000    1.2474312   -3.2029721   -1.6489039    0.1020319   -3.2029721    1.5540682   528642 
 4762000     1.250074   -3.2060131   -1.6488175  0.096995463   -3.2060131    1.5571956   528698 
 4763000    1.2492439   -3.2038022   -1.6476759   0.10735632   -3.2038022    1.5561263   528710 
 4764000    1.2521642   -3.2079983   -1.6483995   0.10106498   -3.2079983    1.5595988   528766 
 4765000    1.2514409   -3.2063675   -1.6477992   0.10235554   -3.2063675    1.5585683   528810 
 4766000    1.2504834   -3.2057382   -1.6484125   0.11030249   -3.2057382    1.5573257   528827 
 4767000    1.2499711   -3.2042693   -1.6476963   0.10568627   -3.2042693    1.5565729   528866 
 4768000    1.2503187   -3.2043612   -1.6475086   0.10377741   -3.2043612    1.5568526   528918 
 4769000    1.2524076   -3.2061922   -1.6468417   0.10586985   -3.2061922    1.5593505   528953 
 4770000    1.2514203   -3.2057461   -1.6477486   0.10471847   -3.2057461    1.5579975   528995 
 4771000    1.2514679   -3.2075049   -1.6494746    0.1000075   -3.2075049    1.5580303   529004 
 4772000    1.2500433   -3.2055921   -1.6493972   0.10239146   -3.2055921     1.556195   529025 
 4773000    1.2515918   -3.2074513    -1.649417   0.10150149   -3.2074513    1.5580343   529055 
 4774000    1.2511354   -3.2079399   -1.6505326   0.10205303   -3.2079399    1.5574074   529075 
 4775000    1.2516917   -3.2088695   -1.6508787   0.10149488   -3.2088695    1.5579908   529112 
 4776000    1.2497364   -3.2069092   -1.6513669   0.10206982   -3.2069092    1.5555423   529117 
 4777000    1.2506988   -3.2086637   -1.6520323   0.10509202   -3.2086637    1.5566314   529154 
 4778000    1.2482895   -3.2060153   -1.6525116    0.1039471   -3.2060153    1.5535036   529198 
 4779000    1.2506263   -3.2098542   -1.6535307   0.10234166   -3.2098542    1.5563235   529228 
 4780000    1.2487463   -3.2055691   -1.6516703   0.10276311   -3.2055691    1.5538989   529257 
 4781000    1.2500771   -3.2058884   -1.6504306   0.10407092   -3.2058884    1.5554578   529290 
 4782000    1.2515962   -3.2087358   -1.6514702   0.10544425   -3.2087358    1.5572656   529318 
 4783000    1.2496946   -3.2068891   -1.6520042   0.10865334   -3.2068891    1.5548849   529323 
 4784000    1.2512287   -3.2092412   -1.6525181   0.10066718   -3.2092412    1.5567231   529347 
 4785000     1.249287   -3.2068549   -1.6526092   0.10347015   -3.2068549    1.5542457   529368 
 4786000    1.2517904   -3.2111522    -1.653892  0.096150722   -3.2111522    1.5572601   529402 
 4787000    1.2510164   -3.2094669   -1.6533048   0.10251974   -3.2094669    1.5561621   529448 
 4788000    1.2519163   -3.2108809   -1.6536818   0.09963559   -3.2108809    1.5571991   529476 
 4789000    1.2516238     -3.21059   -1.6537842   0.10130363     -3.21059    1.5568059   529486 
 4790000    1.2500099   -3.2089517   -1.6543235   0.10563209   -3.2089517    1.5546281   529544 
 4791000    1.2494589   -3.2087693   -1.6549467   0.10733624   -3.2087693    1.5538226   529585 
 4792000    1.2522196   -3.2124453    -1.655213  0.097893704   -3.2124453    1.5572323   529593 
 4793000    1.2517085   -3.2108765   -1.6543827   0.10535008   -3.2108765    1.5564937   529628 
 4794000    1.2518326   -3.2117866   -1.6551356   0.10306543   -3.2117866     1.556651   529627 
 4795000    1.2525558   -3.2125424   -1.6550833   0.10077096   -3.2125424    1.5574592   529658 
 4796000     1.252408    -3.212561   -1.6553797    0.1032429    -3.212561    1.5571813   529690 
 4797000    1.2522014   -3.2125118   -1.6556961   0.10072609   -3.2125118    1.5568157   529727 
 4798000    1.2521078   -3.2122915    -1.655648   0.10572897   -3.2122915    1.5566435   529746 
 4799000    1.2533894   -3.2123124   -1.6541903    0.1028679   -3.2123124    1.5581221   529785 
 4800000    1.2529223   -3.2104701   -1.6530109   0.10339646   -3.2104701    1.5574592   529813 
 4801000    1.2519404   -3.2098793   -1.6537289   0.10484038   -3.2098793    1.5561505   529843 
 4802000    1.2517494    -3.209741   -1.6539219   0.10770246    -3.209741    1.5558191   529875 
 4803000     1.252069   -3.2095465   -1.6534066  0.099221851   -3.2095465      1.55614   529901 
 4804000    1.2542143    -3.211611   -1.6529284    0.1095592    -3.211611    1.5586827   529943 
 4805000    1.2531167   -3.2101317   -1.6528747   0.10722908   -3.2101317    1.5572569   529964 
 4806000    1.2543344   -3.2113368   -1.6526666   0.10418185   -3.2113368    1.5586703   529998 
 4807000    1.2527029   -3.2107827   -1.6542163   0.10099352   -3.2107827    1.5565665   530024 
 4808000    1.2516676   -3.2091145   -1.6539283    0.1080225   -3.2091145    1.5551862   530056 
 4809000    1.2521423   -3.2098665   -1.6541022   0.10164156   -3.2098665    1.5557643   530060 
 4810000    1.2529481   -3.2092208   -1.6525934   0.10203728   -3.2092208    1.5566274   530107 
 4811000    1.2532934   -3.2096569   -1.6526269   0.10179867   -3.2096569    1.5570299   530116 
 4812000    1.2539893   -3.2099287     -1.65209   0.10544913   -3.2099287    1.5578387   530135 
 4813000    1.2539129   -3.2088956   -1.6512341  0.098384676   -3.2088956    1.5576615   530163 
 4814000    1.2537176   -3.2086518   -1.6512623    0.1054415   -3.2086518    1.5573895   530173 
 4815000    1.2534316   -3.2094398   -1.6524526  0.099294604   -3.2094398    1.5569873   530189 
 4816000     1.252716   -3.2086313   -1.6526886   0.10424487   -3.2086313    1.5559428   530242 
 4817000    1.2528798    -3.209273   -1.6531854   0.10270821    -3.209273    1.5560876   530262 
 4818000    1.2531617   -3.2090625   -1.6527274  0.097174958   -3.2090625     1.556335   530297 
 4819000    1.2533999   -3.2088741   -1.6522814   0.10419505   -3.2088741    1.5565926   530310 
 4820000    1.2534624   -3.2087579   -1.6522256   0.10135344   -3.2087579    1.5565322   530357 
 4821000    1.2530142   -3.2088663   -1.6529728  0.099706395   -3.2088663    1.5558935   530385 
 4822000    1.2535265   -3.2098876   -1.6534548  0.097318008   -3.2098876    1.5564328   530418 
 4823000    1.2538873   -3.2099048   -1.6531795  0.097049417   -3.2099048    1.5567254   530471 
 4824000    1.2540202   -3.2097407   -1.6528738   0.09884199   -3.2097407    1.5568668   530479 
 4825000    1.2541188   -3.2098741   -1.6529553   0.10272772   -3.2098741    1.5569188   530503 
 4826000     1.252392   -3.2087545   -1.6540732    0.1025618   -3.2087545    1.5546813   530535 
 4827000    1.2525414   -3.2088943   -1.6541243   0.10165967   -3.2088943      1.55477   530568 
 4828000     1.252297   -3.2090012   -1.6546312   0.10560061   -3.2090012      1.55437   530601 
 4829000    1.2532986   -3.2098639   -1.6543415   0.10084381   -3.2098639    1.5555223   530632 
 4830000    1.2532745   -3.2106473   -1.6552574  0.098063789   -3.2106473    1.5553898   530667 
 4831000    1.2526645   -3.2102181   -1.6556791    0.0999826   -3.2102181     1.554539   530699 
 4832000    1.2525001    -3.211732   -1.6575287   0.10451835    -3.211732    1.5542033   530744 
 4833000    1.2547473   -3.2141942   -1.6572641  0.099247733   -3.2141942    1.5569302   530765 
 4834000    1.2532321   -3.2122078   -1.6572751   0.10437733   -3.2122078    1.5549328   530805 
 4835000    1.2535416   -3.2125193   -1.6572933   0.10110959   -3.2125193     1.555226   530836 
 4836000     1.254354   -3.2140988    -1.657982   0.10813784   -3.2140988    1.5561167   530876 
 4837000    1.2552961   -3.2149718   -1.6577685   0.10876719   -3.2149718    1.5572033   530904 
 4838000    1.2546054   -3.2144689   -1.6582632    0.1022548   -3.2144689    1.5562057   530952 
 4839000    1.2546686    -3.214852   -1.6586558   0.10850912    -3.214852    1.5561963   530982 
 4840000    1.2565346   -3.2156172   -1.6572445   0.10764262   -3.2156172    1.5583728   531029 
 4841000    1.2554322   -3.2153546   -1.6585074   0.10509226   -3.2153546    1.5568472   531083 
 4842000    1.2564432   -3.2153406   -1.6573219    0.1054843   -3.2153406    1.5580187   531111 
 4843000     1.256087     -3.21496   -1.6574122   0.10611966     -3.21496    1.5575478   531121 
 4844000     1.255876   -3.2149169   -1.6577598   0.11017822   -3.2149169    1.5571571   531165 
 4845000    1.2557694   -3.2148354   -1.6578544    0.1014088   -3.2148354     1.556981   531180 
 4846000    1.2559884   -3.2144849   -1.6573438   0.10975255   -3.2144849    1.5571411   531218 
 4847000    1.2585881    -3.217221   -1.6570477   0.10585046    -3.217221    1.5601733   531283 
 4848000    1.2575799   -3.2162623   -1.6573975   0.10698961   -3.2162623    1.5588648   531303 
 4849000    1.2578978   -3.2154447   -1.6562856   0.11599694   -3.2154447    1.5591591   531337 
 4850000    1.2561084   -3.2152402   -1.6583576   0.10770077   -3.2152402    1.5568825   531357 
 4851000    1.2581037   -3.2176089   -1.6583267   0.10258726   -3.2176089    1.5592822   531382 
 4852000    1.2560173   -3.2155041   -1.6588341   0.10315839   -3.2155041    1.5566701   531391 
 4853000    1.2575665   -3.2179174   -1.6594183   0.10322369   -3.2179174    1.5584992   531422 
 4854000    1.2579513   -3.2180738   -1.6591975  0.099844328   -3.2180738    1.5588763   531456 
 4855000     1.255821   -3.2160762   -1.6598662   0.10047866   -3.2160762      1.55621   531465 
 4856000    1.2558993   -3.2161098   -1.6598877  0.094949016   -3.2161098    1.5562221   531494 
 4857000    1.2560341   -3.2161757   -1.6598832   0.10297941   -3.2161757    1.5562925   531527 
 4858000    1.2542589   -3.2132363   -1.6592573   0.10144137   -3.2132363     1.553979   531566 
 4859000     1.255002   -3.2133922   -1.6586038  0.096406743   -3.2133922    1.5547884   531604 
 4860000     1.257154   -3.2151907    -1.657871   0.10481078   -3.2151907    1.5573198   531650 
 4861000    1.2561922   -3.2134152   -1.6573631   0.10058303   -3.2134152    1.5560522   531676 
 4862000    1.2574203   -3.2148073   -1.6572309   0.10164805   -3.2148073    1.5575764   531675 
 4863000    1.2594043   -3.2162368    -1.656282   0.10461853   -3.2162368    1.5599548   531702 
 4864000    1.2587778   -3.2158859   -1.6567247   0.10770463   -3.2158859    1.5591612   531708 
 4865000    1.2586522   -3.2160015   -1.6570135   0.10014304   -3.2160015     1.558988   531714 
 4866000    1.2586477   -3.2159922   -1.6570801   0.10223013   -3.2159922     1.558912   531738 
 4867000    1.2573538   -3.2155203   -1.6582782   0.10334601   -3.2155203    1.5572421   531761 
 4868000      1.25599   -3.2133454   -1.6579152   0.10231096   -3.2133454    1.5554303   531803 
 4869000    1.2562744    -3.213995   -1.6583003   0.10174852    -3.213995    1.5556947   531833 
 4870000       1.2555   -3.2137413   -1.6591284   0.10040257   -3.2137413    1.5546129   531875 
 4871000    1.2559886   -3.2141852   -1.6589965   0.10195285   -3.2141852    1.5551887   531885 
 4872000    1.2572209      -3.2164    -1.659823    0.1006039      -3.2164     1.556577   531932 
 4873000    1.2577076    -3.216661   -1.6596658   0.10117746    -3.216661    1.5569952   531995 
 4874000    1.2579223   -3.2172782   -1.6600728   0.10298071   -3.2172782    1.5572054   532014 
 4875000    1.2583385   -3.2172244   -1.6595009   0.09959139   -3.2172244    1.5577235   532013 
 4876000    1.2580861   -3.2162923   -1.6589632   0.10336543   -3.2162923    1.5573291   532041 
 4877000     1.256875   -3.2151048   -1.6593537   0.10397251   -3.2151048     1.555751   532068 
 4878000    1.2575846   -3.2152505   -1.6587265   0.10711976   -3.2152505     1.556524   532104 
 4879000    1.2589535   -3.2183149   -1.6602343   0.10254428   -3.2183149    1.5580807   532151 
 4880000    1.2613321   -3.2208936   -1.6599337    0.1045767   -3.2208936    1.5609598   532173 
 4881000    1.2590227   -3.2176401   -1.6596582     0.106726   -3.2176401    1.5579819   532214 
 4882000    1.2600827   -3.2189925    -1.659778    0.1013962   -3.2189925    1.5592145   532241 
 4883000     1.260753   -3.2197916   -1.6598181   0.10641577   -3.2197916    1.5599735   532265 
 4884000     1.259209   -3.2184143   -1.6604625   0.10061617   -3.2184143    1.5579518   532303 
 4885000    1.2583994   -3.2184933   -1.6616104   0.10428773   -3.2184933     1.556883   532326 
 4886000     1.259531   -3.2194729   -1.6612718   0.10630739   -3.2194729     1.558201   532354 
 4887000    1.2584401   -3.2189375   -1.6621767   0.10201248   -3.2189375    1.5567608   532385 
 4888000    1.2581003   -3.2194273   -1.6632185   0.10362373   -3.2194273    1.5562089   532430 
 4889000    1.2578467   -3.2181471   -1.6622811   0.10716395   -3.2181471    1.5558659   532440 
 4890000    1.2599436   -3.2197854   -1.6613871   0.10629477   -3.2197854    1.5583982   532461 
 4891000    1.2570319    -3.217422   -1.6626866   0.10810048    -3.217422    1.5547354   532482 
 4892000    1.2578785   -3.2185393   -1.6627831  0.098277997   -3.2185393    1.5557563   532491 
 4893000    1.2577739   -3.2191699   -1.6635897   0.10366583   -3.2191699    1.5555802   532507 
 4894000     1.256526   -3.2162822   -1.6623505   0.10809318   -3.2162822    1.5539317   532543 
 4895000    1.2577101   -3.2184699   -1.6631176   0.10148012   -3.2184699    1.5553523   532558 
 4896000    1.2589959   -3.2197316   -1.6628478  0.098913009   -3.2197316    1.5568839   532578 
 4897000    1.2604733   -3.2208438   -1.6622353   0.10039587   -3.2208438    1.5586085   532613 
 4898000    1.2604702   -3.2207823   -1.6622626   0.10094786   -3.2207823    1.5585197   532642 
 4899000    1.2568328   -3.2171252   -1.6632256    0.1060408   -3.2171252    1.5538997   532684 
 4900000    1.2593247   -3.2199787   -1.6631004   0.10311274   -3.2199787    1.5568782   532719 
 4901000    1.2598288   -3.2201936   -1.6628325   0.11018491   -3.2201936    1.5573611   532767 
 4902000    1.2623343   -3.2230412   -1.6626208  0.099087463   -3.2230412    1.5604203   532780 
 4903000    1.2603864   -3.2211794   -1.6632897   0.10784359   -3.2211794    1.5578896   532822 
 4904000    1.2594565   -3.2189068     -1.66226   0.10835624   -3.2189068    1.5566468   532854 
 4905000    1.2601498   -3.2198646   -1.6624427   0.10389552   -3.2198646    1.5574219   532882 
 4906000    1.2605691   -3.2218506   -1.6640275  0.098350978   -3.2218506    1.5578231   532922 
 4907000     1.258026   -3.2179781   -1.6633941   0.10136027   -3.2179781    1.5545841   532955 
 4908000    1.2580665   -3.2185386   -1.6639804   0.10078916   -3.2185386    1.5545583   532981 
 4909000    1.2598907   -3.2212797    -1.664514   0.10090016   -3.2212797    1.5567656   532997 
 4910000    1.2595622   -3.2206864     -1.66435   0.10267784   -3.2206864    1.5563364   533005 
 4911000    1.2595708   -3.2208017   -1.6645569    0.1021734   -3.2208017    1.5562447   533040 
 4912000     1.259693   -3.2209293    -1.664589   0.10060237   -3.2209293    1.5563403   533059 
 4913000    1.2612767   -3.2223784   -1.6641896  0.094905807   -3.2223784    1.5581888   533096 
 4914000    1.2606653   -3.2211484   -1.6637792    0.1025027   -3.2211484    1.5573692   533118 
 4915000    1.2597372     -3.21938   -1.6633062     0.100809     -3.21938    1.5560738   533169 
 4916000    1.2623643   -3.2219434   -1.6627093   0.09954066   -3.2219434    1.5592341   533198 
 4917000    1.2607533     -3.21955   -1.6623933   0.11068552     -3.21955    1.5571566   533228 
 4918000    1.2615949   -3.2215788   -1.6635435   0.10079618   -3.2215788    1.5580353   533283 
 4919000     1.261589   -3.2218275   -1.6638959   0.10482733   -3.2218275    1.5579316   533316 
 4920000    1.2603677   -3.2205106   -1.6642183   0.10993467   -3.2205106    1.5562922   533361 
 4921000    1.2609385   -3.2206922   -1.6637681   0.10888476   -3.2206922     1.556924   533386 
 4922000     1.261493   -3.2211478   -1.6636297   0.10484983   -3.2211478    1.5575181   533417 
 4923000    1.2607775   -3.2193601   -1.6628275   0.10047542   -3.2193601    1.5565327   533452 
 4924000    1.2612483    -3.220619   -1.6635956   0.10776959    -3.220619    1.5570234   533483 
 4925000    1.2623629   -3.2216995   -1.6633848   0.11326847   -3.2216995    1.5583147   533512 
 4926000    1.2606106   -3.2205429   -1.6644613   0.10221237   -3.2205429    1.5560816   533536 
 4927000    1.2618412   -3.2218669   -1.6643422   0.10778882   -3.2218669    1.5575247   533562 
 4928000     1.261176   -3.2207912   -1.6641838     0.100009   -3.2207912    1.5566074   533595 
 4929000    1.2621718   -3.2222065   -1.6643935   0.10241555   -3.2222065     1.557813   533603 
 4930000    1.2596504   -3.2187407   -1.6641037   0.10545619   -3.2187407     1.554637   533625 
 4931000    1.2625615   -3.2228723    -1.664736   0.10230103   -3.2228723    1.5581364   533657 
 4932000    1.2623856   -3.2241189   -1.6662872   0.10361516   -3.2241189    1.5578317   533687 
 4933000    1.2601805   -3.2213036   -1.6662689   0.10170249   -3.2213036    1.5550347   533713 
 4934000    1.2613296   -3.2216856   -1.6653291   0.10333808   -3.2216856    1.5563565   533746 
 4935000    1.2624984   -3.2239019   -1.6662258   0.10316924   -3.2239019    1.5576761   533788 
 4936000    1.2617853   -3.2240026   -1.6673288   0.10588135   -3.2240026    1.5566738   533830 
 4937000    1.2620446   -3.2242341   -1.6673716   0.10650367   -3.2242341    1.5568625   533875 
 4938000    1.2624475   -3.2251761   -1.6679012  0.099573109   -3.2251761    1.5572749   533904 
 4939000    1.2629585    -3.226191   -1.6683675   0.10111601    -3.226191    1.5578235   533932 
 4940000    1.2613778   -3.2232229    -1.667387   0.10850149   -3.2232229    1.5558359   533945 
 4941000    1.2636078   -3.2260922   -1.6676136   0.10163928   -3.2260922    1.5584785   533982 
 4942000    1.2630622   -3.2253037   -1.6676003  0.099322552   -3.2253037    1.5577034   534017 
 4943000    1.2643023   -3.2275374   -1.6684185   0.10011674   -3.2275374    1.5591189   534056 
 4944000    1.2649418   -3.2281286   -1.6682589   0.10915411   -3.2281286    1.5598696   534069 
 4945000    1.2632449   -3.2265453   -1.6688383   0.10153936   -3.2265453     1.557707   534093 
 4946000    1.2623414    -3.225674   -1.6691946   0.10593852    -3.225674    1.5564793   534132 
 4947000    1.2634204   -3.2261759   -1.6684361   0.10703884   -3.2261759    1.5577397   534156 
 4948000    1.2658895   -3.2298499   -1.6691535  0.098204733   -3.2298499    1.5606964   534186 
 4949000    1.2618079   -3.2251646   -1.6695994   0.10544532   -3.2251646    1.5555652   534220 
 4950000    1.2625467     -3.22584   -1.6694689   0.10421073     -3.22584    1.5563711   534256 
 4951000    1.2616097   -3.2251574   -1.6700345   0.11484293   -3.2251574     1.555123   534288 
 4952000    1.2622196   -3.2253947   -1.6695579    0.1029955   -3.2253947    1.5558369   534301 
 4953000    1.2627142   -3.2253166   -1.6689487   0.10273223   -3.2253166    1.5563679   534328 
 4954000    1.2623317   -3.2244659   -1.6687122   0.10044448   -3.2244659    1.5557537   534377 
 4955000     1.260872   -3.2231176   -1.6692181   0.10667388   -3.2231176    1.5538996   534396 
 4956000    1.2616237    -3.225551   -1.6707659    0.1008594    -3.225551    1.5547851   534410 
 4957000    1.2621344   -3.2263284   -1.6709545   0.10237313   -3.2263284    1.5553738   534424 
 4958000     1.260776   -3.2248238   -1.6711937  0.099875744   -3.2248238    1.5536301   534448 
 4959000    1.2606273    -3.224516   -1.6711709  0.099341971    -3.224516    1.5533451   534483 
 4960000    1.2630522   -3.2268421   -1.6705732   0.10333513   -3.2268421    1.5562689   534505 
 4961000    1.2605383   -3.2240632   -1.6709934   0.10297677   -3.2240632    1.5530698   534540 
 4962000    1.2630032   -3.2267287   -1.6706337   0.10215569   -3.2267287     1.556095   534544 
 4963000    1.2627206   -3.2270742   -1.6714321  0.099535163   -3.2270742    1.5556421   534580 
 4964000     1.262195   -3.2263642   -1.6714453  0.097350162   -3.2263642    1.5549189   534606 
 4965000     1.262308   -3.2272333   -1.6722479  0.097340789   -3.2272333    1.5549854   534631 
 4966000    1.2602994   -3.2243028   -1.6719077      0.10388   -3.2243028     1.552395   534671 
 4967000    1.2633744   -3.2268851   -1.6707693  0.098781051   -3.2268851    1.5561158   534694 
 4968000    1.2621901    -3.225547   -1.6709598   0.09647025    -3.225547    1.5545872   534718 
 4969000    1.2636816   -3.2274113   -1.6711123   0.10093034   -3.2274113     1.556299   534761 
 4970000    1.2625649   -3.2245657   -1.6697059  0.096721787   -3.2245657    1.5548598   534783 
 4971000    1.2642202   -3.2257765    -1.668948   0.10995767   -3.2257765    1.5568285   534807 
 4972000    1.2638884   -3.2265458   -1.6701609   0.10895817   -3.2265458    1.5563849   534819 
 4973000    1.2636348   -3.2260578   -1.6700403   0.10187718   -3.2260578    1.5560175   534838 
 4974000    1.2650923   -3.2279453   -1.6702205    0.1072896   -3.2279453    1.5577248   534868 
 4975000    1.2628482   -3.2257361   -1.6708792   0.10245955   -3.2257361     1.554857   534904 
 4976000    1.2639436   -3.2270969   -1.6709931   0.10574712   -3.2270969    1.5561038   534939 
 4977000    1.2636211   -3.2256928   -1.6700792   0.10615933   -3.2256928    1.5556137   534971 
 4978000    1.2647548   -3.2283648   -1.6714282   0.10192444   -3.2283648    1.5569366   534996 
 4979000    1.2640431   -3.2276922   -1.6716666   0.10269599   -3.2276922    1.5560256   535008 
 4980000    1.2638684   -3.2270892   -1.6713456   0.10650053   -3.2270892    1.5557436   535031 
 4981000    1.2633972   -3.2257107   -1.6706488   0.10010934   -3.2257107    1.5550619   535066 
 4982000    1.2614388   -3.2251421   -1.6724965   0.10249116   -3.2251421    1.5526456   535068 
 4983000    1.2622367   -3.2260486   -1.6724442  0.099744484   -3.2260486    1.5536045   535076 
 4984000    1.2630547   -3.2279201    -1.673361  0.097820558   -3.2279201    1.5545591   535094 
 4985000    1.2628938    -3.227054   -1.6727918  0.099691598    -3.227054    1.5542622   535128 
 4986000    1.2643828   -3.2286554    -1.672642   0.10318612   -3.2286554    1.5560134   535156 
 4987000    1.2637226   -3.2264311   -1.6712593   0.10623941   -3.2264311    1.5551718   535166 
 4988000    1.2651356   -3.2273527   -1.6705352  0.097541238   -3.2273527    1.5568176   535198 
 4989000    1.2640712   -3.2269342    -1.671473   0.10082796   -3.2269342    1.5554612   535214 
 4990000    1.2652913   -3.2291653   -1.6722812   0.10618143   -3.2291653    1.5568841   535241 
 4991000    1.2662551   -3.2285066   -1.6705938   0.10551249   -3.2285066    1.5579128   535295 
 4992000    1.2649668   -3.2274405      -1.6712   0.10256769   -3.2274405    1.5562405   535325 
 4993000    1.2637232   -3.2260334   -1.6714157    0.1060995   -3.2260334    1.5546177   535357 
 4994000    1.2638045   -3.2256268   -1.6709963   0.10919804   -3.2256268    1.5546305   535387 
 4995000    1.2653911    -3.228827   -1.6723378  0.096843021    -3.228827    1.5564892   535419 
 4996000    1.2651723   -3.2275992   -1.6714663   0.10367345   -3.2275992    1.5561329   535449 
 4997000    1.2653492   -3.2289673   -1.6726837   0.10152423   -3.2289673    1.5562836   535472 
 4998000    1.2634953   -3.2260416   -1.6721223   0.10486227   -3.2260416    1.5539193   535501 
 4999000    1.2638582   -3.2267536   -1.6724576   0.10623347   -3.2267536     1.554296   535525 
 5000000    1.2626665   -3.2258817   -1.6730745   0.10107369   -3.2258817    1.5528073   535533 
 5001000    1.2646615   -3.2277434   -1.6725408   0.10028149   -3.2277434    1.5552026   535553 
 5002000    1.2639264   -3.2270611    -1.672806   0.10420223   -3.2270611    1.5542551   535568 
 5003000    1.2643901   -3.2274337   -1.6726984   0.10456223   -3.2274337    1.5547353   535599 
 5004000    1.2654359   -3.2288572   -1.6728854   0.10292663   -3.2288572    1.5559718   535616 
 5005000     1.264814   -3.2286841   -1.6735379   0.11087006   -3.2286841    1.5551462   535637 
 5006000    1.2650112   -3.2284409   -1.6731016   0.10217847   -3.2284409    1.5553393   535654 
 5007000    1.2642423   -3.2282966   -1.6739288   0.10032369   -3.2282966    1.5543678   535663 
 5008000    1.2634666   -3.2278895   -1.6744957   0.10130045   -3.2278895    1.5533938   535670 
 5009000    1.2645243   -3.2281033    -1.673499   0.10406963   -3.2281033    1.5546043   535701 
 5010000    1.2645305   -3.2280084   -1.6734575  0.098487263   -3.2280084    1.5545509   535722 
 5011000    1.2646841   -3.2280809   -1.6733789   0.10072904   -3.2280809     1.554702   535735 
 5012000    1.2651567   -3.2293053   -1.6740454  0.096266496   -3.2293053    1.5552598   535743 
 5013000    1.2658013   -3.2304523   -1.6744785   0.10496492   -3.2304523    1.5559738   535770 
 5014000    1.2651654   -3.2286475    -1.673557   0.10208346   -3.2286475    1.5550906   535805 
 5015000    1.2658636   -3.2294843   -1.6736837  0.098101763   -3.2294843    1.5558006   535856 
 5016000    1.2645635   -3.2286123   -1.6745342   0.10623152   -3.2286123    1.5540781   535899 
 5017000    1.2668544   -3.2296997   -1.6728614   0.10133207   -3.2296997    1.5568383   535918 
 5018000     1.265941   -3.2282951   -1.6726634   0.10591787   -3.2282951    1.5556316   535947 
 5019000     1.267951   -3.2298238   -1.6718123   0.10279343   -3.2298238    1.5580115   535978 
 5020000    1.2659278   -3.2284686   -1.6729723   0.10138105   -3.2284686    1.5554963   535988 
 5021000    1.2664555   -3.2298974   -1.6737526   0.10860069   -3.2298974    1.5561448   535988 
 5022000    1.2650454   -3.2279568   -1.6736114   0.10978326   -3.2279568    1.5543454   536011 
 5023000    1.2675827   -3.2315981   -1.6742339  0.096025909   -3.2315981    1.5573642   536045 
 5024000    1.2673229   -3.2301208   -1.6730816  0.097939333   -3.2301208    1.5570392   536047 
 5025000    1.2675592   -3.2296287    -1.672395   0.10201564   -3.2296287    1.5572336   536080 
 5026000    1.2689393   -3.2323196   -1.6734806  0.098908085   -3.2323196     1.558839   536111 
 5027000    1.2660172   -3.2289999   -1.6738985   0.10443539   -3.2289999    1.5551014   536162 
 5028000    1.2678329   -3.2316676   -1.6744143   0.10076281   -3.2316676    1.5572533   536189 
 5029000    1.2672159   -3.2313938   -1.6749797   0.10499318   -3.2313938    1.5564142   536217 
 5030000    1.2675644   -3.2310974   -1.6743772   0.10977559   -3.2310974    1.5567203   536259 
 5031000    1.2677117   -3.2320165   -1.6751619   0.10630352   -3.2320165    1.5568546   536275 
 5032000    1.2670733   -3.2322334    -1.676241   0.10082345   -3.2322334    1.5559924   536302 
 5033000    1.2679254   -3.2339607   -1.6769859   0.10010175   -3.2339607    1.5569748   536324 
 5034000    1.2656418   -3.2314363   -1.6773554   0.10261422   -3.2314363    1.5540808   536355 
 5035000    1.2655389   -3.2318308    -1.677911   0.10364301   -3.2318308    1.5539198   536367 
 5036000    1.2664143   -3.2323199   -1.6774558   0.10491616   -3.2323199    1.5548641   536412 
 5037000    1.2673207    -3.232704   -1.6768024   0.10525228    -3.232704    1.5559016   536438 
 5038000    1.2664262   -3.2314882   -1.6767486   0.11083729   -3.2314882    1.5547396   536460 
 5039000     1.267042   -3.2322541   -1.6767904   0.10164948   -3.2322541    1.5554637   536471 
 5040000    1.2678954   -3.2335274    -1.677103   0.10480421   -3.2335274    1.5564244   536501 
 5041000      1.26923   -3.2345686   -1.6765755   0.10325016   -3.2345686     1.557993   536525 
 5042000    1.2700646   -3.2352533   -1.6763288   0.10642127   -3.2352533    1.5589244   536557 
 5043000    1.2686716   -3.2334705   -1.6763023  0.098759267   -3.2334705    1.5571682   536573 
 5044000    1.2686179   -3.2341293   -1.6770676   0.10236116   -3.2341293    1.5570617   536587 
 5045000    1.2688638   -3.2341188   -1.6767901  0.099238233   -3.2341188    1.5573286   536599 
 5046000    1.2668434   -3.2319566    -1.677183  0.099727088   -3.2319566    1.5547736   536625 
 5047000    1.2678942   -3.2326893   -1.6766927   0.10544198   -3.2326893    1.5559966   536648 
 5048000    1.2670149   -3.2322231   -1.6773722   0.10259369   -3.2322231    1.5548509   536671 
 5049000    1.2678031   -3.2331689   -1.6774262   0.10286952   -3.2331689    1.5557427   536697 
 5050000    1.2680437   -3.2339811   -1.6780215    0.1071534   -3.2339811    1.5559596   536724 
 5051000    1.2675441   -3.2323473    -1.677102   0.10158796   -3.2323473    1.5552453   536759 
 5052000    1.2674633   -3.2328072     -1.67778   0.10327801   -3.2328072    1.5550273   536800 
 5053000    1.2689088   -3.2335956   -1.6768354    0.1045152   -3.2335956    1.5567601   536814 
 5054000    1.2672282   -3.2322247   -1.6775641   0.10174796   -3.2322247    1.5546606   536827 
 5055000    1.2675984   -3.2324691   -1.6773919   0.10009339   -3.2324691    1.5550772   536840 
 5056000    1.2683523    -3.233311    -1.677393   0.10184881    -3.233311     1.555918   536869 
 5057000    1.2695255   -3.2336861   -1.6764943  0.099849654   -3.2336861    1.5571918   536926 
 5058000    1.2683401   -3.2326346   -1.6769634    0.1025683   -3.2326346    1.5556712   536949 
 5059000    1.2680346   -3.2332228   -1.6779176   0.10725649   -3.2332228    1.5553052   536946 
 5060000    1.2690223   -3.2339601   -1.6775391  0.099968986   -3.2339601     1.556421   536979 
 5061000    1.2683009   -3.2322464   -1.6767594   0.09869457   -3.2322464    1.5554869   536996 
 5062000    1.2688589   -3.2328711   -1.6767896   0.10654451   -3.2328711    1.5560815   537027 
 5063000     1.267668   -3.2307099   -1.6761728    0.1047514   -3.2307099    1.5545371   537056 
 5064000    1.2674266   -3.2307824   -1.6766224   0.10668071   -3.2307824      1.55416   537084 
 5065000    1.2669917   -3.2311789   -1.6776129   0.10017414   -3.2311789     1.553566   537105 
 5066000    1.2684758   -3.2333014   -1.6779793   0.10093373   -3.2333014    1.5553221   537127 
 5067000    1.2688106   -3.2336627   -1.6780402   0.10672045   -3.2336627    1.5556225   537165 
 5068000    1.2679573    -3.233421   -1.6789026  0.098910215    -3.233421    1.5545185   537185 
 5069000    1.2690221   -3.2358179   -1.6800693   0.10114802   -3.2358179    1.5557486   537211 
 5070000    1.2680625   -3.2352262   -1.6806974   0.10046231   -3.2352262    1.5545288   537226 
 5071000    1.2677086   -3.2356467   -1.6816848  0.098348962   -3.2356467    1.5539619   537272 
 5072000    1.2691604   -3.2367114   -1.6810683   0.10113311   -3.2367114    1.5556431   537306 
 5073000    1.2683157    -3.234916   -1.6804009   0.10033918    -3.234916    1.5545151   537338 
 5074000    1.2680253   -3.2349002   -1.6808913   0.10114052   -3.2349002    1.5540088   537390 
 5075000    1.2690237   -3.2344028   -1.6792399   0.10152379   -3.2344028    1.5551629   537414 
 5076000    1.2708139   -3.2368858   -1.6795696   0.10544418   -3.2368858    1.5573162   537428 
 5077000      1.27156   -3.2370877   -1.6789819   0.10105458   -3.2370877    1.5581058   537471 
 5078000    1.2730956   -3.2370777   -1.6771425     0.105228   -3.2370777    1.5599353   537489 
 5079000    1.2712507   -3.2370651   -1.6794746   0.10243495   -3.2370651    1.5575906   537518 
 5080000    1.2712641   -3.2374167   -1.6798415   0.11091194   -3.2374167    1.5575752   537529 
 5081000    1.2719486   -3.2378644   -1.6795202   0.10222331   -3.2378644    1.5583442   537553 
 5082000    1.2722486   -3.2392686   -1.6806467  0.098107262   -3.2392686    1.5586219   537584 
 5083000     1.271489   -3.2382909   -1.6806778   0.10431403   -3.2382909    1.5576131   537611 
 5084000    1.2710003   -3.2388523   -1.6819189   0.10477885   -3.2388523    1.5569334   537639 
 5085000     1.270678   -3.2394053   -1.6829276   0.10124032   -3.2394053    1.5564778   537660 
 5086000    1.2699241   -3.2383305   -1.6828312   0.10269721   -3.2383305    1.5554992   537679 
 5087000     1.269125    -3.236978   -1.6825702   0.10569835    -3.236978    1.5544077   537718 
 5088000    1.2697036   -3.2389591   -1.6838918   0.10370614   -3.2389591    1.5550673   537735 
 5089000    1.2689217   -3.2377402   -1.6836653   0.10178255   -3.2377402     1.554075   537747 
 5090000    1.2685467   -3.2378599   -1.6843655   0.10496126   -3.2378599    1.5534944   537789 
 5091000    1.2681416   -3.2374557   -1.6845441   0.10501344   -3.2374557    1.5529116   537819 
 5092000    1.2702708   -3.2397243   -1.6842402   0.10102292   -3.2397243    1.5554842   537831 
 5093000    1.2692537   -3.2404992   -1.6863645   0.10317218   -3.2404992    1.5541348   537867 
 5094000    1.2705134   -3.2406731   -1.6850942   0.10048471   -3.2406731    1.5555789   537901 
 5095000     1.268578   -3.2384267   -1.6852694   0.10355772   -3.2384267    1.5531573   537919 
 5096000    1.2681055    -3.237884   -1.6853543   0.10350822    -3.237884    1.5525297   537936 
 5097000    1.2696071   -3.2390271    -1.684662  0.097359951   -3.2390271    1.5543651   537937 
 5098000    1.2710446   -3.2410697   -1.6849851   0.10253181   -3.2410697    1.5560846   537951 
 5099000    1.2688871   -3.2387451   -1.6854289   0.10708885   -3.2387451    1.5533162   537995 
 5100000    1.2689334   -3.2398407   -1.6865688  0.098736901   -3.2398407    1.5532719   538030 
 5101000    1.2701423   -3.2405815   -1.6858529  0.096402635   -3.2405815    1.5547285   538038 
 5102000    1.2696474   -3.2393452   -1.6853495   0.10564974   -3.2393452    1.5539956   538082 
 5103000    1.2691461   -3.2388245   -1.6855493   0.10343722   -3.2388245    1.5532752   538119 
 5104000    1.2688748   -3.2401037   -1.6872672  0.098174668   -3.2401037    1.5528365   538156 
 5105000    1.2697176   -3.2414763   -1.6876402   0.10027878   -3.2414763    1.5538361   538167 
 5106000    1.2682002   -3.2395272   -1.6876375  0.095034353   -3.2395272    1.5518897   538198 
 5107000    1.2668172   -3.2382488   -1.6881004   0.10530943   -3.2382488    1.5501484   538215 
 5108000    1.2692029   -3.2409662   -1.6879649  0.098936924   -3.2409662    1.5530013   538238 
 5109000     1.269542   -3.2418061   -1.6884734  0.098346341   -3.2418061    1.5533326   538267 
 5110000    1.2679596   -3.2411561   -1.6898519   0.10044613   -3.2411561    1.5513042   538299 
 5111000    1.2695947   -3.2423585   -1.6892183   0.10019043   -3.2423585    1.5531402   538356 
 5112000    1.2708168   -3.2444828   -1.6898736   0.10031507   -3.2444828    1.5546092   538365 
 5113000    1.2704018   -3.2438012    -1.689766    0.1025625   -3.2438012    1.5540352   538388 
 5114000    1.2704461   -3.2435246   -1.6894323  0.098402246   -3.2435246    1.5540923   538387 
 5115000    1.2695611   -3.2432414   -1.6903037  0.094498756   -3.2432414    1.5529377   538412 
 5116000    1.2703131   -3.2434609   -1.6896612   0.10611874   -3.2434609    1.5537997   538432 
 5117000    1.2695801   -3.2426604   -1.6898523   0.10365339   -3.2426604     1.552808   538465 
 5118000     1.269519   -3.2429797   -1.6903329    0.1053221   -3.2429797    1.5526468   538495 
 5119000     1.269009   -3.2424137   -1.6905319   0.09722095   -3.2424137    1.5518818   538544 
 5120000    1.2695235   -3.2431226   -1.6906635   0.10189211   -3.2431226    1.5524591   538562 
 5121000    1.2693174   -3.2431015   -1.6909606   0.10967366   -3.2431015    1.5521408   538585 
 5122000    1.2712136   -3.2451167   -1.6907091   0.10176346   -3.2451167    1.5544076   538603 
 5123000    1.2706847   -3.2427664    -1.689069   0.10074176   -3.2427664    1.5536974   538625 
 5124000    1.2710545   -3.2437462   -1.6896745  0.095595175   -3.2437462    1.5540717   538652 
 5125000    1.2705472   -3.2440686   -1.6906461   0.10176722   -3.2440686    1.5534225   538662 
 5126000    1.2706525    -3.243666   -1.6902416   0.10020614    -3.243666    1.5534244   538706 
 5127000    1.2692204   -3.2425912   -1.6909896   0.10439856   -3.2425912    1.5516015   538731 
 5128000    1.2683234   -3.2410583   -1.6905014   0.10160709   -3.2410583    1.5505568   538713 
 5129000    1.2689716   -3.2422955   -1.6910499  0.092352674   -3.2422955    1.5512456   538749 
 5130000    1.2708012   -3.2439446   -1.6905086    0.1018351   -3.2439446    1.5534361   538765 
 5131000    1.2711043   -3.2437511   -1.6900195  0.097764506   -3.2437511    1.5537315   538791 
 5132000    1.2696697   -3.2416538   -1.6897795   0.10816035   -3.2416538    1.5518743   538827 
 5133000    1.2708867   -3.2430373   -1.6897418  0.097194104   -3.2430373    1.5532955   538850 
 5134000    1.2720965   -3.2454694   -1.6907473  0.097095958   -3.2454694    1.5547222   538868 
 5135000    1.2702416   -3.2430548   -1.6906688   0.10634421   -3.2430548     1.552386   538892 
 5136000    1.2733211   -3.2457611    -1.689678   0.10221545   -3.2457611    1.5560831   538915 
 5137000    1.2710242   -3.2430258   -1.6898361   0.10520584   -3.2430258    1.5531897   538945 
 5138000    1.2707842   -3.2423574   -1.6894812    0.1027107   -3.2423574    1.5528762   538952 
 5139000    1.2699895     -3.24176   -1.6898923   0.10598604     -3.24176    1.5518677   538965 
 5140000    1.2719786   -3.2436635   -1.6894604   0.11247427   -3.2436635    1.5542031   538998 
 5141000    1.2722995   -3.2441048   -1.6896191   0.10136805   -3.2441048    1.5544857   539036 
 5142000    1.2701426     -3.24263   -1.6908458   0.10414989     -3.24263    1.5517842   539059 
 5143000    1.2694687   -3.2416901   -1.6907638   0.10460056   -3.2416901    1.5509263   539071 
 5144000    1.2702885   -3.2431274   -1.6913262    0.1018509   -3.2431274    1.5518012   539115 
 5145000    1.2693662   -3.2420589   -1.6914016   0.10512902   -3.2420589    1.5506573   539121 
 5146000    1.2707259     -3.24307   -1.6908553   0.10397312     -3.24307    1.5522146   539157 
 5147000    1.2709907   -3.2441954   -1.6917552  0.098378617   -3.2441954    1.5524402   539191 
 5148000    1.2700995   -3.2428366   -1.6916086   0.10394087   -3.2428366     1.551228   539234 
 5149000    1.2716374    -3.243758    -1.690744  0.097407543    -3.243758     1.553014   539266 
 5150000    1.2724646   -3.2440694   -1.6901115   0.10299152   -3.2440694     1.553958   539289 
 5151000    1.2713929   -3.2437019   -1.6911419   0.10500755   -3.2437019      1.55256   539320 
 5152000    1.2723053   -3.2446821   -1.6910799   0.10025409   -3.2446821    1.5536022   539345 
 5153000    1.2727441   -3.2446642   -1.6905753   0.10503448   -3.2446642    1.5540889   539362 
 5154000     1.273121   -3.2445832   -1.6900686   0.10441597   -3.2445832    1.5545146   539374 
 5155000    1.2732828   -3.2461093   -1.6915037   0.10487705   -3.2461093    1.5546055   539411 
 5156000    1.2727897   -3.2438226   -1.6898969   0.10128833   -3.2438226    1.5539256   539438 
 5157000    1.2734777   -3.2452473   -1.6905163   0.10065944   -3.2452473     1.554731   539450 
 5158000    1.2737306   -3.2445246   -1.6895596   0.10780343   -3.2445246    1.5549649   539476 
 5159000    1.2738372   -3.2442109   -1.6892139   0.10715188   -3.2442109    1.5549971   539510 
 5160000     1.274125   -3.2447003   -1.6894298   0.10865747   -3.2447003    1.5552705   539537 
 5161000    1.2763881   -3.2471895   -1.6892519   0.10074872   -3.2471895    1.5579377   539570 
 5162000    1.2747096   -3.2458048   -1.6900485  0.095261586   -3.2458048    1.5557563   539616 
 5163000    1.2731177   -3.2439607    -1.690251  0.097404503   -3.2439607    1.5537097   539652 
 5164000    1.2741145   -3.2445784   -1.6897386   0.10202889   -3.2445784    1.5548398   539682 
 5165000    1.2736662   -3.2443367   -1.6901477   0.10437443   -3.2443367     1.554189   539718 
 5166000    1.2743614   -3.2456489   -1.6906606  0.099760249   -3.2456489    1.5549884   539735 
 5167000    1.2726898   -3.2454248   -1.6925221   0.10038473   -3.2454248    1.5529027   539751 
 5168000    1.2710063   -3.2435126   -1.6927187  0.099963249   -3.2435126     1.550794   539770 
 5169000    1.2718309   -3.2433259   -1.6915603   0.10282489   -3.2433259    1.5517656   539782 
 5170000    1.2732721   -3.2449748   -1.6915372    0.1066044   -3.2449748    1.5534376   539812 
 5171000    1.2739701   -3.2452571   -1.6910946  0.099724433   -3.2452571    1.5541625   539856 
 5172000    1.2733979    -3.244634   -1.6912069   0.10670492    -3.244634    1.5534271   539869 
 5173000    1.2730933    -3.244434   -1.6914706  0.095830125    -3.244434    1.5529634   539901 
 5174000    1.2749823   -3.2475787   -1.6923802  0.099043211   -3.2475787    1.5551985   539925 
 5175000      1.27306   -3.2447943   -1.6919894  0.097674947   -3.2447943    1.5528049   539942 
 5176000    1.2729782   -3.2441302   -1.6914969   0.10372078   -3.2441302    1.5526333   539967 
 5177000    1.2734063   -3.2459972   -1.6929051   0.10033729   -3.2459972    1.5530921   539989 
 5178000    1.2738377   -3.2448502   -1.6913211   0.10810642   -3.2448502    1.5535291   540020 
 5179000     1.274508   -3.2455092   -1.6912375  0.099025986   -3.2455092    1.5542718   540046 
 5180000    1.2751883   -3.2465698   -1.6915549  0.095881126   -3.2465698     1.555015   540076 
 5181000    1.2744918   -3.2458417   -1.6917336  0.096664437   -3.2458417    1.5541081   540096 
 5182000    1.2732677   -3.2451613   -1.6926178   0.10908936   -3.2451613    1.5525435   540121 
 5183000     1.275697   -3.2477644   -1.6922991   0.10911607   -3.2477644    1.5554654   540135 
 5184000    1.2749417   -3.2469249   -1.6924955   0.10371148   -3.2469249    1.5544294   540175 
 5185000    1.2758823   -3.2481014   -1.6926434   0.10582663   -3.2481014     1.555458   540216 
 5186000    1.2761095    -3.247266   -1.6916115   0.10030543    -3.247266    1.5556544   540244 
 5187000    1.2744665   -3.2468446    -1.693288   0.11023987   -3.2468446    1.5535565   540277 
 5188000    1.2769635   -3.2487663   -1.6922292   0.10641576   -3.2487663    1.5565371   540299 
 5189000    1.2770994   -3.2497235    -1.693064   0.10953039   -3.2497235    1.5566594   540314 
 5190000    1.2765047   -3.2496565   -1.6938285   0.10183641   -3.2496565    1.5558281   540351 
 5191000    1.2747952   -3.2465612   -1.6929058   0.10334642   -3.2465612    1.5536554   540382 
 5192000    1.2770657   -3.2485358   -1.6922084   0.10448918   -3.2485358    1.5563275   540415 
 5193000    1.2757379   -3.2479695    -1.693358  0.099383674   -3.2479695    1.5546115   540449 
 5194000    1.2762708   -3.2467571   -1.6915711   0.11133537   -3.2467571     1.555186   540475 
 5195000    1.2763409   -3.2477676   -1.6925364   0.10586197   -3.2477676    1.5552312   540489 
 5196000    1.2764249   -3.2479264   -1.6926849   0.10910965   -3.2479264    1.5552415   540521 
 5197000    1.2760163   -3.2473613   -1.6927242   0.10739921   -3.2473613    1.5546371   540558 
 5198000    1.2742814   -3.2464559   -1.6940071   0.10312509   -3.2464559    1.5524488   540584 
 5199000    1.2754171   -3.2482972   -1.6945021   0.10626794   -3.2482972    1.5537951   540597 
 5200000    1.2777541   -3.2515056   -1.6949296   0.10293108   -3.2515056     1.556576   540620 
 5201000    1.2750779   -3.2485058   -1.6952677   0.10151291   -3.2485058    1.5532381   540647 
 5202000    1.2769308    -3.249854   -1.6944047  0.098417279    -3.249854    1.5554493   540663 
 5203000    1.2756307    -3.247879   -1.6940795   0.10760349    -3.247879    1.5537995   540686 
 5204000      1.27576   -3.2488475   -1.6949566   0.10797505   -3.2488475    1.5538909   540709 
 5205000     1.276355   -3.2485818   -1.6940324   0.10562021   -3.2485818    1.5545494   540732 
 5206000    1.2762691    -3.249065   -1.6947408   0.10559514    -3.249065    1.5543241   540774 
 5207000    1.2765748   -3.2491416   -1.6944739  0.096833393   -3.2491416    1.5546677   540784 
 5208000     1.276161   -3.2487095   -1.6945803   0.10523518   -3.2487095    1.5541292   540796 
 5209000    1.2750532    -3.247268   -1.6944735   0.10193421    -3.247268    1.5527945   540791 
 5210000    1.2762869   -3.2497612   -1.6955017   0.10252608   -3.2497612    1.5542595   540804 
 5211000    1.2767679   -3.2509406   -1.6962103   0.10684171   -3.2509406    1.5547303   540844 
 5212000    1.2760454   -3.2495381   -1.6957651   0.10440457   -3.2495381     1.553773   540871 
 5213000    1.2758971   -3.2497136     -1.69617   0.10582984   -3.2497136    1.5535436   540888 
 5214000    1.2768673   -3.2507115     -1.69607   0.10550949   -3.2507115    1.5546415   540917 
 5215000    1.2769805   -3.2512158   -1.6965082   0.10617184   -3.2512158    1.5547076   540942 
 5216000    1.2758544   -3.2506087   -1.6973296   0.10127188   -3.2506087    1.5532791   540962 
 5217000    1.2751525     -3.24914     -1.69679   0.10641576     -3.24914      1.55235   540988 
 5218000    1.2755996   -3.2491654   -1.6963429   0.10530369   -3.2491654    1.5528225   541013 
 5219000    1.2763506   -3.2500479   -1.6964318   0.10374998   -3.2500479    1.5536161   541055 
 5220000    1.2762676    -3.250558   -1.6970946   0.10767525    -3.250558    1.5534633   541073 
 5221000    1.2760759   -3.2499024   -1.6967441   0.10481025   -3.2499024    1.5531583   541098 
 5222000    1.2768246   -3.2511986   -1.6971836   0.10709404   -3.2511986     1.554015   541117 
 5223000    1.2759214   -3.2497688   -1.6969449   0.11064367   -3.2497688    1.5528239   541149 
 5224000     1.276694    -3.251053   -1.6973176    0.1003383    -3.251053    1.5537355   541159 
 5225000    1.2773335   -3.2518871   -1.6974309   0.10145741   -3.2518871    1.5544562   541179 
 5226000    1.2767242   -3.2513012    -1.697644  0.099208991   -3.2513012    1.5536573   541199 
 5227000    1.2768528   -3.2513432   -1.6976098    0.1043314   -3.2513432    1.5537334   541227 
 5228000    1.2777465   -3.2516869   -1.6969521   0.10827737   -3.2516869    1.5547347   541257 
 5229000     1.278554   -3.2521629   -1.6965204   0.10114431   -3.2521629    1.5556426   541283 
 5230000    1.2766368   -3.2485729   -1.6953032   0.10765686   -3.2485729    1.5532697   541297 
 5231000    1.2772939   -3.2508941   -1.6968767   0.10353084   -3.2508941    1.5540175   541315 
 5232000    1.2782329   -3.2515342   -1.6964288   0.10054785   -3.2515342    1.5551054   541334 
 5233000    1.2799685   -3.2541216     -1.69706  0.099383625   -3.2541216    1.5570616   541388 
 5234000    1.2779896   -3.2519424   -1.6973886   0.10034396   -3.2519424    1.5545538   541423 
 5235000    1.2790731    -3.252321   -1.6965124   0.10697889    -3.252321    1.5558085   541445 
 5236000    1.2795062   -3.2532833   -1.6970485   0.10250019   -3.2532833    1.5562348   541480 
 5237000    1.2785454   -3.2510245   -1.6960502   0.10582992   -3.2510245    1.5549742   541512 
 5238000    1.2794792   -3.2527962   -1.6967322   0.11175777   -3.2527962     1.556064   541528 
 5239000    1.2786679   -3.2527114    -1.697637   0.10271919   -3.2527114    1.5550744   541529 
 5240000    1.2788622    -3.251574   -1.6963092   0.11201251    -3.251574    1.5552648   541545 
 5241000    1.2805128   -3.2536816   -1.6964469   0.10440654   -3.2536816    1.5572347   541558 
 5242000    1.2780394   -3.2507329   -1.6965806   0.10771031   -3.2507329    1.5541523   541584 
 5243000    1.2782671   -3.2516882   -1.6973222   0.10584443   -3.2516882     1.554366   541606 
 5244000    1.2789375   -3.2527804   -1.6976968   0.10401798   -3.2527804    1.5550836   541640 
 5245000    1.2799022   -3.2526884   -1.6964892   0.10502564   -3.2526884    1.5561991   541660 
 5246000    1.2795431   -3.2531031   -1.6973234   0.10191333   -3.2531031    1.5557797   541654 
 5247000    1.2790283   -3.2520139   -1.6969492   0.10797486   -3.2520139    1.5550647   541685 
 5248000    1.2805071   -3.2544328    -1.697573   0.10251902   -3.2544328    1.5568598   541686 
 5249000    1.2799786   -3.2542828   -1.6980885   0.10283903   -3.2542828    1.5561942   541694 
 5250000    1.2786983   -3.2534254   -1.6988222   0.10647449   -3.2534254    1.5546032   541706 
 5251000    1.2777393   -3.2525639   -1.6991954   0.10890233   -3.2525639    1.5533685   541730 
 5252000    1.2788887   -3.2542695   -1.6995869   0.09797942   -3.2542695    1.5546826   541759 
 5253000     1.278701   -3.2533603   -1.6990263   0.10564663   -3.2533603     1.554334   541801 
 5254000     1.277822   -3.2530094   -1.6998356   0.10668543   -3.2530094    1.5531737   541833 
 5255000    1.2786651   -3.2534948   -1.6993623   0.10176067   -3.2534948    1.5541325   541856 
 5256000    1.2793136   -3.2534116   -1.6985827   0.10107904   -3.2534116     1.554829   541888 
 5257000    1.2778282   -3.2525549   -1.6995972   0.10570342   -3.2525549    1.5529577   541911 
 5258000    1.2793103   -3.2546863    -1.700022   0.10756905   -3.2546863    1.5546643   541944 
 5259000    1.2783976   -3.2536298   -1.7001262   0.10440667   -3.2536298    1.5535036   541962 
 5260000    1.2788136   -3.2537157   -1.6998214   0.10452628   -3.2537157    1.5538943   542002 
 5261000    1.2791998   -3.2546432   -1.7003599   0.10417057   -3.2546432    1.5542833   542030 
 5262000    1.2777603     -3.25282   -1.7003344  0.098951188     -3.25282    1.5524856   542047 
 5263000    1.2784231    -3.253633    -1.700451   0.10387965    -3.253633     1.553182   542085 
 5264000    1.2793363   -3.2533743   -1.6991574   0.10597644   -3.2533743    1.5542169   542111 
 5265000     1.278385   -3.2526698    -1.699663   0.10804722   -3.2526698    1.5530068   542130 
 5266000    1.2788505   -3.2527476   -1.6992182    0.1073652   -3.2527476    1.5535294   542145 
 5267000    1.2803257   -3.2544713   -1.6991815   0.10583628   -3.2544713    1.5552898   542156 
 5268000    1.2802603   -3.2535654   -1.6983981    0.1073065   -3.2535654    1.5551673   542171 
 5269000    1.2805699   -3.2534661   -1.6980289   0.10742307   -3.2534661    1.5554372   542208 
 5270000     1.280263   -3.2540455   -1.6990527   0.10344785   -3.2540455    1.5549928   542233 
 5271000    1.2814719   -3.2554175   -1.6990884   0.10396886   -3.2554175     1.556329   542279 
 5272000    1.2823216   -3.2567729   -1.6994981   0.10209162   -3.2567729    1.5572748   542309 
 5273000     1.281162   -3.2550619   -1.6992841   0.10540328   -3.2550619    1.5557778   542340 
 5274000    1.2813123    -3.254699   -1.6987961   0.10841773    -3.254699    1.5559029   542360 
 5275000    1.2822416   -3.2554419   -1.6984652   0.10581051   -3.2554419    1.5569767   542379 
 5276000    1.2814326   -3.2559446   -1.6999732   0.10110769   -3.2559446    1.5559714   542387 
 5277000    1.2802049   -3.2554053   -1.7010048   0.10335107   -3.2554053    1.5544005   542415 
 5278000    1.2795168   -3.2558883   -1.7024637   0.10347404   -3.2558883    1.5534247   542464 
 5279000    1.2796066   -3.2570533   -1.7035884   0.10555802   -3.2570533     1.553465   542488 
 5280000    1.2787165   -3.2570088   -1.7046759   0.10339781   -3.2570088    1.5523329   542506 
 5281000    1.2787112   -3.2562341   -1.7039392  0.097680656   -3.2562341     1.552295   542517 
 5282000    1.2799672   -3.2567049   -1.7029368   0.10717473   -3.2567049    1.5537681   542535 
 5283000    1.2804013   -3.2576079   -1.7034015   0.10304505   -3.2576079    1.5542063   542566 
 5284000    1.2794845   -3.2562315   -1.7032268   0.10288976   -3.2562315    1.5530047   542597 
 5285000    1.2811322   -3.2572918   -1.7023616   0.10336411   -3.2572918    1.5549301   542623 
 5286000    1.2815138   -3.2580192   -1.7026603   0.10187594   -3.2580192    1.5553589   542635 
 5287000     1.280109   -3.2554821   -1.7018769   0.10506999   -3.2554821    1.5536053   542652 
 5288000    1.2806377   -3.2570951   -1.7029198   0.10743589   -3.2570951    1.5541753   542677 
 5289000    1.2807955   -3.2580824   -1.7038102    0.1051012   -3.2580824    1.5542722   542710 
 5290000    1.2798877   -3.2582184   -1.7051137   0.10611773   -3.2582184    1.5531048   542733 
 5291000    1.2799905   -3.2571257   -1.7039792   0.10725785   -3.2571257    1.5531466   542762 
 5292000    1.2804464   -3.2588542   -1.7052317   0.10727477   -3.2588542    1.5536225   542789 
 5293000    1.2803254   -3.2589112   -1.7054899   0.10425638   -3.2589112    1.5534212   542808 
 5294000    1.2804429   -3.2594658    -1.705982   0.10359807   -3.2594658    1.5534837   542836 
 5295000    1.2797777   -3.2587646   -1.7061622   0.10154985   -3.2587646    1.5526024   542862 
 5296000    1.2799785   -3.2595981   -1.7068008   0.10300438   -3.2595981    1.5527973   542879 
 5297000    1.2801528   -3.2599944   -1.7070601  0.096059443   -3.2599944    1.5529343   542905 
 5298000    1.2799141   -3.2597208   -1.7071246   0.10552836   -3.2597208    1.5525962   542922 
 5299000    1.2794142   -3.2595949   -1.7076937   0.10315966   -3.2595949    1.5519012   542953 
 5300000    1.2795979    -3.259722   -1.7076895   0.10424559    -3.259722    1.5520325   542985 
 5301000    1.2798382   -3.2601045    -1.707872   0.10552481   -3.2601045    1.5522325   543017 
 5302000    1.2802744   -3.2600581   -1.7073766   0.10643467   -3.2600581    1.5526815   543045 
 5303000    1.2825208   -3.2621575   -1.7068748     0.103712   -3.2621575    1.5552827   543088 
 5304000     1.279574   -3.2587575   -1.7071197   0.10934719   -3.2587575    1.5516378   543113 
 5305000    1.2792216   -3.2593532   -1.7082027    0.1093514   -3.2593532    1.5511505   543134 
 5306000    1.2808372   -3.2603862    -1.707351   0.10347918   -3.2603862    1.5530352   543160 
 5307000    1.2803929   -3.2585118   -1.7060582   0.10277679   -3.2585118    1.5524536   543175 
 5308000    1.2806844   -3.2614113   -1.7086615   0.10047707   -3.2614113    1.5527499   543195 
 5309000    1.2818889   -3.2619291   -1.7078333    0.1045069   -3.2619291    1.5540958   543235 
 5310000    1.2815887   -3.2610317   -1.7074029  0.097012026   -3.2610317    1.5536289   543271 
 5311000    1.2807949   -3.2598879     -1.70727  0.099829524   -3.2598879    1.5526179   543288 
 5312000    1.2798784   -3.2594839   -1.7080084   0.10101487   -3.2594839    1.5514755   543299 
 5313000    1.2803477   -3.2585347   -1.7065474   0.10303594   -3.2585347    1.5519873   543319 
 5314000     1.281034   -3.2593478   -1.7065743   0.10312788   -3.2593478    1.5527735   543335 
 5315000    1.2798353   -3.2582795   -1.7070618  0.097032776   -3.2582795    1.5512178   543371 
 5316000    1.2794756   -3.2576334   -1.7069173   0.10292851   -3.2576334    1.5507161   543394 
 5317000     1.279359   -3.2578703   -1.7073468   0.10390082   -3.2578703    1.5505235   543412 
 5318000    1.2806257   -3.2584872   -1.7065057   0.10039562   -3.2584872    1.5519815   543439 
 5319000    1.2801966   -3.2577672   -1.7064085   0.10208056   -3.2577672    1.5513587   543475 
 5320000    1.2814248   -3.2578559   -1.7050689  0.095645981   -3.2578559    1.5527871   543496 
 5321000    1.2821091   -3.2580178   -1.7045245   0.10622806   -3.2580178    1.5534934   543539 
 5322000    1.2825955   -3.2589521   -1.7050037  0.099269829   -3.2589521    1.5539484   543586 
 5323000    1.2822096   -3.2583354   -1.7048917  0.099594542   -3.2583354    1.5534437   543599 
 5324000    1.2819958   -3.2576382   -1.7045021   0.09855873   -3.2576382    1.5531361   543616 
 5325000    1.2829906   -3.2584921   -1.7041823   0.10900704   -3.2584921    1.5543099   543627 
 5326000    1.2830108   -3.2575132   -1.7032419   0.10959524   -3.2575132    1.5542714   543649 
 5327000    1.2845435   -3.2605384    -1.704396  0.096131088   -3.2605384    1.5561424   543644 
 5328000    1.2829364   -3.2581042   -1.7039916  0.099067616   -3.2581042    1.5541126   543673 
 5329000    1.2838443   -3.2599023   -1.7047298   0.10216169   -3.2599023    1.5551724   543687 
 5330000    1.2825234   -3.2579764   -1.7044527   0.10161026   -3.2579764    1.5535238   543704 
 5331000    1.2820916   -3.2585616   -1.7056266   0.10605715   -3.2585616     1.552935   543727 
 5332000    1.2823963   -3.2603387    -1.707086   0.10176021   -3.2603387    1.5532527   543745 
 5333000     1.281324   -3.2584864   -1.7065725   0.10123519   -3.2584864    1.5519139   543759 
 5334000    1.2809698   -3.2587442   -1.7073563   0.10561874   -3.2587442     1.551388   543793 
 5335000    1.2809991   -3.2582451   -1.7069329   0.10249579   -3.2582451    1.5513122   543832 
 5336000    1.2824704   -3.2599209   -1.7069069   0.10511401   -3.2599209     1.553014   543860 
 5337000    1.2829645   -3.2605265   -1.7069771   0.10409441   -3.2605265    1.5535495   543882 
 5338000    1.2841258    -3.260791   -1.7058839   0.10217248    -3.260791    1.5549071   543899 
 5339000    1.2820037    -3.257345   -1.7050475   0.11308741    -3.257345    1.5522975   543913 
 5340000    1.2831545   -3.2598403   -1.7061922   0.10329656   -3.2598403    1.5536482   543928 
 5341000    1.2833429   -3.2614246   -1.7076311   0.10637311   -3.2614246    1.5537934   543957 
 5342000    1.2825059   -3.2596408   -1.7069065   0.10655262   -3.2596408    1.5527343   543973 
 5343000    1.2827121   -3.2605557   -1.7076574   0.10407474   -3.2605557    1.5528983   544003 
 5344000    1.2851882   -3.2627302   -1.7069142     0.103132   -3.2627302     1.555816   544031 
 5345000    1.2836357   -3.2617787   -1.7079193   0.10526644   -3.2617787    1.5538594   544058 
 5346000    1.2850762   -3.2639895   -1.7084293   0.10480885   -3.2639895    1.5555602   544073 
 5347000    1.2836645   -3.2626031   -1.7087945    0.1073071   -3.2626031    1.5538086   544088 
 5348000    1.2850085   -3.2638612    -1.708503   0.10315905   -3.2638612    1.5553582   544115 
 5349000    1.2843039   -3.2635991   -1.7091795   0.10694229   -3.2635991    1.5544196   544145 
 5350000    1.2824998   -3.2609475   -1.7087428   0.10988444   -3.2609475    1.5522048   544156 
 5351000    1.2848864   -3.2632226   -1.7081779   0.10169997   -3.2632226    1.5550447   544173 
 5352000    1.2832556   -3.2617359   -1.7086935   0.10514859   -3.2617359    1.5530425   544183 
 5353000    1.2830143   -3.2617544   -1.7090781   0.10768683   -3.2617544    1.5526762   544209 
 5354000    1.2850494   -3.2627426   -1.7076835   0.10901443   -3.2627426    1.5550591   544237 
 5355000    1.2859324   -3.2633082   -1.7072206   0.10102579   -3.2633082    1.5560876   544251 
 5356000    1.2845187   -3.2615015   -1.7072331   0.10779346   -3.2615015    1.5542684   544289 
 5357000    1.2856704   -3.2626029   -1.7070382   0.10833063   -3.2626029    1.5555647   544323 
 5358000    1.2850346   -3.2626229   -1.7079303   0.10730227   -3.2626229    1.5546927   544359 
 5359000    1.2855743    -3.263513   -1.7082703   0.10695307    -3.263513    1.5552427   544395 
 5360000    1.2854535   -3.2627287   -1.7076664   0.10977329   -3.2627287    1.5550623   544407 
 5361000    1.2856827   -3.2635359   -1.7082648   0.10629699   -3.2635359     1.555271   544431 
 5362000    1.2858219   -3.2631665   -1.7077128   0.10726904   -3.2631665    1.5554537   544426 
 5363000    1.2843721   -3.2619986   -1.7083872   0.10539643   -3.2619986    1.5536114   544457 
 5364000     1.283469   -3.2622451   -1.7097859   0.10604391   -3.2622451    1.5524592   544478 
 5365000    1.2851261   -3.2624129   -1.7080435     0.105539   -3.2624129    1.5543694   544511 
 5366000     1.285222   -3.2626957   -1.7082447   0.10965382   -3.2626957     1.554451   544523 
 5367000     1.285614   -3.2645051   -1.7096656   0.10204857   -3.2645051    1.5548395   544553 
 5368000    1.2825425   -3.2612015    -1.710145   0.10795443   -3.2612015    1.5510565   544577 
 5369000    1.2852667   -3.2644761   -1.7102222   0.10390266   -3.2644761    1.5542539   544611 
 5370000    1.2839742   -3.2627962   -1.7102392   0.10608939   -3.2627962     1.552557   544658 
 5371000    1.2859248   -3.2652851    -1.710421   0.10322852   -3.2652851    1.5548642   544676 
 5372000    1.2850271   -3.2643667   -1.7107107    0.1070963   -3.2643667    1.5536561   544719 
 5373000      1.28668   -3.2653761    -1.709813   0.10956218   -3.2653761    1.5555631   544751 
 5374000    1.2850447   -3.2648813   -1.7113893    0.1084068   -3.2648813     1.553492   544784 
 5375000    1.2866813   -3.2660468   -1.7105935   0.11044966   -3.2660468    1.5554533   544790 
 5376000    1.2857597    -3.265173    -1.710888   0.10597984    -3.265173     1.554285   544809 
 5377000    1.2848527   -3.2650901   -1.7119727   0.10698939   -3.2650901    1.5531174   544834 
 5378000    1.2851063    -3.264375   -1.7110823    0.1048276    -3.264375    1.5532927   544880 
 5379000    1.2850584   -3.2644502    -1.711278   0.10562504   -3.2644502    1.5531722   544902 
 5380000    1.2856342   -3.2661185   -1.7123474    0.1052062   -3.2661185    1.5537711   544936 
 5381000    1.2850217   -3.2662011   -1.7132243   0.10463117   -3.2662011    1.5529768   544955 
 5382000     1.282968   -3.2657049   -1.7152527   0.10260462   -3.2657049    1.5504522   544970 
 5383000    1.2833116   -3.2650569   -1.7142635   0.10589396   -3.2650569    1.5507934   544996 
 5384000    1.2832043   -3.2653969   -1.7148044   0.10755802   -3.2653969    1.5505925   545021 
 5385000    1.2840748   -3.2660193   -1.7144147   0.10591319   -3.2660193    1.5516046   545035 
 5386000    1.2861307   -3.2702702   -1.7162555   0.10187442   -3.2702702    1.5540147   545061 
 5387000    1.2839448   -3.2673452    -1.715983   0.10147438   -3.2673452    1.5513621   545065 
 5388000    1.2842459   -3.2677268    -1.716072   0.10633994   -3.2677268    1.5516548   545090 
 5389000    1.2837886   -3.2672927   -1.7162729   0.10368751   -3.2672927    1.5510198   545119 
 5390000    1.2860583   -3.2697719   -1.7160756   0.10464832   -3.2697719    1.5536963   545142 
 5391000     1.285907   -3.2690583   -1.7156331  0.099189896   -3.2690583    1.5534253   545173 
 5392000    1.2861758   -3.2678645   -1.7141801   0.10685246   -3.2678645    1.5536844   545196 
 5393000    1.2873421   -3.2693733   -1.7143514   0.10919651   -3.2693733    1.5550219   545221 
 5394000    1.2876582   -3.2692475    -1.713935   0.10819871   -3.2692475    1.5553125   545253 
 5395000    1.2868428   -3.2696184   -1.7153336   0.10793673   -3.2696184    1.5542848   545268 
 5396000    1.2866972   -3.2686443   -1.7145865   0.11057095   -3.2686443    1.5540578   545286 
 5397000    1.2861581    -3.267481   -1.7141057   0.10535687    -3.267481    1.5533752   545297 
 5398000     1.285885   -3.2675194   -1.7145195   0.11296526   -3.2675194    1.5529999   545313 
 5399000    1.2856787   -3.2679098   -1.7152388   0.10853643   -3.2679098     1.552671   545341 
 5400000    1.2867343   -3.2692459   -1.7153628    0.1049217   -3.2692459    1.5538831   545363 
 5401000    1.2860559   -3.2681329    -1.715126    0.1108958   -3.2681329    1.5530069   545383 
 5402000    1.2853392     -3.26817   -1.7161196   0.11127814     -3.26817    1.5520504   545415 
 5403000    1.2862057   -3.2693168   -1.7162913   0.10330378   -3.2693168    1.5530255   545440 
 5404000    1.2847083   -3.2676289   -1.7164029   0.10596969   -3.2676289     1.551226   545437 
 5405000    1.2856231   -3.2699162   -1.7176511   0.10299469   -3.2699162    1.5522651   545460 
 5406000    1.2831881   -3.2668569   -1.7175574   0.10446227   -3.2668569    1.5492995   545469 
 5407000    1.2845429   -3.2688637   -1.7179598  0.098073306   -3.2688637    1.5509039   545480 
 5408000    1.2854551   -3.2706405   -1.7186892   0.10382471   -3.2706405    1.5519513   545499 
 5409000    1.2834424   -3.2682608   -1.7188162    0.1062899   -3.2682608    1.5494446   545526 
 5410000    1.2839858   -3.2682394   -1.7182097   0.10532379   -3.2682394    1.5500297   545551 
 5411000    1.2847127   -3.2687479   -1.7178578   0.10315916   -3.2687479    1.5508901   545557 
 5412000    1.2865334   -3.2699195   -1.7169368   0.10471986   -3.2699195    1.5529827   545594 
 5413000    1.2842488    -3.268384   -1.7182159   0.10168199    -3.268384    1.5501681   545614 
 5414000    1.2849514    -3.269716    -1.718751   0.10323092    -3.269716     1.550965   545632 
 5415000    1.2868665   -3.2716761   -1.7184708   0.10124093   -3.2716761    1.5532054   545657 
 5416000    1.2850013   -3.2685935   -1.7176791   0.10678416   -3.2685935    1.5509144   545671 
 5417000    1.2863774   -3.2685585   -1.7160742   0.10709103   -3.2685585    1.5524843   545703 
 5418000    1.2866068   -3.2684629   -1.7157247   0.10610394   -3.2684629    1.5527382   545711 
 5419000    1.2849175   -3.2682416   -1.7175761    0.1049207   -3.2682416    1.5506655   545723 
 5420000    1.2860086   -3.2686663   -1.7167523    0.1047847   -3.2686663     1.551914   545747 
 5421000    1.2858471   -3.2689148   -1.7172781   0.10674916   -3.2689148    1.5516367   545776 
 5422000    1.2860397   -3.2699474   -1.7181267   0.10317862   -3.2699474    1.5518207   545793 
 5423000    1.2850146   -3.2682527   -1.7177626   0.10407562   -3.2682527      1.55049   545826 
 5424000    1.2832223   -3.2662762   -1.7180452   0.10805801   -3.2662762     1.548231   545860 
 5425000    1.2866843   -3.2697111   -1.7173884   0.10552451   -3.2697111    1.5523227   545890 
 5426000    1.2869346   -3.2712841   -1.7187534   0.10196993   -3.2712841    1.5525307   545923 
 5427000    1.2868342    -3.270643   -1.7183385    0.1064016    -3.270643    1.5523045   545960 
 5428000    1.2853951   -3.2709133   -1.7204187   0.10175464   -3.2709133    1.5504946   545986 
 5429000    1.2845999   -3.2701633   -1.7207073   0.10038818   -3.2701633     1.549456   546014 
 5430000    1.2859474   -3.2710851   -1.7200351   0.10044071   -3.2710851      1.55105   546025 
 5431000    1.2861948   -3.2696945   -1.7183943   0.10282067   -3.2696945    1.5513002   546042 
 5432000    1.2886558   -3.2729407   -1.7187634  0.097123378   -3.2729407    1.5541773   546074 
 5433000    1.2847999   -3.2686842    -1.719214   0.10423012   -3.2686842    1.5494701   546094 
 5434000    1.2848746   -3.2676914   -1.7182191    0.1077245   -3.2676914    1.5494723   546125 
 5435000    1.2871498   -3.2701489   -1.7181034   0.10089591   -3.2701489    1.5520455   546185 
 5436000    1.2886757   -3.2707403   -1.7169173   0.10204086   -3.2707403    1.5538229   546207 
 5437000    1.2884123   -3.2704269   -1.7169415   0.10629612   -3.2704269    1.5534854   546214 
 5438000    1.2885053   -3.2713631    -1.717885   0.10103832   -3.2713631    1.5534781   546256 
 5439000    1.2871526    -3.270033   -1.7182342   0.10994996    -3.270033    1.5517988   546273 
 5440000    1.2894661    -3.271557    -1.717023  0.098773337    -3.271557     1.554534   546292 
 5441000     1.287413   -3.2704013   -1.7184164   0.10457968   -3.2704013     1.551985   546318 
 5442000    1.2870781   -3.2709843   -1.7194484    0.1068332   -3.2709843    1.5515358   546334 
 5443000    1.2873695   -3.2715261   -1.7196759   0.10367735   -3.2715261    1.5518502   546347 
 5444000    1.2881683   -3.2721965   -1.7194602  0.098385778   -3.2721965    1.5527363   546374 
 5445000     1.286564   -3.2697525   -1.7190152   0.11146068   -3.2697525    1.5507373   546397 
 5446000    1.2885804   -3.2710657   -1.7180088   0.10834243   -3.2710657    1.5530569   546436 
 5447000     1.287044   -3.2690889   -1.7180059   0.10732332   -3.2690889     1.551083   546479 
 5448000    1.2881497   -3.2699314   -1.7175443   0.10508399   -3.2699314    1.5523871   546489 
 5449000    1.2878287   -3.2700582   -1.7181034   0.10479963   -3.2700582    1.5519548   546505 
 5450000    1.2870383   -3.2696786   -1.7187216   0.10407862   -3.2696786     1.550957   546521 
 5451000    1.2870996    -3.269237    -1.718209   0.10206246    -3.269237     1.551028   546522 
 5452000    1.2895781   -3.2717569   -1.7177905   0.10023626   -3.2717569    1.5539664   546539 
 5453000    1.2871504    -3.268294   -1.7172785   0.11228032    -3.268294    1.5510155   546548 
 5454000    1.2874183   -3.2682977   -1.7169992   0.10670734   -3.2682977    1.5512985   546562 
 5455000    1.2881484   -3.2689593    -1.716852   0.10852544   -3.2689593    1.5521072   546587 
 5456000    1.2871954   -3.2689009   -1.7180128   0.10972583   -3.2689009    1.5508881   546612 
 5457000    1.2887892   -3.2706581   -1.7178697    0.1014876   -3.2706581    1.5527884   546619 
 5458000    1.2866953   -3.2685114   -1.7183138  0.099854234   -3.2685114    1.5501976   546643 
 5459000    1.2879677   -3.2702801   -1.7186007   0.10216822   -3.2702801    1.5516794   546661 
 5460000    1.2892778   -3.2708325   -1.7176713   0.10552492   -3.2708325    1.5531612   546695 
 5461000    1.2897699   -3.2700275   -1.7163132  0.095510053   -3.2700275    1.5537143   546709 
 5462000    1.2885542    -3.268555   -1.7163734   0.10614742    -3.268555    1.5521816   546733 
 5463000    1.2910296   -3.2718458   -1.7167506   0.10889482   -3.2718458    1.5550952   546757 
 5464000    1.2880613   -3.2697696   -1.7183151   0.10449146   -3.2697696    1.5514545   546780 
 5465000    1.2872357   -3.2690058   -1.7186676   0.10670288   -3.2690058    1.5503382   546823 
 5466000    1.2902139   -3.2721005   -1.7182323   0.09778659   -3.2721005    1.5538682   546843 
 5467000    1.2880676   -3.2691582   -1.7178777   0.10524605   -3.2691582    1.5512805   546844 
 5468000    1.2898896   -3.2722089   -1.7187313   0.10209082   -3.2722089    1.5534776   546843 
 5469000     1.287535   -3.2687434   -1.7182262   0.10696048   -3.2687434    1.5505172   546887 
 5470000    1.2868996   -3.2688317   -1.7190967   0.11066357   -3.2688317     1.549735   546893 
 5471000    1.2883013   -3.2706314   -1.7192821    0.1038178   -3.2706314    1.5513492   546919 
 5472000    1.2887349   -3.2704789   -1.7186926    0.1020713   -3.2704789    1.5517863   546949 
 5473000    1.2896408   -3.2726305   -1.7198755   0.10029674   -3.2726305     1.552755   546992 
 5474000    1.2918186   -3.2748445   -1.7195641  0.095580078   -3.2748445    1.5552804   547026 
 5475000    1.2895253   -3.2718434   -1.7194318   0.10557205   -3.2718434    1.5524116   547064 
 5476000    1.2910707   -3.2736794   -1.7194274   0.10373752   -3.2736794    1.5542521   547071 
 5477000    1.2900188    -3.272723    -1.719794   0.10704154    -3.272723     1.552929   547091 
 5478000     1.289308   -3.2719415   -1.7198568   0.10913534   -3.2719415    1.5520847   547087 
 5479000    1.2900142   -3.2733648   -1.7205094   0.10503506   -3.2733648    1.5528553   547115 
 5480000    1.2900898   -3.2727341   -1.7198644   0.10586862   -3.2727341    1.5528697   547142 
 5481000    1.2908124    -3.273921    -1.720278    0.1033192    -3.273921     1.553643   547176 
 5482000    1.2907739   -3.2725759    -1.719019    0.1042363   -3.2725759    1.5535568   547190 
 5483000    1.2911407   -3.2745229   -1.7206382   0.10311637   -3.2745229    1.5538847   547230 
 5484000    1.2905124   -3.2742017   -1.7211214   0.10286416   -3.2742017    1.5530803   547247 
 5485000    1.2912276   -3.2756288   -1.7217616    0.1064083   -3.2756288    1.5538672   547273 
 5486000    1.2908108   -3.2758025   -1.7225163   0.10351654   -3.2758025    1.5532862   547301 
 5487000    1.2920272   -3.2778019    -1.723157   0.10625787   -3.2778019    1.5546448   547338 
 5488000    1.2896463   -3.2743327   -1.7225981   0.10861855   -3.2743327    1.5517346   547354 
 5489000    1.2921318   -3.2774006   -1.7227491   0.10794169   -3.2774006    1.5546514   547380 
 5490000    1.2904351   -3.2751283   -1.7225665   0.10284365   -3.2751283    1.5525618   547397 
 5491000     1.291148   -3.2754817   -1.7221162   0.10309849   -3.2754817    1.5533656   547416 
 5492000    1.2899638   -3.2750867   -1.7231855   0.10437153   -3.2750867    1.5519012   547430 
 5493000    1.2921228   -3.2768057   -1.7223555   0.10181299   -3.2768057    1.5544502   547447 
 5494000    1.2910689   -3.2749093   -1.7218034   0.10877662   -3.2749093    1.5531058   547474 
 5495000    1.2927219   -3.2762893   -1.7212518   0.10973148   -3.2762893    1.5550375   547494 
 5496000    1.2928165    -3.277235   -1.7221405   0.10913338    -3.277235    1.5550945   547514 
 5497000    1.2916083   -3.2771584   -1.7235967   0.11090053   -3.2771584    1.5535617   547542 
 5498000    1.2914254   -3.2768171   -1.7235576   0.10606371   -3.2768171    1.5532595   547571 
 5499000    1.2893861    -3.275502   -1.7247661   0.10964924    -3.275502    1.5507359   547596 
 5500000    1.2919661   -3.2774751   -1.7237554   0.10774485   -3.2774751    1.5537197   547638 
 5501000    1.2912309   -3.2758906   -1.7231146   0.10414662   -3.2758906     1.552776   547659 
 5502000    1.2911959   -3.2757239   -1.7230467   0.10973842   -3.2757239    1.5526772   547679 
 5503000    1.2911237   -3.2752513   -1.7226977   0.10778306   -3.2752513    1.5525535   547692 
 5504000    1.2915181   -3.2762157   -1.7232532     0.102291   -3.2762157    1.5529626   547715 
 5505000    1.2922687   -3.2766974   -1.7229287   0.10789933   -3.2766974    1.5537687   547749 
 5506000    1.2913974   -3.2766444   -1.7240622   0.10670541   -3.2766444    1.5525821   547798 
 5507000    1.2924502   -3.2776024   -1.7238055   0.10605043   -3.2776024    1.5537969   547816 
 5508000    1.2918052   -3.2757743   -1.7228294   0.10168031   -3.2757743    1.5529449   547843 
 5509000    1.2908399   -3.2752719    -1.723581   0.10044491   -3.2752719    1.5516909   547876 
 5510000    1.2904884   -3.2747941    -1.723554   0.10526315   -3.2747941    1.5512401   547886 
 5511000    1.2918767   -3.2770809   -1.7242201   0.10109871   -3.2770809    1.5528608   547903 
 5512000    1.2903183   -3.2748144   -1.7239287   0.10358231   -3.2748144    1.5508857   547939 
 5513000    1.2919576   -3.2761457   -1.7233718   0.10394409   -3.2761457    1.5527738   547968 
 5514000    1.2926653   -3.2769777    -1.723461   0.10166905   -3.2769777    1.5535167   548006 
 5515000    1.2919918   -3.2769069    -1.724262    0.1024949   -3.2769069    1.5526449   548028 
 5516000    1.2925836   -3.2763679   -1.7230657   0.11138935   -3.2763679    1.5533022   548047 
 5517000     1.291501   -3.2751201   -1.7232264   0.10370484   -3.2751201    1.5518937   548085 
 5518000    1.2927216   -3.2768036   -1.7235396   0.10276727   -3.2768036     1.553264   548119 
 5519000    1.2914231   -3.2752343   -1.7235587   0.10887977   -3.2752343    1.5516755   548129 
 5520000    1.2940475   -3.2779585   -1.7232375   0.10584239   -3.2779585     1.554721   548167 
 5521000    1.2919768   -3.2761922   -1.7240412   0.10562094   -3.2761922     1.552151   548196 
 5522000    1.2936175   -3.2778234   -1.7237749   0.10386909   -3.2778234    1.5540485   548222 
 5523000    1.2924146    -3.276347   -1.7238145   0.10200727    -3.276347    1.5525325   548247 
 5524000    1.2913376   -3.2752759   -1.7241249   0.10627831   -3.2752759    1.5511511   548278 
 5525000    1.2932619    -3.277097   -1.7236571   0.10908668    -3.277097    1.5534399   548286 
 5526000    1.2932348   -3.2764976   -1.7232319   0.10913348   -3.2764976    1.5532657   548336 
 5527000    1.2923401   -3.2754011   -1.7232383   0.10622262   -3.2754011    1.5521628   548346 
 5528000    1.2916877   -3.2751467   -1.7238212   0.11419501   -3.2751467    1.5513255   548365 
 5529000    1.2912721   -3.2743343   -1.7235362   0.10610741   -3.2743343     1.550798   548375 
 5530000    1.2929937    -3.275939   -1.7231385   0.10678001    -3.275939    1.5528005   548398 
 5531000     1.293821   -3.2769336   -1.7231962   0.10391933   -3.2769336    1.5537375   548418 
 5532000    1.2927649   -3.2760568   -1.7236782   0.10378906   -3.2760568    1.5523786   548450 
 5533000    1.2930192   -3.2767364     -1.72416   0.10811528   -3.2767364    1.5525764   548488 
 5534000    1.2925919     -3.27672   -1.7247105   0.10584943     -3.27672    1.5520096   548507 
 5535000    1.2938191   -3.2764781   -1.7230828   0.10604676   -3.2764781    1.5533953   548538 
 5536000    1.2934572   -3.2749858   -1.7221129   0.10500273   -3.2749858    1.5528729   548569 
 5537000    1.2944728   -3.2748884   -1.7208555   0.10824235   -3.2748884    1.5540328   548590 
 5538000    1.2949064   -3.2763598   -1.7218122   0.10793209   -3.2763598    1.5545476   548592 
 5539000    1.2940274   -3.2765976   -1.7231986   0.10285954   -3.2765976     1.553399   548625 
 5540000    1.2920883   -3.2741133    -1.723093   0.10377473   -3.2741133    1.5510203   548643 
 5541000    1.2922749   -3.2747191   -1.7235257   0.10415314   -3.2747191    1.5511934   548661 
 5542000     1.291694   -3.2753881   -1.7249852   0.10384335   -3.2753881    1.5504029   548694 
 5543000    1.2933042   -3.2771857    -1.724918    0.1063684   -3.2771857    1.5522677   548718 
 5544000    1.2925091   -3.2774803   -1.7262686   0.10211746   -3.2774803    1.5512116   548754 
 5545000    1.2923988   -3.2777745   -1.7267066  0.098567167   -3.2777745    1.5510679   548758 
 5546000    1.2909468     -3.27599    -1.726755   0.10436808     -3.27599     1.549235   548790 
 5547000    1.2933561   -3.2789807   -1.7269308   0.10401193   -3.2789807    1.5520499   548817 
 5548000      1.29234   -3.2764797   -1.7257509   0.10778421   -3.2764797    1.5507288   548853 
 5549000    1.2928401   -3.2765237   -1.7252344   0.10855732   -3.2765237    1.5512894   548867 
 5550000     1.293015   -3.2777136    -1.726268   0.10231642   -3.2777136    1.5514456   548886 
 5551000    1.2933938   -3.2779733   -1.7261976   0.10967022   -3.2779733    1.5517757   548930 
 5552000    1.2932319     -3.27781   -1.7263048   0.10144385     -3.27781    1.5515051   548957 
 5553000    1.2926634    -3.276873   -1.7261036   0.11050775    -3.276873    1.5507694   548976 
 5554000    1.2923058   -3.2774334   -1.7271749   0.10486221   -3.2774334    1.5502585   549005 
 5555000    1.2935181   -3.2793931   -1.7277453   0.10185272   -3.2793931    1.5516478   549028 
 5556000    1.2941155   -3.2794898   -1.7271904   0.10537942   -3.2794898    1.5522994   549051 
 5557000    1.2929614   -3.2788001   -1.7279613   0.11044007   -3.2788001    1.5508388   549078 
 5558000    1.2934774   -3.2805279   -1.7291295   0.10113807   -3.2805279    1.5513984   549099 
 5559000    1.2940169   -3.2816297   -1.7296493   0.10383488   -3.2816297    1.5519804   549122 
 5560000    1.2928097   -3.2797303   -1.7292176   0.10735313   -3.2797303    1.5505127   549129 
 5561000    1.2924427   -3.2794793   -1.7294603   0.10579967   -3.2794793     1.550019   549148 
 5562000    1.2931111   -3.2804839   -1.7297197   0.10592221   -3.2804839    1.5507642   549168 
 5563000    1.2926592   -3.2806686    -1.730483   0.10790881   -3.2806686    1.5501855   549181 
 5564000    1.2925881   -3.2815617   -1.7315179   0.10673019   -3.2815617    1.5500438   549201 
 5565000    1.2939653   -3.2821531     -1.73052   0.10535535   -3.2821531    1.5516332   549223 
 5566000    1.2945177   -3.2820631   -1.7298383   0.11013962   -3.2820631    1.5522248   549248 
 5567000     1.293428    -3.279244   -1.7283483   0.10661356    -3.279244    1.5508957   549256 
 5568000    1.2927028   -3.2799056   -1.7299501   0.10892145   -3.2799056    1.5499555   549281 
 5569000    1.2922039    -3.279919   -1.7306519   0.10901164    -3.279919    1.5492671   549313 
 5570000    1.2927984   -3.2804584     -1.73058   0.10849805   -3.2804584    1.5498784   549349 
 5571000    1.2934755   -3.2806997   -1.7300548   0.10643077   -3.2806997    1.5506449   549365 
 5572000    1.2944837   -3.2822753   -1.7305319   0.10530608   -3.2822753    1.5517433   549404 
 5573000      1.29431   -3.2808493   -1.7293508   0.10848359   -3.2808493    1.5514985   549417 
 5574000     1.295047   -3.2817059   -1.7294371   0.10939268   -3.2817059    1.5522688   549457 
 5575000    1.2954221   -3.2809034   -1.7282047   0.10501354   -3.2809034    1.5526987   549464 
 5576000    1.2942015   -3.2808584   -1.7296312   0.11037229   -3.2808584    1.5512272   549467 
 5577000    1.2954781   -3.2823095   -1.7296143   0.10616736   -3.2823095    1.5526952   549489 
 5578000    1.2935542   -3.2808381   -1.7305108   0.10883713   -3.2808381    1.5503273   549511 
 5579000    1.2947624   -3.2824115   -1.7306419  0.096510453   -3.2824115    1.5517696   549513 
 5580000     1.293621   -3.2811135   -1.7307627   0.11214699   -3.2811135    1.5503509   549531 
 5581000    1.2938876   -3.2821856   -1.7315577   0.10435735   -3.2821856     1.550628   549546 
 5582000    1.2946964   -3.2820323   -1.7305084   0.10068868   -3.2820323    1.5515239   549572 
 5583000    1.2934878   -3.2811662   -1.7311809   0.10684179   -3.2811662    1.5499853   549604 
 5584000    1.2931319   -3.2795213   -1.7300217   0.10360954   -3.2795213    1.5494996   549625 
 5585000    1.2950806   -3.2817098   -1.7299458   0.11039626   -3.2817098    1.5517641   549650 
 5586000    1.2935058   -3.2796316   -1.7297657   0.10926182   -3.2796316    1.5498659   549654 
 5587000    1.2953143   -3.2826949   -1.7307411   0.10814801   -3.2826949    1.5519538   549682 
 5588000     1.294826   -3.2825414   -1.7312686   0.10456902   -3.2825414    1.5512727   549716 
 5589000    1.2938498   -3.2816866   -1.7316341   0.10098821   -3.2816866    1.5500525   549734 
 5590000    1.2936385    -3.281153   -1.7314129   0.10625872    -3.281153    1.5497401   549755 
 5591000    1.2958249   -3.2834661   -1.7311773   0.10679142   -3.2834661    1.5522888   549780 
 5592000    1.2954224   -3.2825662   -1.7307906   0.10787894   -3.2825662    1.5517756   549791 
 5593000    1.2976785    -3.284594   -1.7301922   0.10801062    -3.284594    1.5544018   549818 
 5594000    1.2959579   -3.2833575   -1.7310223    0.1063254   -3.2833575    1.5523351   549820 
 5595000    1.2941772   -3.2825386   -1.7324069   0.10820346   -3.2825386    1.5501317   549845 
 5596000    1.2940747    -3.283183   -1.7332642   0.10919991    -3.283183    1.5499187   549877 
 5597000    1.2944569   -3.2828811   -1.7325807   0.10352113   -3.2828811    1.5503004   549904 
 5598000    1.2953835   -3.2837276   -1.7323795   0.10599935   -3.2837276    1.5513481   549926 
 5599000    1.2949847   -3.2832837   -1.7324584    0.1069037   -3.2832837    1.5508253   549942 
 5600000    1.2946097   -3.2835442   -1.7332215   0.10963038   -3.2835442    1.5503227   549961 
 5601000    1.2934182   -3.2819024   -1.7330741   0.10418535   -3.2819024    1.5488283   549985 
 5602000    1.2940224   -3.2842318   -1.7347533   0.10609129   -3.2842318    1.5494785   550011 
 5603000     1.295441   -3.2861353   -1.7350089    0.1013196   -3.2861353    1.5511264   550029 
 5604000     1.295075   -3.2851559   -1.7345326   0.10474291   -3.2851559    1.5506233   550052 
 5605000    1.2934903   -3.2838307   -1.7351752   0.10285399   -3.2838307    1.5486555   550077 
 5606000    1.2939644   -3.2837539   -1.7345955   0.10999237   -3.2837539    1.5491583   550100 
 5607000    1.2953618    -3.284854   -1.7340903   0.10826739    -3.284854    1.5507637   550124 
 5608000    1.2949722   -3.2842984   -1.7340405   0.10225806   -3.2842984    1.5502579   550138 
 5609000    1.2947997   -3.2837809   -1.7337944   0.10258347   -3.2837809    1.5499865   550161 
 5610000    1.2956508   -3.2845587    -1.733652   0.10088509   -3.2845587    1.5509067   550196 
 5611000    1.2967796   -3.2863235   -1.7341559   0.09847563   -3.2863235    1.5521677   550228 
 5612000    1.2942867    -3.283462   -1.7343908   0.10395508    -3.283462    1.5490712   550268 
 5613000    1.2946362   -3.2833897    -1.733965    0.1112985   -3.2833897    1.5494247   550291 
 5614000    1.2965662   -3.2862922   -1.7346366   0.09315456   -3.2862922    1.5516556   550319 
 5615000    1.2947698   -3.2845536   -1.7351999   0.10141973   -3.2845536    1.5493537   550373 
 5616000    1.2958911   -3.2857184   -1.7350596   0.10162227   -3.2857184    1.5506589   550386 
 5617000    1.2927382   -3.2822035   -1.7353877   0.10250837   -3.2822035    1.5468159   550411 
 5618000    1.2957216   -3.2855548   -1.7352537   0.10624845   -3.2855548     1.550301   550441 
 5619000    1.2964264   -3.2854692   -1.7343755   0.10289078   -3.2854692    1.5510937   550459 
 5620000    1.2962437   -3.2853603    -1.734536   0.10146786   -3.2853603    1.5508243   550477 
 5621000    1.2946571    -3.283712   -1.7348421   0.10245069    -3.283712    1.5488698   550497 
 5622000     1.296204   -3.2848035   -1.7341393   0.10921772   -3.2848035    1.5506642   550517 
 5623000    1.2987172   -3.2869065   -1.7332922   0.10457453   -3.2869065    1.5536143   550537 
 5624000    1.2984349   -3.2857231   -1.7325368   0.11288255   -3.2857231    1.5531863   550569 
 5625000    1.2978577    -3.286275   -1.7338242   0.11133152    -3.286275    1.5524508   550585 
 5626000    1.2960381   -3.2849172   -1.7346232   0.11239112   -3.2849172     1.550294   550578 
 5627000    1.2969057   -3.2867859   -1.7355415   0.10812796   -3.2867859    1.5512444   550609 
 5628000    1.2967445   -3.2873312   -1.7363049   0.10402442   -3.2873312    1.5510262   550618 
 5629000    1.2971907   -3.2868786   -1.7353581   0.11048929   -3.2868786    1.5515205   550632 
 5630000    1.2982416    -3.286411   -1.7337351   0.10630456    -3.286411    1.5526759   550668 
 5631000     1.297924   -3.2861819   -1.7339168   0.11294494   -3.2861819     1.552265   550679 
 5632000    1.2977052   -3.2874665   -1.7355222   0.10349037   -3.2874665    1.5519442   550700 
 5633000    1.2971282   -3.2859167   -1.7346964   0.10765362   -3.2859167    1.5512204   550712 
 5634000    1.2976044   -3.2867824    -1.735032    0.1085781   -3.2867824    1.5517504   550726 
 5635000    1.2955772   -3.2844549   -1.7351118   0.10711494   -3.2844549    1.5493431   550720 
 5636000    1.2956943   -3.2845528   -1.7351344   0.10940797   -3.2845528    1.5494184   550743 
 5637000    1.2960126   -3.2850205   -1.7352721   0.11111546   -3.2850205    1.5497484   550761 
 5638000      1.29692   -3.2853446   -1.7345731   0.10624819   -3.2853446    1.5507714   550783 
 5639000    1.2967094   -3.2859925   -1.7355067   0.10386772   -3.2859925    1.5504858   550795 
 5640000    1.2967217   -3.2863157    -1.735818   0.10755167   -3.2863157    1.5504977   550796 
 5641000    1.2970415   -3.2875924   -1.7368081   0.10170487   -3.2875924    1.5507844   550830 
 5642000    1.2976401   -3.2875899   -1.7361405    0.1024329   -3.2875899    1.5514493   550848 
 5643000    1.2956817   -3.2863401   -1.7372969   0.10908583   -3.2863401    1.5490432   550871 
 5644000    1.2958776   -3.2867549   -1.7375111   0.10536781   -3.2867549    1.5492438   550883 
 5645000    1.2968167   -3.2876882   -1.7373498   0.10353352   -3.2876882    1.5503383   550893 
 5646000     1.295667   -3.2850859   -1.7361614   0.10656412   -3.2850859    1.5489245   550907 
 5647000    1.2953677   -3.2860208   -1.7374908   0.10595107   -3.2860208    1.5485301   550920 
 5648000    1.2960513   -3.2854194   -1.7361255   0.10753027   -3.2854194    1.5492939   550939 
 5649000    1.2956906   -3.2852824   -1.7364871   0.10830919   -3.2852824    1.5487953   550963 
 5650000    1.2955067   -3.2864123   -1.7379297   0.10316653   -3.2864123    1.5484826   550996 
 5651000    1.2969209   -3.2869909   -1.7368489   0.10998825   -3.2869909    1.5501421   551007 
 5652000    1.2971626   -3.2877964   -1.7374132   0.10258329   -3.2877964    1.5503832   551024 
 5653000     1.296861   -3.2864409   -1.7364886   0.10947109   -3.2864409    1.5499524   551049 
 5654000    1.2973635   -3.2873419   -1.7368453   0.10624792   -3.2873419    1.5504966   551069 
 5655000    1.2970685    -3.286916   -1.7368703   0.10719629    -3.286916    1.5500457   551104 
 5656000    1.2983787   -3.2875806    -1.736034   0.10368451   -3.2875806    1.5515466   551127 
 5657000    1.2964062   -3.2863743   -1.7372832   0.11211392   -3.2863743    1.5490911   551162 
 5658000       1.2977   -3.2887224   -1.7381471   0.10274193   -3.2887224    1.5505752   551184 
 5659000    1.2962007   -3.2880839   -1.7393704   0.10247129   -3.2880839    1.5487135   551209 
 5660000    1.2973611   -3.2891303     -1.73914  0.097638893   -3.2891303    1.5499903   551248 
 5661000    1.2994147   -3.2918799   -1.7394671  0.098049544   -3.2918799    1.5524128   551259 
 5662000     1.296586   -3.2888288   -1.7398601    0.1076204   -3.2888288    1.5489687   551282 
 5663000    1.2970744   -3.2881623    -1.738655   0.10914448   -3.2881623    1.5495072   551298 
 5664000     1.297364   -3.2894287   -1.7396318   0.10092977   -3.2894287    1.5497969   551318 
 5665000    1.2959448   -3.2896938   -1.7415977   0.10415669   -3.2896938    1.5480961   551320 
 5666000    1.2979822   -3.2924924   -1.7419739   0.10430484   -3.2924924    1.5505186   551324 
 5667000    1.2981849   -3.2915535   -1.7408575  0.098633823   -3.2915535     1.550696   551347 
 5668000    1.2966324   -3.2898392   -1.7410734   0.10752877   -3.2898392    1.5487657   551374 
 5669000    1.2961318   -3.2885821    -1.740507   0.10424032   -3.2885821     1.548075   551407 
 5670000    1.2968425   -3.2900714   -1.7412148   0.10522254   -3.2900714    1.5488566   551431 
 5671000    1.2973462   -3.2911083   -1.7417177   0.10431577   -3.2911083    1.5493906   551455 
 5672000    1.2995452   -3.2924527   -1.7405091   0.10441481   -3.2924527    1.5519437   551481 
 5673000    1.2971388   -3.2901436    -1.741186   0.11116469   -3.2901436    1.5489576   551521 
 5674000    1.2972225   -3.2904906   -1.7415173   0.10421797   -3.2904906    1.5489733   551551 
 5675000     1.297248    -3.290309   -1.7413474   0.10665467    -3.290309    1.5489616   551566 
 5676000    1.2977839   -3.2913408   -1.7418264   0.10852721   -3.2913408    1.5495144   551597 
 5677000    1.2975637   -3.2911991   -1.7420234    0.1053665   -3.2911991    1.5491756   551624 
 5678000    1.2980319   -3.2911946   -1.7415246   0.10335784   -3.2911946      1.54967   551647 
 5679000    1.2983622   -3.2924968   -1.7424998   0.10103304   -3.2924968     1.549997   551671 
 5680000    1.2979165   -3.2905061   -1.7411143   0.10633222   -3.2905061    1.5493918   551697 
 5681000     1.297768   -3.2915415   -1.7423916   0.10114495   -3.2915415      1.54915   551720 
 5682000    1.2993147   -3.2936356   -1.7427152   0.10810027   -3.2936356    1.5509204   551747 
 5683000    1.2964247   -3.2909454   -1.7435195  0.098270769   -3.2909454    1.5474259   551763 
 5684000    1.2984995   -3.2919752   -1.7421347  0.098311989   -3.2919752    1.5498406   551785 
 5685000    1.2987238   -3.2908594   -1.7407736   0.10287055   -3.2908594    1.5500858   551793 
 5686000    1.2994315   -3.2913827    -1.740573   0.10623816   -3.2913827    1.5508097   551836 
 5687000     1.300066   -3.2918629   -1.7403578   0.10510293   -3.2918629    1.5515051   551858 
 5688000    1.3007422    -3.292873    -1.740592   0.10657558    -3.292873     1.552281   551869 
 5689000    1.2986841    -3.291532   -1.7417996   0.10651659    -3.291532    1.5497324   551902 
 5690000    1.2983254   -3.2913923   -1.7421582   0.11011284   -3.2913923    1.5492341   551927 
 5691000    1.3001615   -3.2947835   -1.7434118   0.10226434   -3.2947835    1.5513717   551946 
 5692000    1.3004647   -3.2946681   -1.7429768   0.10440563   -3.2946681    1.5516912   551961 
 5693000    1.2989437   -3.2919973   -1.7421743   0.10749575   -3.2919973     1.549823   551980 
 5694000    1.3021164   -3.2944452   -1.7408818   0.10464313   -3.2944452    1.5535635   551996 
 5695000    1.3004645   -3.2928389   -1.7412997   0.10760998   -3.2928389    1.5515392   552015 
 5696000    1.3000023   -3.2930999    -1.742174   0.10311591   -3.2930999    1.5509259   552037 
 5697000    1.2988756   -3.2923917   -1.7428156    0.1045651   -3.2923917    1.5495762   552039 
 5698000     1.299511   -3.2933194   -1.7430779   0.10766126   -3.2933194    1.5502415   552072 
 5699000    1.2993344   -3.2936603   -1.7437332   0.10292486   -3.2936603     1.549927   552109 
 5700000    1.3003638   -3.2943937   -1.7433118   0.10688222   -3.2943937    1.5510819   552135 
 5701000    1.3003657    -3.293786   -1.7427861   0.10204129    -3.293786    1.5509999   552165 
 5702000    1.3006022   -3.2942063   -1.7429947   0.10564654   -3.2942063    1.5512117   552190 
 5703000    1.3002257   -3.2934492   -1.7427989  0.098940629   -3.2934492    1.5506504   552230 
 5704000    1.3006698   -3.2941691   -1.7430958   0.10274823   -3.2941691    1.5510733   552268 
 5705000    1.3009425   -3.2949881   -1.7436515  0.098423475   -3.2949881    1.5513366   552290 
 5706000    1.3008217   -3.2953525   -1.7441936   0.10340747   -3.2953525    1.5511589   552302 
 5707000    1.2999146   -3.2938562   -1.7438631  0.098778342   -3.2938562    1.5499931   552332 
 5708000    1.2991318   -3.2922671   -1.7433028   0.10963588   -3.2922671    1.5489643   552366 
 5709000    1.3013042   -3.2953237   -1.7438198   0.10293875   -3.2953237    1.5515039   552384 
 5710000    1.3027259   -3.2961796   -1.7429582   0.10807867   -3.2961796    1.5532215   552376 
 5711000    1.3002395   -3.2938982   -1.7436974   0.10632028   -3.2938982    1.5502008   552396 
 5712000    1.3004053   -3.2946777   -1.7443156    0.1016657   -3.2946777     1.550362   552409 
 5713000     1.301031     -3.29528   -1.7442113   0.10767092     -3.29528    1.5510687   552423 
 5714000    1.3003676   -3.2947199   -1.7445122   0.10439003   -3.2947199    1.5502076   552448 
 5715000    1.3011193   -3.2959116   -1.7448613   0.10434493   -3.2959116    1.5510504   552467 
 5716000    1.2994231   -3.2932092   -1.7442341   0.10967564   -3.2932092    1.5489751   552486 
 5717000    1.3022544   -3.2969773   -1.7446805    0.1008601   -3.2969773    1.5522968   552505 
 5718000    1.3018764   -3.2960152   -1.7442701   0.10761756   -3.2960152    1.5517451   552541 
 5719000     1.302554   -3.2947226   -1.7421446   0.10949281   -3.2947226    1.5525781   552532 
 5720000    1.3030563   -3.2953183    -1.742195   0.11167296   -3.2953183    1.5531233   552551 
 5721000    1.3042833   -3.2974828   -1.7429139   0.10882159   -3.2974828     1.554569   552557 
 5722000    1.3011692   -3.2951291   -1.7443111   0.11163942   -3.2951291     1.550818   552571 
 5723000    1.3025211   -3.2961828   -1.7438125   0.10693995   -3.2961828    1.5523702   552592 
 5724000    1.3021888   -3.2959882   -1.7440197   0.10475621   -3.2959882    1.5519685   552594 
 5725000    1.3030014    -3.296682   -1.7437983   0.10913435    -3.296682    1.5528837   552613 
 5726000    1.3014846   -3.2958993   -1.7448739   0.10314057   -3.2958993    1.5510255   552631 
 5727000    1.3015286   -3.2960462   -1.7450245   0.10795634   -3.2960462    1.5510217   552651 
 5728000    1.3005582   -3.2958319   -1.7459862   0.10739206   -3.2958319    1.5498457   552658 
 5729000      1.30019   -3.2951609   -1.7457959   0.10924638   -3.2951609    1.5493649   552673 
 5730000    1.3000147   -3.2948823   -1.7457796   0.10475075   -3.2948823    1.5491027   552692 
 5731000      1.29888   -3.2943361   -1.7466696   0.10052671   -3.2943361    1.5476666   552722 
 5732000    1.2989439   -3.2942294   -1.7465287   0.10370653   -3.2942294    1.5477007   552737 
 5733000    1.2974745   -3.2928534    -1.747021    0.1046129   -3.2928534    1.5458324   552779 
 5734000    1.2998016    -3.295206   -1.7466991   0.10226622    -3.295206    1.5485069   552814 
 5735000    1.3030604   -3.2981882   -1.7458635   0.10174149   -3.2981882    1.5523247   552837 
 5736000    1.3008274   -3.2949246   -1.7452993   0.10641863   -3.2949246    1.5496253   552851 
 5737000    1.2996597   -3.2945602   -1.7463847   0.10403711   -3.2945602    1.5481755   552872 
 5738000    1.3035965   -3.2979973   -1.7451322   0.10149754   -3.2979973    1.5528651   552872 
 5739000     1.303647   -3.2978056   -1.7449281   0.10450964   -3.2978056    1.5528774   552889 
 5740000    1.3029081   -3.2969057   -1.7449813   0.10802837   -3.2969057    1.5519243   552915 
 5741000    1.3028286   -3.2955346   -1.7437751    0.1041932   -3.2955346    1.5517595   552940 
 5742000    1.3040267   -3.2958127   -1.7427358   0.10968552   -3.2958127    1.5530769   552979 
 5743000    1.3030923   -3.2953747   -1.7434584   0.10625714   -3.2953747    1.5519164   552996 
 5744000    1.3038252   -3.2965725   -1.7439209   0.10416817   -3.2965725    1.5526517   553045 
 5745000    1.3016451   -3.2953748    -1.745409   0.10517646   -3.2953748    1.5499659   553077 
 5746000    1.3033232   -3.2972892    -1.745398   0.10857459   -3.2972892    1.5518911   553103 
 5747000    1.3033046   -3.2980366   -1.7462182   0.10571244   -3.2980366    1.5518184   553121 
 5748000    1.3032435    -3.297577   -1.7458734   0.10684525    -3.297577    1.5517036   553136 
 5749000    1.3013739   -3.2969316   -1.7475296    0.1130806   -3.2969316     1.549402   553163 
 5750000    1.3007777   -3.2958211   -1.7471653   0.10895176   -3.2958211    1.5486558   553176 
 5751000    1.3015947   -3.2968953   -1.7473004   0.10707321   -3.2968953    1.5495949   553188 
 5752000    1.3016985   -3.2978501   -1.7481793   0.10511606   -3.2978501    1.5496707   553205 
 5753000    1.3017061   -3.2967348    -1.747055   0.10938682   -3.2967348    1.5496798   553205 
 5754000    1.3015936   -3.2976667   -1.7481768   0.10354403   -3.2976667    1.5494899   553225 
 5755000    1.3020152   -3.2992026   -1.7492641   0.10646122   -3.2992026    1.5499385   553244 
 5756000    1.3015996   -3.2969566   -1.7475464   0.10431246   -3.2969566    1.5494102   553256 
 5757000     1.302739   -3.2999644   -1.7492652   0.10394008   -3.2999644    1.5506992   553280 
 5758000    1.3022663   -3.3004979   -1.7503921   0.10612387   -3.3004979    1.5501058   553291 
 5759000    1.3023036    -3.300354   -1.7502375   0.10974815    -3.300354    1.5501165   553303 
 5760000    1.3011989   -3.2989836   -1.7502435   0.10789906   -3.2989836      1.54874   553325 
 5761000    1.3031611   -3.3010895    -1.750014   0.10704311   -3.3010895    1.5510755   553325 
 5762000    1.3026313   -3.2990439   -1.7486187   0.10966964   -3.2990439    1.5504253   553332 
 5763000    1.3033146   -3.3006253   -1.7494765   0.10982984   -3.3006253    1.5511488   553364 
 5764000    1.3034609    -3.299335   -1.7480597    0.1062703    -3.299335    1.5512754   553381 
 5765000    1.3029775   -3.2989883   -1.7484115   0.10982761   -3.2989883    1.5505768   553425 
 5766000    1.3058549   -3.3007905   -1.7468458   0.10854555   -3.3007905    1.5539448   553445 
 5767000    1.3043105   -3.2991915   -1.7472247   0.10629868   -3.2991915    1.5519668   553495 
 5768000    1.3038539   -3.2990447   -1.7476661   0.11106452   -3.2990447    1.5513786   553511 
 5769000    1.3035384   -3.2994239   -1.7484458   0.10439012   -3.2994239    1.5509781   553520 
 5770000    1.3043718    -3.300551   -1.7486234   0.10264144    -3.300551    1.5519276   553535 
 5771000     1.303008     -3.29986   -1.7496335    0.1124943     -3.29986    1.5502265   553563 
 5772000    1.3042866   -3.3012231   -1.7495259   0.10910242   -3.3012231    1.5516972   553581 
 5773000    1.3031203   -3.2999542   -1.7496726   0.10422046   -3.2999542    1.5502817   553591 
 5774000    1.3021846   -3.2992297   -1.7501423   0.11210894   -3.2992297    1.5490874   553620 
 5775000    1.3052088   -3.3015554   -1.7489517   0.10267959   -3.3015554    1.5526037   553649 
 5776000    1.3020373   -3.2997269   -1.7509938   0.10468444   -3.2997269    1.5487331   553684 
 5777000    1.3018903   -3.2986985   -1.7502158   0.10541697   -3.2986985    1.5484827   553711 
 5778000    1.3022018   -3.2996227   -1.7508254   0.10387344   -3.2996227    1.5487973   553731 
 5779000    1.3036966   -3.2997977   -1.7492869   0.11019374   -3.2997977    1.5505107   553754 
 5780000    1.3023805   -3.2986001   -1.7496881   0.10918206   -3.2986001     1.548912   553766 
 5781000    1.3024183   -3.2985347    -1.749617   0.10595666   -3.2985347    1.5489177   553780 
 5782000    1.3019359   -3.2983031   -1.7499618   0.10054379   -3.2983031    1.5483413   553781 
 5783000    1.3030299   -3.2990575   -1.7494264   0.10049797   -3.2990575    1.5496311   553785 
 5784000    1.3021288   -3.2984602   -1.7499678   0.10796997   -3.2984602    1.5484923   553809 
 5785000    1.3029657   -3.2997501   -1.7502904    0.1060487   -3.2997501    1.5494597   553819 
 5786000    1.3015737   -3.2985691   -1.7508236   0.10243978   -3.2985691    1.5477456   553840 
 5787000    1.3030351   -3.2999359   -1.7505057   0.10075326   -3.2999359    1.5494302   553859 
 5788000    1.3035748   -3.2999702   -1.7499598   0.10298771   -3.2999702    1.5500104   553881 
 5789000    1.3040722    -3.300599   -1.7500588   0.10876823    -3.300599    1.5505402   553903 
 5790000    1.3042874   -3.3024939   -1.7517454   0.10568005   -3.3024939    1.5507485   553920 
 5791000    1.3050475   -3.3031382   -1.7515084   0.10492004   -3.3031382    1.5516298   553928 
 5792000    1.3030601   -3.3001171   -1.7509172   0.10628272   -3.3001171    1.5491998   553952 
 5793000    1.3051446   -3.3025628   -1.7509435   0.11278206   -3.3025628    1.5516193   553973 
 5794000    1.3042827   -3.3009131   -1.7503689   0.10789468   -3.3009131    1.5505442   553991 
 5795000    1.3032395   -3.3007023   -1.7514681   0.10952102   -3.3007023    1.5492342   554016 
 5796000    1.3055458   -3.3028688   -1.7509854   0.11203193   -3.3028688    1.5518834   554049 
 5797000    1.3052688   -3.3025785   -1.7510496   0.10873468   -3.3025785    1.5515289   554058 
 5798000     1.305893   -3.3040655   -1.7518647   0.10559557   -3.3040655    1.5522008   554083 
 5799000    1.3040326   -3.3020296    -1.752082   0.11293005   -3.3020296    1.5499475   554098 
 5800000    1.3065795   -3.3053318   -1.7524468   0.10213632   -3.3053318     1.552885   554130 
 5801000    1.3049651   -3.3037601   -1.7528861   0.10612021   -3.3037601     1.550874   554163 
 5802000     1.306099   -3.3037864   -1.7516013    0.1079222   -3.3037864    1.5521851   554176 
 5803000    1.3041467   -3.3029693   -1.7531659   0.10934296   -3.3029693    1.5498034   554198 
 5804000    1.3047758    -3.302978   -1.7524718   0.11230005    -3.302978    1.5505063   554214 
 5805000    1.3046853   -3.3033426    -1.752983   0.11297787   -3.3033426    1.5503596   554228 
 5806000    1.3055527   -3.3038923   -1.7525804   0.11697743   -3.3038923    1.5513119   554256 
 5807000    1.3049535   -3.3033903   -1.7528463   0.11272122   -3.3033903     1.550544   554276 
 5808000    1.3056705   -3.3043219   -1.7529679   0.10712008   -3.3043219     1.551354   554291 
 5809000    1.3064359    -3.305399    -1.753186    0.1094889    -3.305399     1.552213   554309 
 5810000    1.3025894   -3.3017391   -1.7541604   0.11033081   -3.3017391    1.5475786   554332 
 5811000    1.3030147   -3.3027888   -1.7547467   0.10017803   -3.3027888    1.5480421   554347 
 5812000    1.3035096   -3.3025381   -1.7539555   0.10328747   -3.3025381    1.5485825   554364 
 5813000     1.304772   -3.3039719   -1.7539568   0.10668669   -3.3039719    1.5500151   554388 
 5814000    1.3038067   -3.3034902   -1.7546778   0.11270732   -3.3034902    1.5488125   554408 
 5815000    1.3033651   -3.3027418    -1.754546   0.10274477   -3.3027418    1.5481958   554441 
 5816000    1.3039525   -3.3040345    -1.755222   0.10802804   -3.3040345    1.5488125   554470 
 5817000    1.3030642   -3.3028693   -1.7551677   0.10674769   -3.3028693    1.5477016   554490 
 5818000    1.3039111    -3.303675   -1.7550122   0.11252689    -3.303675    1.5486628   554506 
 5819000    1.3061997   -3.3064856   -1.7552278   0.10098793   -3.3064856    1.5512578   554550 
 5820000    1.3065806   -3.3066576    -1.754995   0.10973708   -3.3066576    1.5516627   554567 
 5821000    1.3042643   -3.3028707   -1.7539951   0.11485637   -3.3028707    1.5488756   554580 
 5822000    1.3043833   -3.3028696   -1.7539058    0.1073802   -3.3028696    1.5489638   554599 
 5823000     1.305761   -3.3040348   -1.7534908    0.1063536   -3.3040348    1.5505439   554619 
 5824000    1.3052221   -3.3024047   -1.7525482   0.11111947   -3.3024047    1.5498565   554636 
 5825000    1.3054587   -3.3045719   -1.7545126   0.10872063   -3.3045719    1.5500593   554664 
 5826000    1.3048703   -3.3036876   -1.7543801   0.10449288   -3.3036876    1.5493075   554683 
 5827000    1.3059081    -3.305334    -1.754811   0.10235345    -3.305334     1.550523   554689 
 5828000    1.3035022   -3.3027437   -1.7551163   0.10946108   -3.3027437    1.5476273   554703 
 5829000    1.3050149   -3.3060582   -1.7566963   0.10637819   -3.3060582    1.5493619   554725 
 5830000    1.3028963   -3.3040472   -1.7572648   0.11028398   -3.3040472    1.5467825   554748 
 5831000    1.3026572   -3.3029635   -1.7564955    0.1079727   -3.3029635     1.546468   554759 
 5832000    1.3041176    -3.304475   -1.7563403   0.10395464    -3.304475    1.5481347   554783 
 5833000    1.3050767   -3.3052317   -1.7559947   0.10541775   -3.3052317    1.5492369   554796 
 5834000    1.3056859   -3.3059899   -1.7560857   0.10464267   -3.3059899    1.5499043   554816 
 5835000    1.3036177   -3.3046903   -1.7573108   0.11010619   -3.3046903    1.5473795   554841 
 5836000    1.3038636   -3.3052836   -1.7576456   0.10558645   -3.3052836    1.5476379   554853 
 5837000    1.3047101   -3.3059041    -1.757334   0.10266023   -3.3059041    1.5485701   554879 
 5838000    1.3060272   -3.3068343   -1.7567652   0.10810309   -3.3068343    1.5500691   554902 
 5839000    1.3046266    -3.305263   -1.7569567   0.10983151    -3.305263    1.5483063   554938 
 5840000    1.3043685    -3.304708   -1.7567414   0.10502448    -3.304708    1.5479666   554950 
 5841000    1.3059452   -3.3068973   -1.7571378   0.10681191   -3.3068973    1.5497596   554978 
 5842000    1.3054584   -3.3065603   -1.7574007  0.099640337   -3.3065603    1.5491596   554986 
 5843000    1.3043716   -3.3053251   -1.7575166   0.10606429   -3.3053251    1.5478085   555008 
 5844000    1.3041118   -3.3058088   -1.7583282   0.10952028   -3.3058088    1.5474806   555015 
 5845000    1.3050179   -3.3063132   -1.7577992   0.10924702   -3.3063132     1.548514   555030 
 5846000    1.3040527   -3.3060624   -1.7587215   0.10980218   -3.3060624    1.5473408   555040 
 5847000     1.304575   -3.3069201   -1.7590403   0.10987471   -3.3069201    1.5478797   555069 
 5848000     1.305596   -3.3074161   -1.7583725   0.10734841   -3.3074161    1.5490436   555086 
 5849000    1.3038614   -3.3067407   -1.7597996   0.10686893   -3.3067407     1.546941   555102 
 5850000    1.3064468   -3.3094779   -1.7595281   0.10234028   -3.3094779    1.5499498   555123 
 5851000    1.3061033   -3.3082717   -1.7587685    0.1118689   -3.3082717    1.5495032   555137 
 5852000    1.3048386   -3.3082205   -1.7602985    0.1062269   -3.3082205     1.547922   555166 
 5853000    1.3047187   -3.3093339   -1.7615932   0.10405052   -3.3093339    1.5477407   555180 
 5854000    1.3045356   -3.3084465   -1.7610205  0.099909672   -3.3084465     1.547426   555215 
 5855000    1.3049822   -3.3083137   -1.7603998   0.10901407   -3.3083137    1.5479139   555230 
 5856000     1.303323   -3.3082207   -1.7623528   0.09860296   -3.3082207    1.5458679   555258 
 5857000     1.303863   -3.3071637   -1.7606916   0.10605354   -3.3071637    1.5464721   555271 
 5858000     1.304856   -3.3074801   -1.7598664   0.10890184   -3.3074801    1.5476136   555284 
 5859000    1.3038771   -3.3078684   -1.7614102   0.10911546   -3.3078684    1.5464582   555282 
 5860000    1.3046525   -3.3079516   -1.7606517   0.10396287   -3.3079516    1.5472998   555310 
 5861000    1.3038876   -3.3075069   -1.7611672   0.11035724   -3.3075069    1.5463398   555329 
 5862000     1.304898    -3.308574   -1.7610721   0.10313289    -3.308574    1.5475019   555342 
 5863000    1.3034907   -3.3058807   -1.7601312   0.10795677   -3.3058807    1.5457495   555372 
 5864000    1.3077543   -3.3101238   -1.7593659  0.099200653   -3.3101238    1.5507579   555389 
 5865000    1.3070312   -3.3089475   -1.7591223   0.10640696   -3.3089475    1.5498252   555416 
 5866000     1.304859   -3.3061624   -1.7589994   0.10387855   -3.3061624     1.547163   555447 
 5867000    1.3058379   -3.3063031   -1.7580546   0.10664524   -3.3063031    1.5482485   555474 
 5868000    1.3070827   -3.3086918   -1.7590093    0.1091674   -3.3086918    1.5496825   555489 
 5869000    1.3068931   -3.3081055   -1.7587482   0.10829652   -3.3081055    1.5493573   555525 
 5870000    1.3041663   -3.3055017   -1.7593799   0.11121949   -3.3055017    1.5461218   555526 
 5871000    1.3064494   -3.3079493   -1.7591487   0.10442666   -3.3079493    1.5488006   555536 
 5872000    1.3063314   -3.3082158   -1.7595968   0.10308878   -3.3082158     1.548619   555551 
 5873000    1.3046466   -3.3066108   -1.7600504   0.10527486   -3.3066108    1.5465604   555573 
 5874000    1.3069388   -3.3085253    -1.759295   0.10309615   -3.3085253    1.5492302   555590 
 5875000     1.305495   -3.3059514    -1.758519   0.10387485   -3.3059514    1.5474325   555621 
 5876000    1.3074397   -3.3076911   -1.7580065   0.10201238   -3.3076911    1.5496845   555640 
 5877000    1.3065029    -3.308158    -1.759648   0.10764357    -3.308158    1.5485101   555663 
 5878000    1.3064898   -3.3076579   -1.7592024   0.10444248   -3.3076579    1.5484556   555677 
 5879000    1.3071526   -3.3093323   -1.7601692   0.10436004   -3.3093323     1.549163   555705 
 5880000    1.3052317   -3.3062801   -1.7594604   0.10530161   -3.3062801    1.5468197   555729 
 5881000    1.3060524   -3.3062995   -1.7585072    0.1090813   -3.3062995    1.5477923   555729 
 5882000    1.3066076   -3.3075555   -1.7591443   0.10636764   -3.3075555    1.5484112   555743 
 5883000    1.3065224   -3.3093641   -1.7610872   0.10290715   -3.3093641    1.5482769   555755 
 5884000    1.3049298   -3.3082394   -1.7618944   0.10375721   -3.3082394    1.5463451   555771 
 5885000    1.3064772   -3.3091826   -1.7610791   0.10776441   -3.3091826    1.5481035   555798 
 5886000    1.3061211   -3.3089559   -1.7613523   0.10184152   -3.3089559    1.5476036   555826 
 5887000    1.3066848   -3.3093591   -1.7611043   0.10445403   -3.3093591    1.5482548   555832 
 5888000    1.3064953   -3.3082166   -1.7602449   0.10872724   -3.3082166    1.5479718   555853 
 5889000    1.3057971   -3.3081999   -1.7611111   0.10877376   -3.3081999    1.5470888   555873 
 5890000    1.3090082    -3.312382   -1.7615472   0.10180691    -3.312382    1.5508347   555894 
 5891000    1.3067484   -3.3103248    -1.762237   0.10314197   -3.3103248    1.5480878   555919 
 5892000    1.3065921   -3.3099106   -1.7620329  0.098783677   -3.3099106    1.5478776   555928 
 5893000    1.3078568   -3.3113298   -1.7620236   0.10644881   -3.3113298    1.5493062   555953 
 5894000    1.3064971   -3.3094998   -1.7618127   0.10750427   -3.3094998     1.547687   555956 
 5895000    1.3066094    -3.309114   -1.7613523   0.10953582    -3.309114    1.5477617   555977 
 5896000    1.3088591   -3.3131418   -1.7627626   0.10621629   -3.3131418    1.5503792   555994 
 5897000    1.3070796   -3.3113703   -1.7631825   0.11112595   -3.3113703    1.5481878   556024 
 5898000    1.3063271   -3.3112979   -1.7640738   0.10655296   -3.3112979    1.5472241   556050 
 5899000    1.3058795   -3.3108316   -1.7642461   0.10832583   -3.3108316    1.5465855   556089 
 5900000    1.3065478   -3.3104306   -1.7631037   0.10531976   -3.3104306    1.5473269   556107 
 5901000    1.3076141   -3.3118421   -1.7632719    0.1020194   -3.3118421    1.5485702   556114 
 5902000    1.3079803    -3.312285   -1.7633508   0.10564395    -3.312285    1.5489342   556139 
 5903000    1.3093349   -3.3137237   -1.7632328   0.10393385   -3.3137237     1.550491   556156 
 5904000    1.3075889   -3.3129661   -1.7646039   0.10945875   -3.3129661    1.5483621   556178 
 5905000    1.3074048   -3.3121966   -1.7641164   0.10718025   -3.3121966    1.5480802   556201 
 5906000    1.3068846   -3.3109076   -1.7634657   0.10631958   -3.3109076    1.5474419   556209 
 5907000    1.3076528   -3.3130388   -1.7647458   0.10780324   -3.3130388    1.5482931   556230 
 5908000    1.3068429   -3.3119442   -1.7647047   0.10931937   -3.3119442    1.5472395   556264 
 5909000    1.3078861   -3.3140505   -1.7655981   0.10662805   -3.3140505    1.5484524   556272 
 5910000    1.3075606   -3.3133161   -1.7653465   0.10293662   -3.3133161    1.5479696   556307 
 5911000    1.3060941   -3.3122942   -1.7661274   0.10804765   -3.3122942    1.5461668   556331 
 5912000     1.306773   -3.3134214   -1.7664871   0.10371245   -3.3134214    1.5469344   556344 
 5913000    1.3070698   -3.3133642   -1.7661231   0.10155675   -3.3133642    1.5472411   556360 
 5914000    1.3067258   -3.3127454   -1.7659809   0.10593775   -3.3127454    1.5467645   556385 
 5915000     1.308386   -3.3135237   -1.7648079  0.099889332   -3.3135237    1.5487158   556390 
 5916000    1.3071691   -3.3124329   -1.7652383   0.10551315   -3.3124329    1.5471946   556419 
 5917000    1.3083915    -3.312876    -1.764318    0.1049523    -3.312876     1.548558   556449 
 5918000    1.3098448   -3.3144734   -1.7642176   0.10889401   -3.3144734    1.5502558   556457 
 5919000    1.3077066   -3.3118654   -1.7642348   0.11180858   -3.3118654    1.5476306   556491 
 5920000    1.3068957   -3.3117824   -1.7652226    0.1067139   -3.3117824    1.5465598   556531 
 5921000     1.309153   -3.3142169   -1.7650082   0.10149285   -3.3142169    1.5492088   556539 
 5922000    1.3073473   -3.3122311   -1.7651675    0.1063387   -3.3122311    1.5470636   556542 
 5923000     1.308486   -3.3138628   -1.7654795   0.10799949   -3.3138628    1.5483833   556552 
 5924000    1.3069039    -3.312291   -1.7658327   0.10507691    -3.312291    1.5464583   556571 
 5925000    1.3073637    -3.312488   -1.7655745   0.10997952    -3.312488    1.5469135   556603 
 5926000    1.3072949   -3.3117412   -1.7649565   0.10886194   -3.3117412    1.5467848   556620 
 5927000    1.3076011   -3.3123172   -1.7652647   0.10707213   -3.3123172    1.5470526   556654 
 5928000    1.3070584    -3.311927   -1.7655526   0.10576577    -3.311927    1.5463744   556667 
 5929000    1.3068504   -3.3119897   -1.7659141   0.10986414   -3.3119897    1.5460755   556686 
 5930000    1.3076378   -3.3118586   -1.7649322   0.10681359   -3.3118586    1.5469264   556715 
 5931000    1.3080161    -3.312738   -1.7653724   0.10756255    -3.312738    1.5473656   556718 
 5932000     1.308468   -3.3127076   -1.7648629   0.11205508   -3.3127076    1.5478446   556738 
 5933000    1.3096163   -3.3142959   -1.7651624   0.10526236   -3.3142959    1.5491335   556763 
 5934000    1.3096995   -3.3135568   -1.7643445   0.10839185   -3.3135568    1.5492124   556770 
 5935000    1.3099618   -3.3151139   -1.7656414   0.10793003   -3.3151139    1.5494726   556788 
 5936000    1.3086213   -3.3131183   -1.7653453   0.11012184   -3.3131183     1.547773   556829 
 5937000    1.3075368   -3.3128342   -1.7664105   0.10531245   -3.3128342    1.5464237   556853 
 5938000    1.3100357   -3.3157178   -1.7664082   0.10181318   -3.3157178    1.5493095   556878 
 5939000    1.3099549   -3.3150354   -1.7658882   0.10521157   -3.3150354    1.5491472   556902 
 5940000    1.3101834   -3.3159118   -1.7665333   0.10652021   -3.3159118    1.5493785   556916 
 5941000     1.308682   -3.3153887   -1.7678135   0.10421926   -3.3153887    1.5475752   556926 
 5942000    1.3079768   -3.3144874   -1.7678155   0.10676411   -3.3144874    1.5466719   556951 
 5943000    1.3086323   -3.3150739   -1.7676908   0.10861062   -3.3150739    1.5473831   556974 
 5944000    1.3083877   -3.3158462   -1.7687884   0.10466219   -3.3158462    1.5470578   556987 
 5945000    1.3095257   -3.3164514   -1.7680898   0.10963578   -3.3164514    1.5483617   557002 
 5946000    1.3101623   -3.3174722   -1.7684469    0.1024348   -3.3174722    1.5490253   557034 
 5947000    1.3085254   -3.3164112   -1.7693517   0.10465967   -3.3164112    1.5470595   557045 
 5948000    1.3104743    -3.317902   -1.7685718   0.11160014    -3.317902    1.5493302   557057 
 5949000    1.3082532   -3.3160467   -1.7694285   0.10708025   -3.3160467    1.5466182   557088 
 5950000      1.30838   -3.3162053   -1.7694649   0.10709627   -3.3162053    1.5467404   557098 
 5951000    1.3075103   -3.3158929   -1.7702361    0.1092004   -3.3158929    1.5456568   557118 
 5952000     1.306914   -3.3162794   -1.7713692   0.10627725   -3.3162794    1.5449102   557133 
 5953000    1.3074272   -3.3171426   -1.7716867   0.10612905   -3.3171426    1.5454559   557155 
 5954000    1.3090542   -3.3184768   -1.7711421   0.10321742   -3.3184768    1.5473347   557171 
 5955000    1.3099672   -3.3185105   -1.7701161    0.1068904   -3.3185105    1.5483944   557178 
 5956000    1.3088843    -3.315971    -1.768951    0.1097779    -3.315971      1.54702   557212 
 5957000    1.3108578   -3.3192023   -1.7699082   0.10817513   -3.3192023    1.5492941   557233 
 5958000    1.3083675   -3.3172605   -1.7709458   0.10899669   -3.3172605    1.5463148   557246 
 5959000    1.3073545   -3.3157457   -1.7706752   0.10666547   -3.3157457    1.5450705   557263 
 5960000    1.3100099   -3.3187457   -1.7705926   0.10118214   -3.3187457    1.5481531   557283 
 5961000    1.3095237   -3.3175618   -1.7700276     0.106172   -3.3175618    1.5475341   557299 
 5962000    1.3090666   -3.3182162    -1.771286   0.10315536   -3.3182162    1.5469301   557322 
 5963000    1.3099124   -3.3186677   -1.7708187   0.10630983   -3.3186677     1.547849   557351 
 5964000     1.310225   -3.3180411   -1.7698921   0.10759149   -3.3180411     1.548149   557376 
 5965000    1.3094126   -3.3181131    -1.770974    0.1070857   -3.3181131    1.5471391   557394 
 5966000    1.3109524   -3.3190334   -1.7701667   0.10638845   -3.3190334    1.5488667   557427 
 5967000     1.312059   -3.3211363   -1.7710621   0.10764919   -3.3211363    1.5500741   557463 
 5968000     1.310396   -3.3180683   -1.7699729   0.10948237   -3.3180683    1.5480955   557468 
 5969000    1.3100924    -3.317706   -1.7699885   0.10259137    -3.317706    1.5477175   557475 
 5970000    1.3105016   -3.3176926   -1.7695362   0.11091041   -3.3176926    1.5481564   557491 
 5971000    1.3088362   -3.3176547   -1.7715239   0.11041857   -3.3176547    1.5461308   557512 
 5972000    1.3097738   -3.3172429   -1.7700573   0.11054023   -3.3172429    1.5471856   557531 
 5973000    1.3088128   -3.3167137   -1.7707104   0.11487211   -3.3167137    1.5460033   557548 
 5974000    1.3099898   -3.3192507   -1.7718849   0.10881608   -3.3192507    1.5473658   557558 
 5975000    1.3081522   -3.3171595   -1.7720391   0.11170837   -3.3171595    1.5451204   557585 
 5976000    1.3116061   -3.3198841   -1.7707369    0.1017853   -3.3198841    1.5491472   557604 
 5977000     1.310023   -3.3184799   -1.7712275   0.10966338   -3.3184799    1.5472524   557613 
 5978000     1.309982   -3.3178148   -1.7706801   0.10243772   -3.3178148    1.5471346   557638 
 5979000    1.3106225   -3.3199197   -1.7720619   0.11118492   -3.3199197    1.5478578   557650 
 5980000    1.3111518   -3.3200048   -1.7715941   0.10956282   -3.3200048    1.5484106   557676 
 5981000    1.3107084   -3.3199299   -1.7720901   0.10334887   -3.3199299    1.5478398   557693 
 5982000    1.3111062   -3.3193935   -1.7711699   0.10630695   -3.3193935    1.5482236   557724 
 5983000    1.3129369   -3.3214834   -1.7711425   0.10410202   -3.3214834    1.5503409   557740 
 5984000    1.3110648   -3.3195423   -1.7715119   0.10564664   -3.3195423    1.5480304   557776 
 5985000    1.3126082   -3.3207952   -1.7709536    0.1101366   -3.3207952    1.5498416   557780 
 5986000    1.3088223   -3.3179642   -1.7726648   0.10688693   -3.3179642    1.5452994   557806 
 5987000    1.3089688   -3.3183532   -1.7729196     0.104618   -3.3183532    1.5454336   557820 
 5988000    1.3093269   -3.3183168   -1.7724854   0.10578356   -3.3183168    1.5458314   557829 
 5989000    1.3108131   -3.3205018   -1.7730017   0.10503314   -3.3205018    1.5475001   557860 
 5990000     1.310346   -3.3195166   -1.7726456   0.10603729   -3.3195166     1.546871   557888 
 5991000    1.3116299   -3.3219345   -1.7735812   0.11110558   -3.3219345    1.5483534   557900 
 5992000    1.3105382   -3.3201267   -1.7731093   0.11013955   -3.3201267    1.5470174   557917 
 5993000    1.3112499   -3.3213503   -1.7735676   0.10716075   -3.3213503    1.5477827   557944 
 5994000    1.3098012   -3.3188325   -1.7728403   0.10605916   -3.3188325    1.5459923   557973 
 5995000     1.311384    -3.321147   -1.7733419   0.10345004    -3.321147    1.5478051   557993 
 5996000    1.3103346   -3.3207596   -1.7742153   0.10417485   -3.3207596    1.5465443   558001 
 5997000    1.3091761   -3.3196855   -1.7745446   0.10140757   -3.3196855    1.5451409   558014 
 5998000    1.3100185   -3.3198078   -1.7737142   0.10714068   -3.3198078    1.5460937   558029 
 5999000    1.3122475   -3.3216842   -1.7730154   0.10268481   -3.3216842    1.5486688   558049 
 6000000    1.3104112   -3.3203458   -1.7738912   0.10745838   -3.3203458    1.5464546   558066 
 6001000    1.3095614   -3.3207011    -1.775302   0.10465204   -3.3207011    1.5453991   558085 
 6002000    1.3111472   -3.3221801   -1.7749678   0.10362386   -3.3221801    1.5472123   558106 
 6003000    1.3103205   -3.3212432   -1.7750426   0.10461731   -3.3212432    1.5462007   558119 
 6004000    1.3096237   -3.3204464   -1.7751206    0.1052512   -3.3204464    1.5453259   558138 
 6005000    1.3088517   -3.3195508   -1.7752383   0.10546363   -3.3195508    1.5443125   558175 
 6006000     1.312239   -3.3222169   -1.7740021   0.10453914   -3.3222169    1.5482148   558209 
 6007000    1.3116621   -3.3214025   -1.7739265   0.10580116   -3.3214025     1.547476   558230 
 6008000    1.3110661   -3.3216911   -1.7749903   0.10517462   -3.3216911    1.5467008   558256 
 6009000    1.3108572   -3.3206932   -1.7742666   0.10198703   -3.3206932    1.5464266   558266 
 6010000     1.309803   -3.3202786   -1.7751481   0.10353485   -3.3202786    1.5451305   558285 
 6011000     1.310981   -3.3205354   -1.7740069   0.10121864   -3.3205354    1.5465285   558282 
 6012000    1.3117116   -3.3219719   -1.7745982   0.10060634   -3.3219719    1.5473737   558288 
 6013000    1.3124676   -3.3238853   -1.7756586   0.10620216   -3.3238853    1.5482267   558302 
 6014000    1.3113947   -3.3226486   -1.7757569   0.10885547   -3.3226486    1.5468917   558327 
 6015000    1.3106503    -3.322125   -1.7761058   0.10626418    -3.322125    1.5460192   558325 
 6016000    1.3118767   -3.3226412   -1.7752419   0.10604283   -3.3226412    1.5473993   558349 
 6017000    1.3102343   -3.3215204   -1.7761053   0.10691947   -3.3215204    1.5454151   558366 
 6018000    1.3096619   -3.3217876   -1.7771142    0.1028928   -3.3217876    1.5446735   558390 
 6019000    1.3085369   -3.3210229    -1.777668  0.098740467   -3.3210229    1.5433549   558387 
 6020000    1.3093308   -3.3222752   -1.7780559   0.10388181   -3.3222752    1.5442193   558413 
 6021000     1.310082   -3.3226513   -1.7775737   0.10595558   -3.3226513    1.5450776   558423 
 6022000    1.3102022   -3.3226154   -1.7774181   0.10524256   -3.3226154    1.5451972   558431 
 6023000    1.3090701   -3.3221004   -1.7782521   0.10865097   -3.3221004    1.5438484   558436 
 6024000    1.3115038   -3.3235605   -1.7769445   0.10039082   -3.3235605     1.546616   558473 
 6025000    1.3105486   -3.3227763   -1.7772894   0.10751848   -3.3227763    1.5454869   558474 
 6026000    1.3099666   -3.3225046   -1.7777346   0.10552361   -3.3225046    1.5447701   558485 
 6027000    1.3106241   -3.3232624      -1.7778    0.1040657   -3.3232624    1.5454624   558515 
 6028000    1.3100944   -3.3230833   -1.7782483   0.10666618   -3.3230833     1.544835   558516 
 6029000    1.3106124   -3.3226093   -1.7772575    0.1087351   -3.3226093    1.5453518   558550 
 6030000    1.3094201   -3.3223634   -1.7784894   0.10359551   -3.3223634     1.543874   558576 
 6031000    1.3099723   -3.3242695   -1.7798079  0.098706606   -3.3242695    1.5444615   558599 
 6032000    1.3107136   -3.3239627   -1.7786658   0.10856614   -3.3239627    1.5452968   558613 
 6033000     1.311279   -3.3246044   -1.7786992   0.11055652   -3.3246044    1.5459052   558634 
 6034000    1.3132326   -3.3251948    -1.777003   0.10943801   -3.3251948    1.5481917   558640 
 6035000    1.3137608   -3.3254248   -1.7766934   0.10760692   -3.3254248    1.5487314   558670 
 6036000      1.31319   -3.3245588   -1.7765503    0.1084301   -3.3245588    1.5480085   558688 
 6037000    1.3122143   -3.3232155   -1.7764429   0.10625054   -3.3232155    1.5467726   558719 
 6038000    1.3120116   -3.3237799   -1.7772933   0.10360455   -3.3237799    1.5464866   558736 
 6039000    1.3130928   -3.3252163   -1.7775495   0.10512204   -3.3252163    1.5476669   558770 
 6040000     1.312665   -3.3250034   -1.7778962   0.10544448   -3.3250034    1.5471072   558790 
 6041000    1.3105747   -3.3229039   -1.7782963   0.10734499   -3.3229039    1.5446076   558803 
 6042000    1.3124047   -3.3249314   -1.7781891   0.10281297   -3.3249314    1.5467423   558811 
 6043000    1.3123316   -3.3244699   -1.7778442   0.10572245   -3.3244699    1.5466256   558822 
 6044000    1.3118073   -3.3245133   -1.7785746  0.099743771   -3.3245133    1.5459386   558847 
 6045000    1.3107147   -3.3225792   -1.7779752    0.1033643   -3.3225792     1.544604   558864 
 6046000    1.3106212   -3.3223868   -1.7778709   0.10397665   -3.3223868    1.5445159   558856 
 6047000    1.3132313   -3.3249851   -1.7774569    0.1030402   -3.3249851    1.5475282   558879 
 6048000    1.3110305   -3.3235615   -1.7786295   0.10584162   -3.3235615     1.544932   558880 
 6049000    1.3119631    -3.324642   -1.7786664   0.10173703    -3.324642    1.5459756   558900 
 6050000    1.3112897   -3.3231266   -1.7779943   0.11362182   -3.3231266    1.5451323   558918 
 6051000    1.3124231   -3.3238754   -1.7774435   0.10346301   -3.3238754     1.546432   558931 
 6052000    1.3119403   -3.3227962   -1.7769801   0.10774674   -3.3227962    1.5458161   558948 
 6053000    1.3103896   -3.3213946   -1.7774389   0.11079405   -3.3213946    1.5439557   558960 
 6054000    1.3114641   -3.3223681    -1.777196   0.11090413   -3.3223681     1.545172   558978 
 6055000    1.3157366   -3.3248899   -1.7747617   0.10815574   -3.3248899    1.5501282   559006 
 6056000    1.3153267   -3.3247818   -1.7751781    0.1017202   -3.3247818    1.5496037   559021 
 6057000    1.3153847   -3.3239785   -1.7743369   0.11005778   -3.3239785    1.5496416   559032 
 6058000    1.3129646   -3.3218145   -1.7750572   0.10978682   -3.3218145    1.5467573   559044 
 6059000    1.3154179   -3.3250688   -1.7754768   0.10329106   -3.3250688    1.5495919   559064 
 6060000    1.3133105    -3.323547   -1.7764901   0.10756176    -3.323547    1.5470568   559083 
 6061000    1.3125754   -3.3232562   -1.7771068   0.10870052   -3.3232562    1.5461494   559098 
 6062000    1.3126337   -3.3234766   -1.7773277   0.10525479   -3.3234766    1.5461489   559123 
 6063000     1.312731   -3.3229696   -1.7767503   0.10905021   -3.3229696    1.5462193   559139 
 6064000    1.3134836   -3.3243416   -1.7772109   0.10504305   -3.3243416    1.5471307   559130 
 6065000    1.3122858   -3.3232327   -1.7775516   0.11049734   -3.3232327    1.5456811   559144 
 6066000    1.3143348   -3.3254107   -1.7773965   0.10365308   -3.3254107    1.5480142   559173 
 6067000    1.3137273   -3.3241809   -1.7769153   0.10941895   -3.3241809    1.5472656   559185 
 6068000    1.3130261   -3.3229785   -1.7766025   0.10740771   -3.3229785     1.546376   559208 
 6069000     1.313445   -3.3249635   -1.7781716   0.10409085   -3.3249635    1.5467919   559236 
 6070000    1.3133926   -3.3235547   -1.7768908   0.10442344   -3.3235547    1.5466639   559260 
 6071000    1.3127401   -3.3236749   -1.7778319   0.10904533   -3.3236749     1.545843   559279 
 6072000    1.3130661   -3.3243309   -1.7781731   0.10304628   -3.3243309    1.5461578   559304 
 6073000    1.3133757   -3.3252901   -1.7788148   0.10655672   -3.3252901    1.5464753   559321 
 6074000    1.3120497   -3.3247748   -1.7798582   0.10819421   -3.3247748    1.5449167   559320 
 6075000    1.3143766    -3.327284   -1.7796938   0.10513575    -3.327284    1.5475902   559344 
 6076000    1.3148583   -3.3271838   -1.7790707   0.10438165   -3.3271838    1.5481131   559360 
 6077000    1.3120778   -3.3247706   -1.7800058   0.10759162   -3.3247706    1.5447648   559387 
 6078000    1.3127291   -3.3256496   -1.7801347   0.10697821   -3.3256496    1.5455149   559393 
 6079000     1.312574   -3.3257351   -1.7804413   0.10475067   -3.3257351    1.5452938   559407 
 6080000    1.3116615   -3.3252025   -1.7810327   0.10585281   -3.3252025    1.5441697   559425 
 6081000    1.3109615   -3.3248265    -1.781503   0.10354137   -3.3248265    1.5433235   559433 
 6082000    1.3118094   -3.3264579   -1.7822189   0.10824737   -3.3264579     1.544239   559463 
 6083000    1.3106795   -3.3248797   -1.7820205   0.10460694   -3.3248797    1.5428592   559481 
 6084000    1.3125037    -3.326278   -1.7812908   0.10672385    -3.326278    1.5449872   559488 
 6085000    1.3140047   -3.3290678   -1.7823801   0.10644866   -3.3290678    1.5466877   559512 
 6086000    1.3116225   -3.3275564   -1.7836947   0.10380993   -3.3275564    1.5438617   559520 
 6087000    1.3124118   -3.3275287   -1.7828015    0.1062772   -3.3275287    1.5447272   559543 
 6088000    1.3115069    -3.326622   -1.7829819   0.10548449    -3.326622    1.5436401   559551 
 6089000    1.3114969   -3.3273403   -1.7837838   0.10251642   -3.3273403    1.5435565   559577 
 6090000     1.311535   -3.3274524   -1.7838814   0.10832863   -3.3274524     1.543571   559588 
 6091000      1.31092   -3.3269422   -1.7841224  0.098615418   -3.3269422    1.5428197   559598 
 6092000    1.3122999   -3.3278238    -1.783416   0.10533826   -3.3278238    1.5444078   559611 
 6093000    1.3130302     -3.32915    -1.783891   0.10531698     -3.32915     1.545259   559614 
 6094000    1.3131561   -3.3291914   -1.7838092   0.10938106   -3.3291914    1.5453823   559623 
 6095000    1.3130648   -3.3294806   -1.7842637   0.10915913   -3.3294806    1.5452169   559644 
 6096000    1.3131208   -3.3289666   -1.7837612   0.11004003   -3.3289666    1.5452055   559672 
 6097000    1.3138077   -3.3294385   -1.7834469    0.1115648   -3.3294385    1.5459916   559680 
 6098000    1.3137496    -3.329144   -1.7832842   0.10630677    -3.329144    1.5458598   559703 
 6099000    1.3144215   -3.3295101   -1.7828956   0.10743548   -3.3295101    1.5466145   559716 
 6100000    1.3134846   -3.3287394   -1.7832577    0.1068484   -3.3287394    1.5454816   559727 
 6101000    1.3128952   -3.3291599   -1.7844269   0.11099157   -3.3291599     1.544733   559747 
 6102000    1.3131835   -3.3289612   -1.7839222   0.10674724   -3.3289612    1.5450391   559759 
 6103000    1.3125431   -3.3288031   -1.7845424   0.10744325   -3.3288031    1.5442607   559768 
 6104000    1.3136003   -3.3300824    -1.784564   0.10530523   -3.3300824    1.5455184   559763 
 6105000    1.3135912   -3.3308586   -1.7853674  0.099588379   -3.3308586    1.5454912   559769 
 6106000    1.3148058   -3.3315082   -1.7846433   0.10868308   -3.3315082    1.5468649   559789 
 6107000    1.3129924   -3.3294144   -1.7847686   0.10332628   -3.3294144    1.5446459   559820 
 6108000    1.3136518   -3.3294129   -1.7840492   0.10664921   -3.3294129    1.5453637   559841 
 6109000    1.3128606   -3.3292864   -1.7849528  0.099314877   -3.3292864    1.5443336   559877 
 6110000    1.3130778   -3.3282099   -1.7836319   0.10421442   -3.3282099     1.544578   559881 
 6111000    1.3130812   -3.3291578   -1.7846281   0.10639066   -3.3291578    1.5445297   559900 
 6112000    1.3133254   -3.3284283   -1.7836472   0.10831619   -3.3284283     1.544781   559913 
 6113000    1.3145424   -3.3299567   -1.7837608   0.10267984   -3.3299567    1.5461959   559919 
 6114000    1.3139447   -3.3298287   -1.7843579   0.10734953   -3.3298287    1.5454708   559927 
 6115000     1.315262    -3.331276   -1.7842778   0.10873013    -3.331276    1.5469981   559935 
 6116000    1.3121186   -3.3274104   -1.7842115   0.10521126   -3.3274104     1.543199   559972 
 6117000    1.3144396   -3.3292373   -1.7833721   0.11238688   -3.3292373    1.5458652   559995 
 6118000    1.3149199   -3.3290308   -1.7826836   0.10537483   -3.3290308    1.5463472   560025 
 6119000    1.3157252   -3.3301074   -1.7828877   0.10353724   -3.3301074    1.5472197   560052 
 6120000    1.3148526   -3.3287901   -1.7825994   0.11035125   -3.3287901    1.5461907   560053 
 6121000    1.3158798   -3.3305827   -1.7832006    0.1033038   -3.3305827    1.5473822   560059 
 6122000    1.3144121   -3.3296488   -1.7840368   0.10796639   -3.3296488     1.545612   560075 
 6123000    1.3133792    -3.328774   -1.7844372   0.11282924    -3.328774    1.5443368   560097 
 6124000    1.3139585   -3.3298931   -1.7849248   0.10894432   -3.3298931    1.5449683   560115 
 6125000    1.3139482   -3.3301518   -1.7852314   0.10815249   -3.3301518    1.5449204   560128 
 6126000    1.3130832   -3.3296373   -1.7858056   0.10813791   -3.3296373    1.5438317   560154 
 6127000    1.3145819   -3.3317788   -1.7862375   0.10659555   -3.3317788    1.5455413   560173 
 6128000    1.3134447   -3.3300759   -1.7859681   0.10488656   -3.3300759    1.5441078   560208 
 6129000    1.3140874   -3.3328006   -1.7879538    0.1017981   -3.3328006    1.5448468   560214 
 6130000    1.3123135   -3.3309728   -1.7882527   0.10057383   -3.3309728    1.5427201   560229 
 6131000    1.3129853    -3.332388   -1.7889497   0.10610199    -3.332388    1.5434382   560255 
 6132000    1.3132846   -3.3307006   -1.7869904   0.10360617   -3.3307006    1.5437102   560284 
 6133000    1.3140073   -3.3327218   -1.7882145   0.10812036   -3.3327218    1.5445073   560303 
 6134000    1.3147771   -3.3334034   -1.7880382   0.10252933   -3.3334034    1.5453652   560320 
 6135000     1.313829   -3.3315352   -1.7873642    0.1129398   -3.3315352     1.544171   560349 
 6136000    1.3152352   -3.3327168   -1.7869124   0.10972899   -3.3327168    1.5458044   560356 
 6137000     1.316649   -3.3333929   -1.7859683   0.10846293   -3.3333929    1.5474245   560371 
 6138000     1.315022   -3.3326603   -1.7871975   0.11507344   -3.3326603    1.5454627   560389 
 6139000     1.315631   -3.3328888   -1.7867738   0.11230117   -3.3328888    1.5461151   560412 
 6140000    1.3154439   -3.3333887   -1.7875708   0.10897346   -3.3333887     1.545818   560440 
 6141000     1.315596   -3.3339117   -1.7879564   0.10969922   -3.3339117    1.5459553   560455 
 6142000    1.3149385   -3.3347439   -1.7896246   0.10621899   -3.3347439    1.5451193   560478 
 6143000    1.3157642   -3.3350145   -1.7889416   0.10513717   -3.3350145    1.5460729   560484 
 6144000    1.3145522   -3.3337057   -1.7891257   0.11070475   -3.3337057    1.5445799   560509 
 6145000     1.314796    -3.334563   -1.7897352   0.10756391    -3.334563    1.5448278   560523 
 6146000    1.3134293   -3.3326916   -1.7895274   0.10181099   -3.3326916    1.5431642   560544 
 6147000    1.3144955   -3.3347896   -1.7904775   0.10418253   -3.3347896    1.5443121   560582 
 6148000    1.3124117   -3.3325182   -1.7907173    0.1086885   -3.3325182    1.5418008   560605 
 6149000    1.3148886   -3.3359906   -1.7913461   0.10284321   -3.3359906    1.5446445   560629 
 6150000     1.312352   -3.3326313   -1.7909969   0.10651905   -3.3326313    1.5416344   560640 
 6151000    1.3112499   -3.3318204   -1.7915467   0.10499419   -3.3318204    1.5402738   560664 
 6152000    1.3130247   -3.3333639   -1.7910164    0.1039681   -3.3333639    1.5423476   560668 
 6153000    1.3158487    -3.336198   -1.7905966  0.097443477    -3.336198    1.5456014   560691 
 6154000    1.3118788   -3.3319573   -1.7910848   0.10807122   -3.3319573    1.5408724   560715 
 6155000    1.3134376   -3.3329232   -1.7902227   0.10210826   -3.3329232    1.5427005   560716 
 6156000    1.3145598   -3.3338494   -1.7898445  0.099433241   -3.3338494    1.5440048   560721 
 6157000    1.3141964   -3.3329155   -1.7893761   0.10491212   -3.3329155    1.5435394   560735 
 6158000    1.3159135   -3.3342693   -1.7887764   0.10565074   -3.3342693    1.5454928   560758 
 6159000    1.3157883   -3.3337996   -1.7884952   0.10540534   -3.3337996    1.5453044   560773 
 6160000    1.3137014   -3.3322213   -1.7893871   0.10684331   -3.3322213    1.5428342   560780 
 6161000    1.3148994   -3.3333068   -1.7891344   0.10600251   -3.3333068    1.5441724   560805 
 6162000    1.3149394   -3.3329846   -1.7888699   0.11591272   -3.3329846    1.5441147   560843 
 6163000    1.3153876   -3.3338219   -1.7892277   0.10834479   -3.3338219    1.5445942   560860 
 6164000    1.3157199   -3.3338379   -1.7888975   0.10385615   -3.3338379    1.5449404   560876 
 6165000    1.3146134   -3.3336778   -1.7900587   0.10157693   -3.3336778    1.5436191   560884 
 6166000    1.3124374   -3.3316525   -1.7906407   0.11329478   -3.3316525    1.5410118   560903 
 6167000    1.3147088   -3.3331301   -1.7894843   0.10341901   -3.3331301    1.5436458   560915 
 6168000    1.3147072   -3.3337427   -1.7901429    0.1084351   -3.3337427    1.5435999   560931 
 6169000    1.3144151   -3.3334326    -1.790195    0.1057822   -3.3334326    1.5432376   560938 
 6170000    1.3154619   -3.3350458   -1.7906177   0.10235627   -3.3350458    1.5444281   560952 
 6171000    1.3153708   -3.3336205   -1.7893324   0.11093523   -3.3336205    1.5442882   560964 
 6172000    1.3147108    -3.333867   -1.7904142    0.1101515    -3.333867    1.5434528   560986 
 6173000    1.3153987    -3.334794   -1.7905832   0.10099666    -3.334794    1.5442108   561004 
 6174000    1.3170596   -3.3354152   -1.7893042   0.11041435   -3.3354152     1.546111   561022 
 6175000     1.315775   -3.3341635   -1.7896348   0.10511113   -3.3341635    1.5445287   561049 
 6176000    1.3146766   -3.3332131   -1.7900041   0.10522116   -3.3332131    1.5432091   561060 
 6177000    1.3175944   -3.3358817   -1.7893249   0.10912192   -3.3358817    1.5465568   561088 
 6178000    1.3165354   -3.3352269   -1.7899737   0.10774317   -3.3352269    1.5452532   561110 
 6179000    1.3160401   -3.3341705   -1.7895288   0.10353572   -3.3341705    1.5446416   561121 
 6180000    1.3156762   -3.3348259   -1.7906031   0.10646064   -3.3348259    1.5442228   561118 
 6181000    1.3163802   -3.3367447   -1.7917176   0.10158968   -3.3367447    1.5450271   561126 
 6182000    1.3147357   -3.3346547     -1.79161   0.10758006   -3.3346547    1.5430446   561145 
 6183000    1.3162549   -3.3363004   -1.7914646   0.10584952   -3.3363004    1.5448359   561142 
 6184000    1.3165558   -3.3362157   -1.7910927   0.10414534   -3.3362157     1.545123   561166 
 6185000    1.3160816   -3.3350458    -1.790562   0.10191361   -3.3350458    1.5444839   561196 
 6186000    1.3162931   -3.3347249   -1.7900561   0.10487316   -3.3347249    1.5446688   561219 
 6187000    1.3182547   -3.3369406   -1.7900278   0.10223672   -3.3369406    1.5469128   561240 
 6188000    1.3160562   -3.3341466   -1.7898632   0.11013027   -3.3341466    1.5442834   561258 
 6189000    1.3155969   -3.3339239   -1.7902702   0.10593966   -3.3339239    1.5436537   561291 
 6190000    1.3161781   -3.3339913   -1.7896419  0.097456838   -3.3339913    1.5443494   561286 
 6191000    1.3157751    -3.332854   -1.7889939   0.10284318    -3.332854    1.5438601   561292 
 6192000     1.316617   -3.3337375   -1.7889336   0.10798972   -3.3337375     1.544804   561308 
 6193000    1.3157818   -3.3328942   -1.7891225   0.11034143   -3.3328942    1.5437717   561327 
 6194000    1.3177546   -3.3362007   -1.7901529   0.10152862   -3.3362007    1.5460478   561341 
 6195000    1.3169726   -3.3349031   -1.7898609   0.10402986   -3.3349031    1.5450422   561373 
 6196000     1.316998    -3.335173   -1.7901616   0.10884637    -3.335173    1.5450114   561395 
 6197000    1.3166491    -3.334953   -1.7903949   0.10310107    -3.334953    1.5445581   561411 
 6198000    1.3149028   -3.3324838     -1.79001   0.11030819   -3.3324838    1.5424738   561424 
 6199000    1.3156982   -3.3335701   -1.7901935   0.11150104   -3.3335701    1.5433766   561435 
 6200000    1.3175814   -3.3352673   -1.7897062   0.10081092   -3.3352673     1.545561   561444 
 6201000    1.3164832   -3.3342776   -1.7900543   0.10672448   -3.3342776    1.5442233   561462 
 6202000    1.3160703   -3.3342975   -1.7905861   0.10387507   -3.3342975    1.5437115   561472 
 6203000    1.3157953   -3.3339201   -1.7905615   0.10413755   -3.3339201    1.5433586   561483 
 6204000    1.3172821   -3.3361824   -1.7911707   0.10910805   -3.3361824    1.5450117   561516 
 6205000    1.3182115   -3.3376788   -1.7916154   0.10462155   -3.3376788    1.5460633   561530 
 6206000    1.3178284   -3.3352303   -1.7896605   0.10615804   -3.3352303    1.5455699   561546 
 6207000    1.3181222   -3.3347764    -1.788928   0.11012169   -3.3347764    1.5458484   561570 
 6208000    1.3175641   -3.3350525   -1.7898999    0.1051652   -3.3350525    1.5451526   561585 
 6209000    1.3179632   -3.3346205   -1.7890329   0.10953243   -3.3346205    1.5455876   561597 
 6210000    1.3176314   -3.3331448   -1.7879765   0.10908614   -3.3331448    1.5451683   561608 
 6211000    1.3192738   -3.3356233   -1.7886117   0.10987349   -3.3356233    1.5470116   561638 
 6212000    1.3179196     -3.33458   -1.7891673   0.10579381     -3.33458    1.5454127   561642 
 6213000     1.318052   -3.3354717   -1.7899699   0.10757767   -3.3354717    1.5455019   561666 
 6214000    1.3167613   -3.3339136   -1.7899664   0.11044926   -3.3339136    1.5439472   561681 
 6215000    1.3190541   -3.3365481   -1.7899621   0.10808008   -3.3365481     1.546586   561699 
 6216000    1.3195468   -3.3370588   -1.7899611   0.10705107   -3.3370588    1.5470977   561723 
 6217000     1.319435   -3.3380074   -1.7910959   0.10828206   -3.3380074    1.5469115   561743 
 6218000    1.3178898   -3.3364515   -1.7913846   0.11480799   -3.3364515    1.5450669   561755 
 6219000     1.317562   -3.3370437   -1.7924271   0.10857487   -3.3370437    1.5446165   561779 
 6220000     1.318551   -3.3379368   -1.7922433   0.11188637   -3.3379368    1.5456935   561809 
 6221000    1.3175714   -3.3365219   -1.7920098   0.10888577   -3.3365219    1.5445121   561821 
 6222000    1.3176351   -3.3362856   -1.7916823   0.10440044   -3.3362856    1.5446033   561815 
 6223000    1.3162889   -3.3346838   -1.7916751   0.11059455   -3.3346838    1.5430087   561821 
 6224000    1.3153732   -3.3349181   -1.7930212   0.11366103   -3.3349181    1.5418969   561835 
 6225000    1.3175812   -3.3383828   -1.7939939   0.11146036   -3.3383828    1.5443889   561870 
 6226000    1.3159501   -3.3369278    -1.794481   0.11029649   -3.3369278    1.5424468   561881 
 6227000    1.3177256   -3.3383178   -1.7938558    0.1078855   -3.3383178     1.544462   561905 
 6228000    1.3170068   -3.3374245   -1.7938518   0.10663429   -3.3374245    1.5435727   561922 
 6229000    1.3184527   -3.3391611   -1.7939349   0.10840549   -3.3391611    1.5452262   561937 
 6230000    1.3158325   -3.3370638   -1.7949551   0.10429245   -3.3370638    1.5421087   561954 
 6231000    1.3176113   -3.3380276   -1.7938535   0.10740921   -3.3380276    1.5441741   561961 
 6232000    1.3179917   -3.3379718   -1.7933932   0.10880087   -3.3379718    1.5445786   561976 
 6233000     1.319549   -3.3395432   -1.7931614    0.1027661   -3.3395432    1.5463817   561984 
 6234000    1.3196012   -3.3382602   -1.7918972   0.11366096   -3.3382602    1.5463631   562013 
 6235000    1.3203953   -3.3392264   -1.7919823   0.10418907   -3.3392264    1.5472441   562031 
 6236000    1.3204984   -3.3391773   -1.7918042   0.10870657   -3.3391773    1.5473731   562028 
 6237000    1.3182095   -3.3375221   -1.7928916   0.11437509   -3.3375221    1.5446305   562050 
 6238000    1.3192095   -3.3386397   -1.7929227   0.11410114   -3.3386397     1.545717   562081 
 6239000     1.318178   -3.3378161   -1.7933488   0.10662247   -3.3378161    1.5444672   562096 
 6240000       1.3193   -3.3395957   -1.7938249   0.10574552   -3.3395957    1.5457708   562100 
 6241000    1.3189448    -3.338988   -1.7937076    0.1008257    -3.338988    1.5452804   562127 
 6242000    1.3179761   -3.3373362   -1.7932318   0.10706395   -3.3373362    1.5441043   562142 
 6243000    1.3187786   -3.3384537   -1.7934202    0.1031221   -3.3384537    1.5450335   562146 
 6244000    1.3181054   -3.3370954   -1.7928588   0.11337931   -3.3370954    1.5442365   562149 
 6245000    1.3172307   -3.3366895   -1.7935161   0.10595461   -3.3366895    1.5431734   562163 
 6246000    1.3184669   -3.3386014    -1.794065   0.10698343   -3.3386014    1.5445364   562194 
 6247000    1.3184815   -3.3390165   -1.7945316   0.10255781   -3.3390165    1.5444849   562219 
 6248000    1.3185529   -3.3383735   -1.7938764   0.10484864   -3.3383735    1.5444971   562245 
 6249000    1.3188746   -3.3382069   -1.7934072   0.10907128   -3.3382069    1.5447997   562272 
 6250000    1.3191256   -3.3374035   -1.7923345   0.10477827   -3.3374035     1.545069   562281 
 6251000    1.3185239   -3.3361916   -1.7918686   0.11488389   -3.3361916     1.544323   562296 
 6252000    1.3214419   -3.3400787   -1.7923765   0.11172332   -3.3400787    1.5477022   562310 
 6253000    1.3197289   -3.3379102   -1.7922611   0.10668902   -3.3379102    1.5456491   562327 
 6254000    1.3192852    -3.338248   -1.7931844   0.11249197    -3.338248    1.5450636   562351 
 6255000    1.3199375   -3.3381861   -1.7923669   0.10580515   -3.3381861    1.5458192   562354 
 6256000     1.319128   -3.3372827   -1.7924582   0.11613606   -3.3372827    1.5448245   562371 
 6257000    1.3188674   -3.3381681   -1.7936981    0.1093305   -3.3381681    1.5444699   562389 
 6258000    1.3180722   -3.3368255   -1.7932951   0.11422578   -3.3368255    1.5435304   562392 
 6259000    1.3192597   -3.3388406   -1.7939608     0.103779   -3.3388406    1.5448798   562407 
 6260000    1.3190444   -3.3380513   -1.7934729   0.10741529   -3.3380513    1.5445783   562425 
 6261000     1.319353   -3.3378622   -1.7929583    0.1121087   -3.3378622    1.5449039   562438 
 6262000    1.3198365   -3.3384855   -1.7930565   0.11060195   -3.3384855    1.5454289   562453 
 6263000    1.3184401   -3.3373999   -1.7936445   0.11063413   -3.3373999    1.5437554   562467 
 6264000    1.3208909   -3.3402072   -1.7936701   0.10865616   -3.3402072    1.5465371   562499 
 6265000    1.3198142   -3.3382907   -1.7930775   0.10461919   -3.3382907    1.5452132   562522 
 6266000    1.3199655   -3.3394885   -1.7941284   0.10296878   -3.3394885    1.5453602   562533 
 6267000    1.3186757   -3.3384208   -1.7946256   0.11336386   -3.3384208    1.5437953   562553 
 6268000     1.320745   -3.3402603   -1.7940892   0.10460907   -3.3402603    1.5461711   562570 
 6269000    1.3200291   -3.3396877   -1.7944014   0.10800236   -3.3396877    1.5452863   562587 
 6270000    1.3198983   -3.3396085   -1.7944808   0.10529504   -3.3396085    1.5451277   562589 
 6271000    1.3196537   -3.3387753   -1.7939944   0.11189231   -3.3387753    1.5447809   562611 
 6272000    1.3210464   -3.3414724   -1.7950722   0.10706838   -3.3414724    1.5464002   562615 
 6273000    1.3212843   -3.3415528   -1.7949456   0.10521552   -3.3415528    1.5466072   562641 
 6274000    1.3193728   -3.3405405   -1.7961982   0.11021246   -3.3405405    1.5443423   562651 
 6275000    1.3201388   -3.3410881   -1.7959151   0.10636563   -3.3410881     1.545173   562675 
 6276000     1.320095     -3.34074   -1.7956677   0.10759223     -3.34074    1.5450723   562693 
 6277000    1.3199958   -3.3413854   -1.7964539   0.10607931   -3.3413854    1.5449315   562702 
 6278000    1.3178585    -3.340911   -1.7985112   0.10510494    -3.340911    1.5423998   562713 
 6279000    1.3202932   -3.3433734   -1.7981625   0.10729258   -3.3433734    1.5452109   562727 
 6280000    1.3189132   -3.3431256   -1.7996093   0.10070301   -3.3431256    1.5435163   562756 
 6281000    1.3197922   -3.3438217   -1.7993316   0.10761797   -3.3438217    1.5444901   562776 
 6282000     1.318999   -3.3426706   -1.7991389   0.10247135   -3.3426706    1.5435317   562787 
 6283000    1.3191225   -3.3438547   -1.8002196    0.1105902   -3.3438547     1.543635   562802 
 6284000    1.3172051   -3.3430133   -1.8016631   0.11037651   -3.3430133    1.5413502   562817 
 6285000    1.3199867   -3.3454188   -1.8008549   0.10507122   -3.3454188     1.544564   562832 
 6286000    1.3194319   -3.3450153   -1.8011773    0.1088777   -3.3450153     1.543838   562860 
 6287000    1.3176037   -3.3422595   -1.8005771   0.10625427   -3.3422595    1.5416824   562866 
 6288000    1.3201181   -3.3459188   -1.8013739   0.10369465   -3.3459188    1.5445449   562895 
 6289000    1.3182864   -3.3436214   -1.8012553   0.10969225   -3.3436214    1.5423661   562908 
 6290000    1.3202583   -3.3437502   -1.7991511   0.11417011   -3.3437502    1.5445991   562935 
 6291000    1.3207072   -3.3449353   -1.7998576   0.11047393   -3.3449353    1.5450777   562952 
 6292000     1.321486   -3.3462071   -1.8002843   0.10334055   -3.3462071    1.5459229   562976 
 6293000    1.3201426   -3.3448393   -1.8005182   0.11202752   -3.3448393    1.5443212   562987 
 6294000    1.3198272    -3.344523   -1.8006092   0.11399424    -3.344523    1.5439138   563001 
 6295000    1.3186857   -3.3429537   -1.8004794   0.10868313   -3.3429537    1.5424743   563039 
 6296000    1.3194336   -3.3442848   -1.8010316   0.10658577   -3.3442848    1.5432532   563074 
 6297000    1.3187819   -3.3442561   -1.8018309   0.10414015   -3.3442561    1.5424252   563098 
 6298000    1.3185019   -3.3437049   -1.8015935   0.10629474   -3.3437049    1.5421114   563093 
 6299000    1.3169031   -3.3428959   -1.8027173   0.11086055   -3.3428959    1.5401786   563116 
 6300000    1.3173408   -3.3432925   -1.8026813   0.10939169   -3.3432925    1.5406112   563145 
 6301000    1.3181387   -3.3425136   -1.8010214   0.10346946   -3.3425136    1.5414923   563164 
 6302000    1.3193221   -3.3447336   -1.8018738   0.10629304   -3.3447336    1.5428598   563170 
 6303000    1.3189213   -3.3447685   -1.8024104   0.10641427   -3.3447685    1.5423582   563182 
 6304000    1.3160017   -3.3405064   -1.8016061    0.1062621   -3.3405064    1.5389003   563198 
 6305000    1.3181995   -3.3427317   -1.8013243   0.10841898   -3.3427317    1.5414074   563221 
 6306000    1.3190154   -3.3437989    -1.801495   0.10853094   -3.3437989    1.5423039   563242 
 6307000    1.3198723   -3.3454738   -1.8022117   0.10664373   -3.3454738    1.5432621   563258 
 6308000    1.3200493   -3.3453874   -1.8019815   0.10843847   -3.3453874     1.543406   563281 
 6309000    1.3204573   -3.3450795   -1.8012431   0.11190573   -3.3450795    1.5438364   563298 
 6310000    1.3208339   -3.3468156   -1.8025992   0.10470918   -3.3468156    1.5442164   563320 
 6311000    1.3205055    -3.346753   -1.8029835   0.10802724    -3.346753    1.5437695   563343 
 6312000    1.3195502   -3.3451952   -1.8025618   0.10444291   -3.3451952    1.5426335   563350 
 6313000    1.3201656    -3.345177   -1.8018844   0.10794164    -3.345177    1.5432926   563372 
 6314000    1.3221356   -3.3462723   -1.8007452   0.10811152   -3.3462723     1.545527   563397 
 6315000    1.3203575   -3.3440537   -1.8006326   0.11512278   -3.3440537    1.5434211   563407 
 6316000    1.3204843    -3.346542   -1.8029946   0.10979953    -3.346542    1.5435474   563415 
 6317000    1.3197934   -3.3461057   -1.8034288    0.1068147   -3.3461057    1.5426769   563438 
 6318000    1.3195438   -3.3463358   -1.8040246   0.10889368   -3.3463358    1.5423112   563465 
 6319000    1.3209205   -3.3475073   -1.8035816   0.10315809   -3.3475073    1.5439257   563463 
 6320000     1.320042   -3.3467972   -1.8039064   0.10662104   -3.3467972    1.5428907   563466 
 6321000    1.3184525    -3.345549   -1.8045517    0.1041247    -3.345549    1.5409973   563479 
 6322000     1.318396    -3.346168   -1.8052368   0.10054581    -3.346168    1.5409313   563479 
 6323000    1.3195234   -3.3469209   -1.8047102   0.11402264   -3.3469209    1.5422107   563493 
 6324000    1.3191369   -3.3455463   -1.8038202    0.1067227   -3.3455463    1.5417261   563505 
 6325000    1.3212993   -3.3491103   -1.8049117   0.10602007   -3.3491103    1.5441986   563525 
 6326000    1.3210744   -3.3471175   -1.8032228   0.11152267   -3.3471175    1.5438946   563540 
 6327000    1.3209526   -3.3474197   -1.8036811   0.11316529   -3.3474197    1.5437386   563545 
 6328000    1.3220833   -3.3486549    -1.803625   0.10985237   -3.3486549    1.5450299   563556 
 6329000     1.319027   -3.3453833   -1.8039497   0.10871402   -3.3453833    1.5414336   563565 
 6330000    1.3204958   -3.3464277   -1.8032858   0.10835114   -3.3464277    1.5431418   563568 
 6331000    1.3213808   -3.3479696   -1.8038539   0.10910658   -3.3479696    1.5441158   563590 
 6332000    1.3195476   -3.3467033   -1.8047517   0.10899112   -3.3467033    1.5419516   563598 
 6333000    1.3217938   -3.3485281   -1.8040311   0.10453825   -3.3485281     1.544497   563627 
 6334000    1.3182264   -3.3436166   -1.8033345   0.11085828   -3.3436166    1.5402821   563644 
 6335000    1.3220435   -3.3470943   -1.8024427    0.1098932   -3.3470943    1.5446517   563677 
 6336000    1.3200542    -3.345333   -1.8030576   0.10760309    -3.345333    1.5422754   563696 
 6337000    1.3213056   -3.3478416    -1.804126   0.10297042   -3.3478416    1.5437156   563704 
 6338000    1.3204933   -3.3468511   -1.8041311   0.10750152   -3.3468511      1.54272   563721 
 6339000    1.3196231   -3.3470512   -1.8053834    0.1048451   -3.3470512    1.5416678   563734 
 6340000    1.3197963   -3.3464756   -1.8046081   0.10595609   -3.3464756    1.5418675   563735 
 6341000    1.3204268   -3.3451732   -1.8026348   0.10711939   -3.3451732    1.5425383   563759 
 6342000    1.3211308   -3.3452415   -1.8019163   0.10939436   -3.3452415    1.5433252   563772 
 6343000    1.3198702   -3.3440574   -1.8022267   0.10804163   -3.3440574    1.5418307   563780 
 6344000    1.3211787   -3.3455004   -1.8021685   0.10696098   -3.3455004    1.5433319   563790 
 6345000    1.3211214   -3.3454918    -1.802287   0.11061452   -3.3454918    1.5432048   563812 
 6346000    1.3220004   -3.3474218    -1.803245  0.097727219   -3.3474218    1.5441768   563832 
 6347000    1.3211669   -3.3469976   -1.8038081   0.10629329   -3.3469976    1.5431895   563837 
 6348000    1.3204169   -3.3462024   -1.8039274   0.10557814   -3.3462024    1.5422751   563851 
 6349000    1.3201932     -3.34509   -1.8031445   0.10492821     -3.34509    1.5419455   563876 
 6350000    1.3209923   -3.3450199   -1.8022067   0.11115758   -3.3450199    1.5428131   563900 
 6351000    1.3235136   -3.3475827   -1.8018715    0.1052138   -3.3475827    1.5457112   563917 
 6352000    1.3214173   -3.3468365    -1.803568   0.10793084   -3.3468365    1.5432685   563915 
 6353000     1.322107   -3.3477939   -1.8037856   0.10796012   -3.3477939    1.5440083   563939 
 6354000    1.3222735   -3.3481407    -1.804012   0.10736756   -3.3481407    1.5441287   563966 
 6355000    1.3226152   -3.3492154   -1.8047561   0.11024012   -3.3492154    1.5444593   563991 
 6356000     1.321852    -3.347885   -1.8043388   0.10707359    -3.347885    1.5435462   563999 
 6357000    1.3198052   -3.3460971   -1.8049847   0.11120788   -3.3460971    1.5411124   564015 
 6358000    1.3202136    -3.347237   -1.8056751   0.11070926    -3.347237    1.5415619   564025 
 6359000    1.3224817    -3.349403   -1.8052721   0.10599504    -3.349403    1.5441309   564054 
 6360000    1.3199967   -3.3465078   -1.8053276   0.11244463   -3.3465078    1.5411802   564072 
 6361000     1.322913   -3.3502542   -1.8057073   0.10420673   -3.3502542    1.5445468   564086 
 6362000    1.3220945   -3.3509516   -1.8074232  0.099537107   -3.3509516    1.5435283   564109 
 6363000    1.3208871   -3.3490262   -1.8069403   0.10807673   -3.3490262    1.5420859   564121 
 6364000    1.3214287   -3.3500693   -1.8074167    0.1125473   -3.3500693    1.5426526   564145 
 6365000    1.3210311   -3.3500056   -1.8078691   0.10515066   -3.3500056    1.5421365   564164 
 6366000     1.321532   -3.3506525   -1.8079751   0.11219204   -3.3506525    1.5426775   564180 
 6367000    1.3222614   -3.3509198   -1.8074429   0.10985499   -3.3509198    1.5434769   564199 
 6368000    1.3217332   -3.3505576   -1.8077383   0.10939113   -3.3505576    1.5428193   564214 
 6369000    1.3233797   -3.3522772    -1.807599   0.10780521   -3.3522772    1.5446782   564237 
 6370000     1.321745   -3.3500946   -1.8073955   0.10516311   -3.3500946    1.5426991   564263 
 6371000    1.3238911   -3.3519488   -1.8068159   0.10760003   -3.3519488    1.5451328   564289 
 6372000     1.322267   -3.3507642   -1.8075925   0.11153534   -3.3507642    1.5431717   564313 
 6373000    1.3218321   -3.3511742   -1.8085401   0.11121058   -3.3511742    1.5426341   564324 
 6374000    1.3236429   -3.3532457   -1.8085203   0.10901607   -3.3532457    1.5447254   564332 
 6375000    1.3232074   -3.3521422   -1.8079469    0.1108235   -3.3521422    1.5441953   564340 
 6376000    1.3230652   -3.3514376   -1.8074794   0.11107414   -3.3514376    1.5439581   564366 
 6377000    1.3222675   -3.3510732   -1.8080842   0.10674796   -3.3510732     1.542989   564380 
 6378000    1.3218023   -3.3510763   -1.8086546   0.10348101   -3.3510763    1.5424216   564389 
 6379000    1.3209625   -3.3498201   -1.8084139   0.10430383   -3.3498201    1.5414062   564402 
 6380000    1.3210734   -3.3493758   -1.8078539   0.10619266   -3.3493758    1.5415219   564407 
 6381000    1.3227005   -3.3513411    -1.807959   0.10479479   -3.3513411    1.5433822   564421 
 6382000    1.3227866   -3.3514599   -1.8080047   0.10246561   -3.3514599    1.5434553   564431 
 6383000    1.3235717   -3.3519659   -1.8076465   0.11050434   -3.3519659    1.5443194   564450 
 6384000    1.3240273   -3.3525729   -1.8077684   0.10547067   -3.3525729    1.5448045   564467 
 6385000    1.3227136   -3.3497406   -1.8065263   0.10976586   -3.3497406    1.5432143   564488 
 6386000    1.3229507   -3.3498452    -1.806409   0.10485794   -3.3498452    1.5434362   564508 
 6387000    1.3220982   -3.3481984   -1.8057731   0.11290383   -3.3481984    1.5424253   564514 
 6388000    1.3211455   -3.3491991   -1.8079209   0.10315067   -3.3491991    1.5412783   564527 
 6389000    1.3212789   -3.3493542   -1.8079831   0.10769825   -3.3493542    1.5413711   564550 
 6390000    1.3213272   -3.3484241   -1.8070267   0.10212871   -3.3484241    1.5413974   564561 
 6391000    1.3218782   -3.3480381   -1.8060416    0.1027677   -3.3480381    1.5419965   564577 
 6392000     1.322373   -3.3484194   -1.8059031   0.10480701   -3.3484194    1.5425164   564598 
 6393000    1.3232791   -3.3497216   -1.8062085   0.10606925   -3.3497216    1.5435132   564620 
 6394000    1.3216859   -3.3484348   -1.8068401   0.10408716   -3.3484348    1.5415947   564642 
 6395000    1.3226035   -3.3487509   -1.8061242   0.11338249   -3.3487509    1.5426267   564656 
 6396000    1.3238116   -3.3493574   -1.8053571   0.10609384   -3.3493574    1.5440003   564669 
 6397000     1.323048   -3.3483624   -1.8052965   0.11062352   -3.3483624    1.5430659   564685 
 6398000    1.3236338   -3.3490999   -1.8053944   0.10190557   -3.3490999    1.5437054   564701 
 6399000     1.323617   -3.3487764   -1.8051043   0.11213814   -3.3487764    1.5436721   564706 
 6400000    1.3243129   -3.3505805   -1.8061514   0.10594338   -3.3505805     1.544429   564726 
 6401000    1.3235555   -3.3498948   -1.8063737   0.11294325   -3.3498948    1.5435211   564735 
 6402000    1.3249263   -3.3508615   -1.8058375   0.11133878   -3.3508615     1.545024   564770 
 6403000    1.3246103   -3.3507503   -1.8060975   0.10985125   -3.3507503    1.5446528   564771 
 6404000    1.3249998   -3.3512993   -1.8062278   0.11169987   -3.3512993    1.5450714   564784 
 6405000    1.3241962   -3.3522276   -1.8081534   0.11122038   -3.3522276    1.5440742   564806 
 6406000    1.3245567    -3.352182   -1.8077558   0.10587593    -3.352182    1.5444262   564831 
 6407000    1.3247661   -3.3529642    -1.808313   0.10156843   -3.3529642    1.5446512   564838 
 6408000    1.3237172   -3.3513899    -1.808019   0.10847847   -3.3513899    1.5433709   564859 
 6409000    1.3218083   -3.3502017   -1.8090974   0.11180269   -3.3502017    1.5411043   564874 
 6410000    1.3243446   -3.3515545    -1.807556   0.10977846   -3.3515545    1.5439984   564897 
 6411000    1.3258426    -3.353428   -1.8077816   0.10752044    -3.353428    1.5456464   564933 
 6412000    1.3257832   -3.3534419    -1.807914   0.10911339   -3.3534419    1.5455279   564951 
 6413000    1.3242887   -3.3524563   -1.8087007   0.10955938   -3.3524563    1.5437557   564962 
 6414000     1.323948   -3.3522364   -1.8089243   0.11304545   -3.3522364    1.5433121   564979 
 6415000    1.3235599   -3.3508917   -1.8080676   0.11172853   -3.3508917    1.5428241   564992 
 6416000    1.3246481   -3.3529379   -1.8088753   0.11304914   -3.3529379    1.5440626   565003 
 6417000    1.3254271   -3.3541481   -1.8092622   0.11116344   -3.3541481    1.5448858   565034 
 6418000    1.3248619   -3.3533323   -1.8091653   0.11068813   -3.3533323     1.544167   565056 
 6419000    1.3241054   -3.3534028   -1.8101448   0.10345542   -3.3534028     1.543258   565066 
 6420000     1.323956   -3.3522859   -1.8092404   0.10753277   -3.3522859    1.5430455   565080 
 6421000    1.3237658   -3.3526539   -1.8098655   0.10815066   -3.3526539    1.5427883   565093 
 6422000    1.3250543   -3.3536805   -1.8094614   0.10543612   -3.3536805     1.544219   565119 
 6423000    1.3258839   -3.3541414   -1.8089801   0.11231654   -3.3541414    1.5451612   565128 
 6424000    1.3235031   -3.3523862   -1.8100514   0.10810569   -3.3523862    1.5423348   565147 
 6425000     1.322152   -3.3512149   -1.8105336   0.10959836   -3.3512149    1.5406813   565176 
 6426000    1.3246892   -3.3548854   -1.8112502   0.11005743   -3.3548854    1.5436352   565177 
 6427000    1.3250686   -3.3547268   -1.8106905   0.10559652   -3.3547268    1.5440363   565192 
 6428000    1.3226086   -3.3527184   -1.8115514   0.11094126   -3.3527184     1.541167   565193 
 6429000    1.3231577   -3.3540421   -1.8123008   0.10409446   -3.3540421    1.5417414   565217 
 6430000    1.3233788   -3.3545305    -1.812597   0.10658434   -3.3545305    1.5419335   565241 
 6431000    1.3239852   -3.3534853   -1.8109135    0.1129991   -3.3534853    1.5425718   565266 
 6432000    1.3240001   -3.3533459   -1.8107813   0.10721527   -3.3533459    1.5425646   565275 
 6433000    1.3249945   -3.3553037   -1.8116188   0.10711532   -3.3553037    1.5436849   565289 
 6434000    1.3240682   -3.3553422   -1.8128073   0.10700066   -3.3553422    1.5425348   565315 
 6435000    1.3217397   -3.3528387   -1.8130438   0.11517447   -3.3528387    1.5397949   565325 
 6436000    1.3213932   -3.3528823   -1.8135755   0.10816692   -3.3528823    1.5393068   565356 
 6437000     1.324303   -3.3559905   -1.8133622   0.10641233   -3.3559905    1.5426283   565381 
 6438000    1.3242308   -3.3561908   -1.8136657   0.10211626   -3.3561908     1.542525   565388 
 6439000    1.3231226   -3.3552658   -1.8141079   0.10865384   -3.3552658    1.5411579   565416 
 6440000    1.3226409   -3.3554775   -1.8148834   0.10105705   -3.3554775    1.5405941   565417 
 6441000    1.3237408     -3.35653    -1.814693   0.10259427     -3.35653    1.5418371   565431 
 6442000    1.3234617   -3.3553495   -1.8138703   0.11195127   -3.3553495    1.5414792   565443 
 6443000    1.3238957   -3.3562828   -1.8143307   0.10522839   -3.3562828    1.5419521   565455 
 6444000    1.3228042   -3.3544053   -1.8137436   0.11656005   -3.3544053    1.5406617   565462 
 6445000    1.3262715   -3.3579167    -1.813255   0.10855136   -3.3579167    1.5446617   565476 
 6446000    1.3262165   -3.3577011   -1.8131143     0.106218   -3.3577011    1.5445868   565480 
 6447000    1.3269785   -3.3582837   -1.8128012   0.11408035   -3.3582837    1.5454825   565477 
 6448000    1.3274679   -3.3579922   -1.8120027   0.10948878   -3.3579922    1.5459895   565500 
 6449000    1.3269728   -3.3587475   -1.8133645   0.10765681   -3.3587475    1.5453829   565511 
 6450000    1.3247922   -3.3566152   -1.8138319   0.11360124   -3.3566152    1.5427833   565533 
 6451000    1.3229372   -3.3548018   -1.8141977   0.11063277   -3.3548018    1.5406041   565540 
 6452000    1.3251888   -3.3583961   -1.8152273   0.10568591   -3.3583961    1.5431688   565561 
 6453000    1.3239686   -3.3578616   -1.8161274   0.10722458   -3.3578616    1.5417342   565566 
 6454000    1.3240698   -3.3578541   -1.8160919   0.11257644   -3.3578541    1.5417622   565599 
 6455000    1.3240186   -3.3577576   -1.8161069    0.1105748   -3.3577576    1.5416507   565618 
 6456000    1.3257822   -3.3585729   -1.8149152   0.10726178   -3.3585729    1.5436578   565635 
 6457000    1.3225581   -3.3548226   -1.8149949   0.11472097   -3.3548226    1.5398277   565663 
 6458000    1.3239092   -3.3563141   -1.8149706   0.10520291   -3.3563141    1.5413435   565684 
 6459000    1.3236818   -3.3568617   -1.8158211   0.10255987   -3.3568617    1.5410407   565698 
 6460000    1.3250447   -3.3590343   -1.8164479   0.10770871   -3.3590343    1.5425864   565713 
 6461000    1.3243122   -3.3572773   -1.8156064   0.11230917   -3.3572773    1.5416709   565736 
 6462000    1.3231222   -3.3558177    -1.815532   0.10787281   -3.3558177    1.5402857   565736 
 6463000    1.3230637   -3.3568201   -1.8166652   0.10363116   -3.3568201    1.5401549   565759 
 6464000    1.3230129   -3.3567975   -1.8167698   0.10909387   -3.3567975    1.5400277   565784 
 6465000     1.324981   -3.3585334   -1.8162637   0.10917186   -3.3585334    1.5422696   565802 
 6466000    1.3233054   -3.3575691   -1.8173179   0.11072051   -3.3575691    1.5402512   565827 
 6467000    1.3244421   -3.3605318   -1.8189822    0.1070073   -3.3605318    1.5415497   565836 
 6468000    1.3240272   -3.3591934    -1.818132   0.10310387   -3.3591934    1.5410614   565838 
 6469000    1.3249828    -3.359461     -1.81732  0.099085635    -3.359461    1.5421409   565850 
 6470000    1.3245824    -3.358418   -1.8167704   0.10773659    -3.358418    1.5416476   565860 
 6471000    1.3228035   -3.3568822   -1.8172968   0.10607318   -3.3568822    1.5395854   565857 
 6472000    1.3250458   -3.3602733     -1.81813   0.10665256   -3.3602733    1.5421433   565876 
 6473000    1.3234662    -3.357846   -1.8175845    0.1086078    -3.357846    1.5402615   565892 
 6474000    1.3247692   -3.3587197   -1.8169963   0.10480958   -3.3587197    1.5417234   565912 
 6475000    1.3254023   -3.3610262   -1.8186288   0.10461519   -3.3610262    1.5423974   565935 
 6476000    1.3252666   -3.3603546   -1.8181451   0.10709019   -3.3603546    1.5422095   565946 
 6477000    1.3234559   -3.3586443   -1.8185962   0.10934793   -3.3586443     1.540048   565966 
 6478000    1.3249889   -3.3597697    -1.817965   0.10740311   -3.3597697    1.5418047   565976 
 6479000     1.324723   -3.3597566   -1.8183022   0.10632838   -3.3597566    1.5414544   565991 
 6480000    1.3251188   -3.3603569   -1.8184774   0.10747463   -3.3603569    1.5418796   566004 
 6481000    1.3263988   -3.3611781   -1.8178555   0.10600776   -3.3611781    1.5433226   566021 
 6482000    1.3239163    -3.358161   -1.8177324   0.11208806    -3.358161    1.5404287   566023 
 6483000    1.3240351   -3.3578507    -1.817311   0.10406254   -3.3578507    1.5405397   566033 
 6484000     1.324771   -3.3593038   -1.8179406    0.1096695   -3.3593038    1.5413632   566045 
 6485000     1.325275   -3.3598986   -1.8179817   0.11182407   -3.3598986    1.5419169   566057 
 6486000    1.3255511   -3.3611142   -1.8189006   0.10934243   -3.3611142    1.5422136   566066 
 6487000    1.3241816    -3.358813    -1.818239   0.10433676    -3.358813    1.5405741   566083 
 6488000    1.3241539   -3.3573487    -1.816845   0.11010506   -3.3573487    1.5405037   566097 
 6489000    1.3258531   -3.3591581   -1.8167402   0.10692653   -3.3591581    1.5424179   566120 
 6490000    1.3254893   -3.3596431   -1.8176431   0.10649689   -3.3596431        1.542   566118 
 6491000    1.3240761   -3.3580385   -1.8177232   0.11027776   -3.3580385    1.5403153   566133 
 6492000     1.324853   -3.3586394   -1.8174313   0.10924401   -3.3586394    1.5412081   566137 
 6493000    1.3254815   -3.3595347   -1.8176445   0.11122328   -3.3595347    1.5418902   566155 
 6494000    1.3241819    -3.358961   -1.8186207   0.10798163    -3.358961    1.5403403   566169 
 6495000    1.3264393   -3.3615954   -1.8186237   0.10708378   -3.3615954    1.5429717   566167 
 6496000    1.3266026   -3.3611808   -1.8180628   0.11118898   -3.3611808     1.543118   566183 
 6497000    1.3259686   -3.3611598   -1.8188474   0.10574671   -3.3611598    1.5423124   566208 
 6498000    1.3255468   -3.3600192   -1.8182409   0.10608611   -3.3600192    1.5417783   566224 
 6499000    1.3273373   -3.3622981   -1.8184536   0.10585194   -3.3622981    1.5438445   566230 
 6500000    1.3250066   -3.3594922   -1.8183776   0.11206134   -3.3594922    1.5411146   566237 
 6501000    1.3253152   -3.3595222   -1.8180977   0.10564816   -3.3595222    1.5414245   566255 
 6502000    1.3259386   -3.3594054    -1.817313   0.10626255   -3.3594054    1.5420924   566276 
 6503000    1.3259896   -3.3601107   -1.8179617   0.10722432   -3.3601107     1.542149   566277 
 6504000    1.3258816    -3.359526    -1.817557   0.10284875    -3.359526    1.5419689   566297 
 6505000    1.3261073   -3.3606075   -1.8184251   0.10824808   -3.3606075    1.5421824   566315 
 6506000    1.3267298   -3.3602643   -1.8174071   0.10609893   -3.3602643    1.5428573   566333 
 6507000    1.3270812   -3.3612354   -1.8180294   0.10735861   -3.3612354     1.543206   566355 
 6508000    1.3265837   -3.3602932   -1.8177066   0.11128843   -3.3602932    1.5425865   566370 
 6509000    1.3270749   -3.3609844   -1.8178565   0.11072222   -3.3609844    1.5431278   566381 
 6510000    1.3272428    -3.360429   -1.8171223   0.11326408    -3.360429    1.5433067   566387 
 6511000    1.3248476   -3.3591657   -1.8186713   0.11210465   -3.3591657    1.5404943   566397 
 6512000    1.3261884   -3.3607243   -1.8186763   0.11263128   -3.3607243    1.5420479   566399 
 6513000    1.3278544   -3.3618129   -1.8179313      0.11309   -3.3618129    1.5438815   566437 
 6514000    1.3286791   -3.3608911   -1.8161216   0.10970225   -3.3608911    1.5447695   566463 
 6515000    1.3295209   -3.3619959   -1.8162914   0.11140663   -3.3619959    1.5457045   566479 
 6516000    1.3286936   -3.3618723   -1.8171705   0.11298564   -3.3618723    1.5447018   566494 
 6517000    1.3271332   -3.3608469   -1.8179728    0.1127987   -3.3608469    1.5428742   566499 
 6518000    1.3271483   -3.3617987   -1.8189044   0.10714618   -3.3617987    1.5428944   566498 
 6519000    1.3257173   -3.3603601   -1.8191864   0.11177201   -3.3603601    1.5411737   566519 
 6520000    1.3255162   -3.3604658   -1.8195532   0.10733415   -3.3604658    1.5409126   566529 
 6521000    1.3266775   -3.3613901   -1.8191519    0.1041863   -3.3613901    1.5422382   566538 
 6522000    1.3247492   -3.3612205   -1.8212756   0.11158415   -3.3612205    1.5399449   566557 
 6523000    1.3262249   -3.3624045   -1.8207686   0.10841414   -3.3624045    1.5416359   566566 
 6524000    1.3245515    -3.361227    -1.821588    0.1049813    -3.361227     1.539639   566585 
 6525000    1.3249629   -3.3614644   -1.8214096   0.10790744   -3.3614644    1.5400548   566608 
 6526000    1.3259406   -3.3620491   -1.8209097   0.11075578   -3.3620491    1.5411394   566627 
 6527000    1.3258335   -3.3622649   -1.8212935   0.11163741   -3.3622649    1.5409714   566643 
 6528000    1.3252954   -3.3615307   -1.8212526   0.11589564   -3.3615307    1.5402781   566668 
 6529000     1.327165    -3.363426   -1.8210186   0.10678641    -3.363426    1.5424074   566684 
 6530000    1.3266337   -3.3616978   -1.8199596   0.10678607   -3.3616978    1.5417383   566703 
 6531000    1.3257145   -3.3615769   -1.8209884   0.11060639   -3.3615769    1.5405885   566733 
 6532000    1.3259412   -3.3606973   -1.8198672   0.10960073   -3.3606973    1.5408302   566741 
 6533000    1.3280226   -3.3630774   -1.8198612   0.10849531   -3.3630774    1.5432162   566753 
 6534000    1.3293149   -3.3636533    -1.819028   0.10527848   -3.3636533    1.5446253   566787 
 6535000    1.3267933   -3.3615899   -1.8198947   0.10668299   -3.3615899    1.5416952   566787 
 6536000    1.3280982   -3.3636578   -1.8204981   0.10970665   -3.3636578    1.5431597   566806 
 6537000    1.3266821   -3.3629935   -1.8215309   0.11375635   -3.3629935    1.5414626   566825 
 6538000    1.3277064   -3.3631629   -1.8205346   0.11277366   -3.3631629    1.5426283   566834 
 6539000    1.3274889   -3.3625356   -1.8202254   0.10331328   -3.3625356    1.5423102   566858 
 6540000    1.3292611   -3.3635606   -1.8192649   0.11521314   -3.3635606    1.5442958   566885 
 6541000    1.3275192   -3.3622988   -1.8200921   0.11448257   -3.3622988    1.5422067   566909 
 6542000    1.3284922    -3.362979   -1.8196909   0.10991699    -3.362979    1.5432881   566927 
 6543000    1.3284008   -3.3641009   -1.8209571   0.10564553   -3.3641009    1.5431437   566941 
 6544000    1.3268783   -3.3626419   -1.8213102   0.10774223   -3.3626419    1.5413316   566957 
 6545000     1.326471    -3.362014   -1.8212043   0.11436866    -3.362014    1.5408097   566975 
 6546000    1.3267554   -3.3625855   -1.8214809   0.10485944   -3.3625855    1.5411046   566988 
 6547000    1.3265369   -3.3626621   -1.8218384   0.10956945   -3.3626621    1.5408237   566998 
 6548000    1.3268654    -3.363088   -1.8219833   0.11484853    -3.363088    1.5411047   567035 
 6549000    1.3264169   -3.3615142   -1.8210038   0.11013491   -3.3615142    1.5405104   567062 
 6550000    1.3259642    -3.363152    -1.823238   0.10733536    -3.363152     1.539914   567088 
 6551000    1.3269454   -3.3639291   -1.8229191    0.1086315   -3.3639291      1.54101   567104 
 6552000    1.3267123   -3.3625529   -1.8218761   0.10687752   -3.3625529    1.5406768   567127 
 6553000    1.3257251   -3.3616446   -1.8221794   0.10904366   -3.3616446    1.5394653   567151 
 6554000    1.3263459   -3.3622884   -1.8221348   0.10894841   -3.3622884    1.5401537   567163 
 6555000    1.3280214   -3.3649083   -1.8228635   0.10601714   -3.3649083    1.5420449   567183 
 6556000    1.3271619   -3.3627184   -1.8217096   0.11061934   -3.3627184    1.5410087   567197 
 6557000    1.3291354   -3.3647464   -1.8214707   0.10661834   -3.3647464    1.5432757   567206 
 6558000    1.3304014   -3.3658466   -1.8211199   0.10915536   -3.3658466    1.5447267   567213 
 6559000    1.3282097   -3.3637436   -1.8216269   0.10027314   -3.3637436    1.5421167   567237 
 6560000    1.3276753    -3.363264   -1.8218059   0.10607963    -3.363264    1.5414581   567251 
 6561000    1.3276172   -3.3627195   -1.8213858   0.10562458   -3.3627195    1.5413337   567272 
 6562000    1.3302111   -3.3660944   -1.8217576   0.10930501   -3.3660944    1.5443369   567275 
 6563000    1.3279274   -3.3647102   -1.8230762   0.10737452   -3.3647102     1.541634   567294 
 6564000     1.327826   -3.3638407   -1.8224087   0.11332097   -3.3638407     1.541432   567325 
 6565000    1.3298155   -3.3644163   -1.8207509   0.11045231   -3.3644163    1.5436654   567353 
 6566000    1.3294018    -3.364506   -1.8213671   0.11723829    -3.364506    1.5431389   567370 
 6567000    1.3300489   -3.3656583   -1.8218091   0.11337893   -3.3656583    1.5438492   567385 
 6568000    1.3278421   -3.3630524   -1.8217891   0.11465626   -3.3630524    1.5412632   567394 
 6569000    1.3266452   -3.3614334   -1.8216219   0.11608137   -3.3614334    1.5398115   567417 
 6570000    1.3292927   -3.3643942   -1.8215723   0.10907398   -3.3643942    1.5428219   567440 
 6571000    1.3310819   -3.3658208   -1.8210094   0.10752984   -3.3658208    1.5448114   567472 
 6572000    1.3297349   -3.3657295   -1.8225031   0.11550483   -3.3657295    1.5432264   567480 
 6573000    1.3295735   -3.3659954   -1.8229835   0.10946183   -3.3659954    1.5430119   567490 
 6574000    1.3299585   -3.3667504   -1.8233135   0.10432532   -3.3667504    1.5434369   567498 
 6575000    1.3287201   -3.3655606   -1.8235961   0.11289194   -3.3655606    1.5419644   567511 
 6576000     1.328403   -3.3656822   -1.8241618   0.10685707   -3.3656822    1.5415204   567539 
 6577000    1.3283058   -3.3649712   -1.8235854   0.10753697   -3.3649712    1.5413858   567547 
 6578000    1.3282496   -3.3663456   -1.8250602   0.10668418   -3.3663456    1.5412854   567560 
 6579000    1.3287662   -3.3679351   -1.8260666   0.10065519   -3.3679351    1.5418684   567566 
 6580000    1.3271992   -3.3664606   -1.8264701   0.10874346   -3.3664606    1.5399905   567588 
 6581000    1.3260113    -3.364786   -1.8262607     0.112692    -3.364786    1.5385254   567620 
 6582000    1.3264271   -3.3652938   -1.8263456   0.10730417   -3.3652938    1.5389482   567642 
 6583000    1.3286231   -3.3670565    -1.825604   0.10516875   -3.3670565    1.5414525   567658 
 6584000    1.3279942   -3.3647196   -1.8240211   0.10825591   -3.3647196    1.5406985   567667 
 6585000     1.326609   -3.3645259   -1.8254996   0.10654882   -3.3645259    1.5390263   567691 
 6586000    1.3252509    -3.363196   -1.8258129   0.10693969    -3.363196    1.5373831   567716 
 6587000    1.3286621   -3.3660511   -1.8247054   0.10411606   -3.3660511    1.5413458   567714 
 6588000    1.3273147   -3.3645699   -1.8248008   0.10889911   -3.3645699    1.5397691   567719 
 6589000     1.329196   -3.3657403   -1.8238675   0.10792133   -3.3657403    1.5418728   567748 
 6590000    1.3287571   -3.3646574   -1.8233183   0.10798558   -3.3646574    1.5413392   567757 
 6591000    1.3289486   -3.3667708   -1.8252773   0.10332367   -3.3667708    1.5414935   567782 
 6592000    1.3284522   -3.3660669   -1.8252116   0.10647287   -3.3660669    1.5408553   567805 
 6593000     1.328109      -3.3661   -1.8256645   0.10558129      -3.3661    1.5404356   567813 
 6594000     1.328946   -3.3666546   -1.8252972   0.11360858   -3.3666546    1.5413574   567831 
 6595000    1.3290677   -3.3672371   -1.8257548   0.10793302   -3.3672371    1.5414823   567837 
 6596000    1.3279408   -3.3664483   -1.8262893   0.11504697   -3.3664483    1.5401591   567843 
 6597000    1.3275766    -3.366664   -1.8270005   0.11321202    -3.366664    1.5396634   567870 
 6598000    1.3269635   -3.3662344    -1.827301   0.10993877   -3.3662344    1.5389334   567877 
 6599000     1.327836   -3.3676508   -1.8277543    0.1095341   -3.3676508    1.5398965   567895 
 6600000    1.3276604   -3.3682215   -1.8285559    0.1090273   -3.3682215    1.5396657   567905 
 6601000    1.3284764   -3.3674441     -1.82687   0.10663833   -3.3674441     1.540574   567919 
 6602000    1.3297894   -3.3682021   -1.8261461   0.10729245   -3.3682021     1.542056   567934 
 6603000    1.3289929    -3.367046   -1.8259435   0.11128602    -3.367046    1.5411025   567945 
 6604000    1.3293605   -3.3670655   -1.8255856   0.11597583   -3.3670655    1.5414798   567963 
 6605000    1.3289654   -3.3662776   -1.8252965   0.10620495   -3.3662776    1.5409811   567978 
 6606000    1.3268195   -3.3649265   -1.8264636   0.11275522   -3.3649265    1.5384629   567989 
 6607000      1.32927   -3.3664087   -1.8251749    0.1134963   -3.3664087    1.5412338   568015 
 6608000    1.3312004   -3.3689265   -1.8254572    0.1138574   -3.3689265    1.5434694   568016 
 6609000    1.3303083   -3.3686449   -1.8262887    0.1099583   -3.3686449    1.5423562   568045 
 6610000    1.3317942   -3.3702352   -1.8262051   0.11274467   -3.3702352    1.5440301   568063 
 6611000    1.3306236   -3.3700493   -1.8274225   0.11012764   -3.3700493    1.5426268   568080 
 6612000    1.3282878   -3.3670761   -1.8272034   0.11073934   -3.3670761    1.5398727   568097 
 6613000     1.328553   -3.3672653   -1.8270932   0.10838646   -3.3672653     1.540172   568100 
 6614000    1.3311947   -3.3696328   -1.8264146   0.10636627   -3.3696328    1.5432182   568106 
 6615000    1.3272971   -3.3661713   -1.8275012    0.1065534   -3.3661713    1.5386701   568117 
 6616000    1.3288574   -3.3669607   -1.8264927   0.10689065   -3.3669607     1.540468   568121 
 6617000    1.3297352   -3.3680786    -1.826612    0.1046584   -3.3680786    1.5414666   568128 
 6618000    1.3279235   -3.3677508   -1.8284088   0.11435838   -3.3677508     1.539342   568137 
 6619000    1.3281225   -3.3672872   -1.8277172   0.10567787   -3.3672872    1.5395699   568138 
 6620000    1.3280136   -3.3677425   -1.8283205   0.10566216   -3.3677425    1.5394221   568146 
 6621000    1.3291564   -3.3698342   -1.8290902   0.11280329   -3.3698342     1.540744   568147 
 6622000    1.3293044   -3.3690383   -1.8281742   0.10837665   -3.3690383    1.5408641   568166 
 6623000    1.3295365    -3.369088   -1.8279846   0.10519158    -3.369088    1.5411033   568177 
 6624000    1.3312668   -3.3713593    -1.828302   0.10678146   -3.3713593    1.5430573   568196 
 6625000    1.3306532   -3.3699186    -1.827586   0.10966519   -3.3699186    1.5423326   568201 
 6626000    1.3300404   -3.3691551   -1.8275654   0.10532542   -3.3691551    1.5415897   568213 
 6627000    1.3289576   -3.3684582   -1.8281859   0.10758498   -3.3684582    1.5402723   568236 
 6628000     1.330701   -3.3699605   -1.8277001   0.11099566   -3.3699605    1.5422604   568248 
 6629000    1.3297406   -3.3704155   -1.8292926   0.10274153   -3.3704155    1.5411229   568257 
 6630000    1.3284496   -3.3695105   -1.8299217   0.11087499   -3.3695105    1.5395887   568271 
 6631000    1.3287065   -3.3696519   -1.8298196   0.11144713   -3.3696519    1.5398323   568291 
 6632000    1.3281443   -3.3684909   -1.8293508   0.10811362   -3.3684909    1.5391401   568306 
 6633000    1.3282673   -3.3694811   -1.8302445   0.11276931   -3.3694811    1.5392366   568323 
 6634000     1.327476   -3.3685326   -1.8302401    0.1158922   -3.3685326    1.5382925   568333 
 6635000    1.3293515   -3.3706632   -1.8302516   0.11004353   -3.3706632    1.5404116   568353 
 6636000    1.3299787   -3.3725972   -1.8314722   0.10800328   -3.3725972     1.541125   568358 
 6637000    1.3303134   -3.3722888   -1.8308628   0.10638069   -3.3722888     1.541426   568390 
 6638000    1.3294314   -3.3709905   -1.8306433    0.1102162   -3.3709905    1.5403471   568411 
 6639000    1.3277343   -3.3702948     -1.83196   0.10800374   -3.3702948    1.5383347   568428 
 6640000    1.3267706   -3.3698518   -1.8327012   0.10264879   -3.3698518    1.5371506   568453 
 6641000    1.3278007   -3.3719074   -1.8336338   0.10336417   -3.3719074    1.5382737   568479 
 6642000    1.3281691    -3.371052   -1.8324002   0.10851193    -3.371052    1.5386518   568497 
 6643000    1.3292166   -3.3706116   -1.8308249    0.1093977   -3.3706116    1.5397866   568526 
 6644000    1.3302452   -3.3722079   -1.8312785   0.10477595   -3.3722079    1.5409294   568544 
 6645000    1.3299045   -3.3717393   -1.8312181    0.1069696   -3.3717393    1.5405212   568549 
 6646000    1.3282565   -3.3691427   -1.8305521   0.11060167   -3.3691427    1.5385906   568557 
 6647000    1.3295546   -3.3697505   -1.8296644   0.10706228   -3.3697505    1.5400861   568560 
 6648000    1.3310601   -3.3712562    -1.829437   0.10308292   -3.3712562    1.5418192   568564 
 6649000    1.3290651   -3.3692275   -1.8297707   0.10417154   -3.3692275    1.5394568   568583 
 6650000    1.3297987   -3.3703945   -1.8301286   0.11009257   -3.3703945    1.5402659   568598 
 6651000    1.3311639   -3.3702052    -1.828358   0.11226922   -3.3702052    1.5418472   568598 
 6652000    1.3322276    -3.371401   -1.8283923   0.11558184    -3.371401    1.5430087   568624 
 6653000    1.3326078   -3.3714479   -1.8280097   0.11225655   -3.3714479    1.5434382   568628 
 6654000    1.3312804   -3.3692766   -1.8274138   0.11659396   -3.3692766    1.5418628   568642 
 6655000    1.3319199   -3.3708405   -1.8282859   0.11615611   -3.3708405    1.5425546   568660 
 6656000    1.3306738   -3.3690522   -1.8280166    0.1105792   -3.3690522    1.5410357   568688 
 6657000    1.3324227   -3.3715917   -1.8285606   0.10929569   -3.3715917    1.5430311   568699 
 6658000    1.3313291   -3.3696218   -1.8278869   0.10911277   -3.3696218    1.5417349   568710 
 6659000    1.3306742   -3.3692209   -1.8282742   0.10928536   -3.3692209    1.5409467   568721 
 6660000    1.3321303    -3.370965   -1.8283755   0.10828725    -3.370965    1.5425895   568737 
 6661000    1.3309819   -3.3681476   -1.8269286   0.12094604   -3.3681476     1.541219   568752 
 6662000     1.331082     -3.36946   -1.8281874   0.10836429     -3.36946    1.5412726   568775 
 6663000    1.3300777    -3.368131    -1.828051   0.11547786    -3.368131    1.5400799   568786 
 6664000    1.3321353    -3.371398   -1.8290061   0.11128734    -3.371398    1.5423918   568812 
 6665000    1.3320349   -3.3711022   -1.8288565   0.11191605   -3.3711022    1.5422458   568823 
 6666000    1.3310841   -3.3699863   -1.8288523   0.11199624   -3.3699863    1.5411341   568827 
 6667000    1.3312232   -3.3702304   -1.8290003   0.10760728   -3.3702304    1.5412301   568851 
 6668000    1.3312452    -3.370537   -1.8293139   0.10545691    -3.370537    1.5412231   568863 
 6669000    1.3307035   -3.3701474   -1.8296083   0.10917125   -3.3701474    1.5405391   568884 
 6670000    1.3304743   -3.3699668   -1.8297337   0.11078508   -3.3699668    1.5402331   568899 
 6671000    1.3316083   -3.3704505   -1.8289344   0.11476009   -3.3704505     1.541516   568910 
 6672000    1.3308315   -3.3704716   -1.8298954   0.11434484   -3.3704716    1.5405762   568925 
 6673000      1.33235   -3.3717159   -1.8294144   0.11230906   -3.3717159    1.5423015   568937 
 6674000    1.3318534   -3.3713689   -1.8296991   0.11342173   -3.3713689    1.5416698   568958 
 6675000    1.3322415   -3.3716092   -1.8295254   0.11174791   -3.3716092    1.5420838   568971 
 6676000    1.3318175   -3.3718893   -1.8303477   0.11399629   -3.3718893    1.5415415   568990 
 6677000    1.3332361   -3.3730008   -1.8298391   0.10847908   -3.3730008    1.5431617   568998 
 6678000    1.3305763   -3.3706924   -1.8306634   0.12119435   -3.3706924     1.540029   569018 
 6679000    1.3331084   -3.3730148   -1.8301391   0.10811761   -3.3730148    1.5428757   569049 
 6680000    1.3327234   -3.3716932   -1.8292875   0.11200221   -3.3716932    1.5424057   569058 
 6681000    1.3334413   -3.3738291   -1.8306169   0.10893041   -3.3738291    1.5432122   569067 
 6682000    1.3339241   -3.3735953   -1.8298705   0.10751349   -3.3735953    1.5437248   569084 
 6683000    1.3336216   -3.3729335   -1.8295805   0.10873013   -3.3729335     1.543353   569092 
 6684000    1.3333661    -3.372164   -1.8291257   0.11526514    -3.372164    1.5430384   569099 
 6685000    1.3327286    -3.372397   -1.8301614   0.11169058    -3.372397    1.5422356   569123 
 6686000     1.331601   -3.3705668   -1.8296632   0.11493523   -3.3705668    1.5409036   569133 
 6687000    1.3318578   -3.3713344   -1.8301796   0.11027357   -3.3713344    1.5411547   569150 
 6688000    1.3332166    -3.372092   -1.8294028   0.10666833    -3.372092    1.5426891   569164 
 6689000    1.3351997   -3.3739495    -1.828982   0.10362307   -3.3739495    1.5449675   569170 
 6690000    1.3326566   -3.3705238   -1.8285044   0.11726396   -3.3705238    1.5420194   569172 
 6691000    1.3318564   -3.3706475   -1.8296163    0.1118961   -3.3706475    1.5410313   569195 
 6692000    1.3316543   -3.3702384   -1.8294707   0.11245073   -3.3702384    1.5407677   569206 
 6693000    1.3326049   -3.3717698   -1.8299212   0.11291377   -3.3717698    1.5418486   569213 
 6694000    1.3322804   -3.3717491   -1.8303274    0.1078125   -3.3717491    1.5414217   569232 
 6695000    1.3317802   -3.3713182    -1.830524   0.11389086   -3.3713182    1.5407942   569250 
 6696000    1.3317529   -3.3698763   -1.8291163   0.11521372   -3.3698763    1.5407599   569251 
 6697000    1.3332339    -3.371851   -1.8293857   0.11333431    -3.371851    1.5424653   569254 
 6698000    1.3323043   -3.3712529   -1.8298577   0.10755497   -3.3712529    1.5413952   569252 
 6699000    1.3310888   -3.3695564    -1.829673   0.11577269   -3.3695564    1.5398834   569291 
 6700000    1.3330839   -3.3722682   -1.8300659   0.11211954   -3.3722682    1.5422023   569287 
 6701000    1.3347783   -3.3743295   -1.8302213   0.10854177   -3.3743295    1.5441082   569307 
 6702000    1.3330884   -3.3734143   -1.8312773    0.1097187   -3.3734143     1.542137   569313 
 6703000    1.3306118   -3.3710697   -1.8318138   0.11742899   -3.3710697    1.5392559   569319 
 6704000    1.3319331   -3.3720196   -1.8312866   0.11668447   -3.3720196     1.540733   569338 
 6705000    1.3318747   -3.3726502   -1.8320309   0.11324079   -3.3726502    1.5406194   569355 
 6706000    1.3322082   -3.3730119   -1.8320284   0.10993263   -3.3730119    1.5409835   569363 
 6707000    1.3317798   -3.3721239   -1.8317009   0.11574479   -3.3721239    1.5404231   569387 
 6708000    1.3330786   -3.3737869   -1.8318724   0.11174946   -3.3737869    1.5419145   569391 
 6709000    1.3339923    -3.374403   -1.8314534   0.11358767    -3.374403    1.5429496   569399 
 6710000    1.3332229   -3.3734706   -1.8314406    0.1116664   -3.3734706      1.54203   569410 
 6711000     1.334202   -3.3744193   -1.8312948   0.11398957   -3.3744193    1.5431245   569424 
 6712000    1.3328838   -3.3732504   -1.8316642    0.1075532   -3.3732504    1.5415863   569429 
 6713000       1.3316   -3.3730568   -1.8330446   0.10959158   -3.3730568    1.5400122   569462 
 6714000    1.3330915   -3.3738562   -1.8321677   0.11108288   -3.3738562    1.5416884   569480 
 6715000    1.3339409   -3.3742315   -1.8315797   0.10689477   -3.3742315    1.5426517   569487 
 6716000    1.3327653   -3.3731219    -1.831881   0.11403048   -3.3731219    1.5412408   569506 
 6717000    1.3334783   -3.3741996   -1.8321857   0.10873337   -3.3741996    1.5420139   569525 
 6718000    1.3346895   -3.3745641   -1.8311875   0.10991234   -3.3745641    1.5433766   569539 
 6719000    1.3350369    -3.374192   -1.8304463   0.10767549    -3.374192    1.5437457   569551 
 6720000    1.3328921   -3.3723914   -1.8311419   0.11528072   -3.3723914    1.5412495   569557 
 6721000     1.334486   -3.3740064   -1.8309816     0.106076   -3.3740064    1.5430248   569582 
 6722000    1.3343316   -3.3732463   -1.8304326   0.11360591   -3.3732463    1.5428137   569594 
 6723000    1.3343301   -3.3726759   -1.8299208   0.11371486   -3.3726759    1.5427551   569615 
 6724000    1.3355508   -3.3740857   -1.8299653   0.10782963   -3.3740857    1.5441204   569632 
 6725000    1.3361395   -3.3745575     -1.82977   0.10853954   -3.3745575    1.5447874   569637 
 6726000    1.3338144   -3.3731319   -1.8310623   0.11377855   -3.3731319    1.5420695   569648 
 6727000    1.3329105   -3.3732656   -1.8322817   0.11180789   -3.3732656     1.540984   569663 
 6728000    1.3330961    -3.374192   -1.8330422   0.10993895    -3.374192    1.5411498   569681 
 6729000    1.3328668   -3.3725928   -1.8317675   0.10713325   -3.3725928    1.5408253   569703 
 6730000    1.3346731   -3.3740498   -1.8311609   0.10858436   -3.3740498     1.542889   569712 
 6731000    1.3332067   -3.3721893   -1.8310064   0.10572388   -3.3721893    1.5411829   569716 
 6732000    1.3335421   -3.3729502   -1.8314228   0.11353832   -3.3729502    1.5415274   569732 
 6733000    1.3342739   -3.3731536   -1.8308208   0.11255221   -3.3731536    1.5423328   569747 
 6734000    1.3351098   -3.3733679   -1.8301014   0.10744345   -3.3733679    1.5432665   569759 
 6735000    1.3348771   -3.3745167   -1.8316113   0.11249329   -3.3745167    1.5429055   569793 
 6736000    1.3344706   -3.3733075   -1.8309505    0.1145869   -3.3733075     1.542357   569822 
 6737000    1.3352675   -3.3736685   -1.8304311   0.11224773   -3.3736685    1.5432375   569837 
 6738000    1.3361241   -3.3746958   -1.8305008   0.10940484   -3.3746958     1.544195   569849 
 6739000     1.335849   -3.3746375   -1.8307767   0.11588292   -3.3746375    1.5438608   569855 
 6740000    1.3369389   -3.3759351   -1.8308933   0.10761151   -3.3759351    1.5450417   569884 
 6741000    1.3353412   -3.3740766   -1.8309381   0.11596618   -3.3740766    1.5431385   569905 
 6742000    1.3355554    -3.374641   -1.8312902   0.10934702    -3.374641    1.5433509   569918 
 6743000    1.3353687   -3.3743627   -1.8312926   0.11158762   -3.3743627    1.5430701   569942 
 6744000    1.3350376   -3.3749331   -1.8322862   0.11045423   -3.3749331    1.5426469   569957 
 6745000    1.3357885   -3.3767592   -1.8333041   0.11131368   -3.3767592    1.5434551   569979 
 6746000    1.3344373    -3.374182   -1.8323479   0.10698721    -3.374182    1.5418342   570001 
 6747000    1.3333522   -3.3739636   -1.8334453   0.11508505   -3.3739636    1.5405183   570024 
 6748000    1.3321099   -3.3735206   -1.8344943   0.10964413   -3.3735206    1.5390263   570045 
 6749000    1.3337722   -3.3757388    -1.834838   0.10447725   -3.3757388    1.5409009   570062 
 6750000    1.3326395   -3.3742728   -1.8347156   0.10946093   -3.3742728    1.5395572   570075 
 6751000    1.3342314   -3.3751326   -1.8337742   0.11350636   -3.3751326    1.5413584   570089 
 6752000    1.3337897   -3.3753553   -1.8345774   0.11235306   -3.3753553    1.5407779   570115 
 6753000    1.3325017   -3.3745444   -1.8352517   0.11776584   -3.3745444    1.5392927   570114 
 6754000    1.3328367   -3.3749262   -1.8352763    0.1107185   -3.3749262    1.5396499   570125 
 6755000    1.3367797   -3.3786426   -1.8345137   0.11476693   -3.3786426    1.5441289   570153 
 6756000    1.3337437   -3.3762191   -1.8356377   0.10991476   -3.3762191    1.5405815   570168 
 6757000    1.3338467   -3.3767483   -1.8361533    0.1144767   -3.3767483     1.540595   570207 
 6758000    1.3328025   -3.3754209    -1.836094   0.10868407   -3.3754209    1.5393269   570230 
 6759000    1.3361995   -3.3789847   -1.8357777   0.11127721   -3.3789847     1.543207   570246 
 6760000      1.33366   -3.3763575   -1.8361644    0.1116447   -3.3763575    1.5401931   570276 
 6761000    1.3337697   -3.3760756   -1.8358342   0.10664132   -3.3760756    1.5402414   570305 
 6762000    1.3333061   -3.3759833   -1.8363178   0.11546951   -3.3759833    1.5396655   570320 
 6763000    1.3343959   -3.3772258   -1.8363558   0.10735746   -3.3772258    1.5408701   570340 
 6764000    1.3328228   -3.3753128   -1.8363295   0.11297151   -3.3753128    1.5389833   570366 
 6765000     1.332785   -3.3756889   -1.8367519   0.10786472   -3.3756889     1.538937   570367 
 6766000    1.3341379    -3.376971   -1.8365042   0.11314991    -3.376971    1.5404668   570379 
 6767000    1.3334398   -3.3766092   -1.8370052   0.11114482   -3.3766092     1.539604   570400 
 6768000    1.3336805   -3.3780857   -1.8382362   0.11801745   -3.3780857    1.5398495   570412 
 6769000    1.3337591   -3.3782204   -1.8383341   0.10756029   -3.3782204    1.5398863   570432 
 6770000    1.3359119   -3.3800703   -1.8377201   0.11115719   -3.3800703    1.5423502   570440 
 6771000    1.3343494   -3.3785235   -1.8380178   0.11081494   -3.3785235    1.5405057   570455 
 6772000      1.33267   -3.3768958   -1.8383641   0.11040827   -3.3768958    1.5385317   570468 
 6773000    1.3331907   -3.3778881    -1.838793    0.1037133   -3.3778881    1.5390951   570482 
 6774000    1.3319983    -3.376127   -1.8384651   0.11071365    -3.376127     1.537662   570503 
 6775000    1.3341745   -3.3783541   -1.8382042    0.1098192   -3.3783541    1.5401499   570512 
 6776000    1.3339531   -3.3763746   -1.8366071   0.11055523   -3.3763746    1.5397675   570559 
 6777000    1.3348065   -3.3780026   -1.8373176   0.11144476   -3.3780026     1.540685   570584 
 6778000    1.3346518   -3.3782169   -1.8377861   0.10951738   -3.3782169    1.5404309   570612 
 6779000    1.3343981   -3.3783028   -1.8382052   0.10598358   -3.3783028    1.5400976   570627 
 6780000    1.3328981   -3.3768806     -1.83856   0.11232572   -3.3768806    1.5383205   570644 
 6781000    1.3347164   -3.3790655   -1.8386735   0.10420698   -3.3790655     1.540392   570654 
 6782000    1.3363259   -3.3811278   -1.8389539   0.10954486   -3.3811278    1.5421739   570682 
 6783000     1.333487   -3.3785765   -1.8397651   0.11475183   -3.3785765    1.5388114   570714 
 6784000    1.3349132   -3.3782674   -1.8378911   0.11336023   -3.3782674    1.5403763   570744 
 6785000     1.335564    -3.378829    -1.837745   0.11600426    -3.378829     1.541084   570760 
 6786000    1.3356905   -3.3792641   -1.8381152   0.10959054   -3.3792641    1.5411489   570790 
 6787000    1.3366205   -3.3800877    -1.837944   0.10910585   -3.3800877    1.5421437   570819 
 6788000    1.3358148   -3.3792302   -1.8380621   0.11217858   -3.3792302    1.5411681   570836 
 6789000    1.3375061   -3.3804541   -1.8373833     0.109564   -3.3804541    1.5430708   570854 
 6790000    1.3365944   -3.3798287   -1.8378529   0.11696771   -3.3798287    1.5419758   570870 
 6791000    1.3370664   -3.3806134   -1.8381498   0.11392285   -3.3806134    1.5424636   570891 
 6792000      1.33509    -3.379879   -1.8397738    0.1146789    -3.379879    1.5401053   570920 
 6793000    1.3350633   -3.3804963   -1.8404838   0.11039627   -3.3804963    1.5400125   570943 
 6794000    1.3334514   -3.3791387   -1.8410582   0.10992523   -3.3791387    1.5380804   570970 
 6795000    1.3340685   -3.3796023   -1.8408694   0.10590929   -3.3796023    1.5387329   570992 
 6796000    1.3352207   -3.3804036   -1.8403687   0.11138015   -3.3804036    1.5400348   571002 
 6797000    1.3351281    -3.380098   -1.8402643   0.11173667    -3.380098    1.5398337   571037 
 6798000    1.3360791    -3.380981   -1.8401152   0.11075666    -3.380981    1.5408658   571061 
 6799000    1.3365287   -3.3822656   -1.8409516   0.10477065   -3.3822656     1.541314   571087 
 6800000    1.3352638   -3.3810626   -1.8412476    0.1089634   -3.3810626     1.539815   571102 
 6801000    1.3355454   -3.3810428    -1.840957   0.10916752   -3.3810428    1.5400857   571122 
 6802000    1.3360314    -3.381647    -1.841071   0.11694325    -3.381647     1.540576   571148 
 6803000    1.3361879   -3.3820102   -1.8413131    0.1102086   -3.3820102    1.5406971   571170 
 6804000    1.3356251   -3.3816228   -1.8416043    0.1149493   -3.3816228    1.5400185   571181 
 6805000    1.3362944   -3.3820468   -1.8412781   0.10771087   -3.3820468    1.5407686   571189 
 6806000    1.3346478   -3.3795058   -1.8407057   0.10656063   -3.3795058    1.5388001   571215 
 6807000    1.3355709   -3.3810741   -1.8412636    0.1121951   -3.3810741    1.5398105   571235 
 6808000    1.3355388   -3.3798233   -1.8400848   0.11036014   -3.3798233    1.5397384   571248 
 6809000     1.335698   -3.3810563   -1.8411802   0.11747181   -3.3810563    1.5398761   571265 
 6810000    1.3359309   -3.3813536   -1.8412385   0.11502897   -3.3813536     1.540115   571276 
 6811000    1.3357016    -3.380718   -1.8408917   0.11402505    -3.380718    1.5398264   571285 
 6812000    1.3358482    -3.380601   -1.8406703   0.11149646    -3.380601    1.5399307   571309 
 6813000     1.335415   -3.3803349   -1.8409332   0.11107713   -3.3803349    1.5394017   571320 
 6814000    1.3356374   -3.3808497   -1.8412375    0.1109066   -3.3808497    1.5396122   571337 
 6815000    1.3373366   -3.3828915   -1.8413475    0.1059791   -3.3828915    1.5415439   571347 
 6816000    1.3347923   -3.3798733   -1.8413268   0.11052807   -3.3798733    1.5385465   571371 
 6817000    1.3375779   -3.3828107   -1.8411262   0.10445254   -3.3828107    1.5416845   571398 
 6818000    1.3375379   -3.3818648   -1.8402723    0.1130889   -3.3818648    1.5415925   571415 
 6819000    1.3358501   -3.3806776   -1.8410842   0.11070448   -3.3806776    1.5395934   571435 
 6820000    1.3378961   -3.3822966   -1.8403398   0.11410271   -3.3822966    1.5419568   571433 
 6821000    1.3385997   -3.3832659   -1.8405387   0.10655624   -3.3832659    1.5427272   571448 
 6822000    1.3378129   -3.3823473   -1.8405296   0.11093885   -3.3823473    1.5418177   571449 
 6823000    1.3370045    -3.381871   -1.8409903   0.11390798    -3.381871    1.5408807   571451 
 6824000    1.3372626   -3.3822399   -1.8411184   0.10577498   -3.3822399    1.5411215   571472 
 6825000    1.3379458   -3.3831335   -1.8412462   0.10811745   -3.3831335    1.5418873   571480 
 6826000    1.3364295   -3.3818108   -1.8416684   0.11380238   -3.3818108    1.5401425   571479 
 6827000    1.3362478   -3.3811415   -1.8412354   0.10935364   -3.3811415    1.5399061   571489 
 6828000    1.3355079   -3.3815845   -1.8425256   0.11512285   -3.3815845    1.5390589   571487 
 6829000    1.3358799    -3.382864   -1.8434087    0.1096732    -3.382864    1.5394553   571499 
 6830000    1.3370364   -3.3834871   -1.8427395    0.1062181   -3.3834871    1.5407476   571514 
 6831000    1.3355471   -3.3839734   -1.8449744   0.11025422   -3.3839734    1.5389991   571526 
 6832000    1.3357575   -3.3832684   -1.8440943   0.10703081   -3.3832684    1.5391741   571551 
 6833000     1.336218   -3.3839902   -1.8443392   0.11168065   -3.3839902     1.539651   571571 
 6834000    1.3374413   -3.3842344   -1.8432468   0.10698746   -3.3842344    1.5409876   571598 
 6835000    1.3355954   -3.3834116   -1.8445372   0.11278506   -3.3834116    1.5388743   571593 
 6836000    1.3370011   -3.3862998   -1.8458678   0.10843383   -3.3862998     1.540432   571616 
 6837000    1.3368832   -3.3850832   -1.8448329   0.11243866   -3.3850832    1.5402503   571633 
 6838000    1.3353325   -3.3841404   -1.8457197   0.10837038   -3.3841404    1.5384207   571649 
 6839000     1.333861   -3.3821697   -1.8455008   0.11583068   -3.3821697    1.5366689   571670 
 6840000    1.3370026   -3.3839792   -1.8437206   0.10913183   -3.3839792    1.5402586   571681 
 6841000     1.336273   -3.3834492   -1.8440797   0.11835845   -3.3834492    1.5393695   571699 
 6842000     1.336928   -3.3855507    -1.845475   0.11061648   -3.3855507    1.5400756   571717 
 6843000    1.3374334   -3.3849021   -1.8442955   0.10601734   -3.3849021    1.5406066   571736 
 6844000    1.3364465   -3.3842173   -1.8448148   0.11486333   -3.3842173    1.5394024   571761 
 6845000     1.336373   -3.3842159   -1.8449734   0.11251892   -3.3842159    1.5392425   571789 
 6846000    1.3360515   -3.3847614   -1.8458973   0.11135335   -3.3847614    1.5388641   571792 
 6847000     1.335534   -3.3845548   -1.8462921   0.11447807   -3.3845548    1.5382626   571794 
 6848000    1.3369109   -3.3865111   -1.8466949   0.11105452   -3.3865111    1.5398162   571806 
 6849000    1.3376901   -3.3877337   -1.8470496   0.11482584   -3.3877337    1.5406841   571817 
 6850000    1.3357723   -3.3848395   -1.8464019   0.10947506   -3.3848395    1.5384375   571831 
 6851000    1.3374793   -3.3864161   -1.8461122   0.11144148   -3.3864161    1.5403039   571868 
 6852000    1.3371619   -3.3859018   -1.8460227   0.10663258   -3.3859018    1.5398791   571890 
 6853000    1.3369236   -3.3866167   -1.8470525   0.10504459   -3.3866167    1.5395643   571905 
 6854000    1.3364052   -3.3856056   -1.8466787   0.11136057   -3.3856056    1.5389269   571920 
 6855000     1.335528   -3.3848428   -1.8469529   0.11167999   -3.3848428    1.5378899   571930 
 6856000    1.3352809    -3.385327   -1.8477377   0.11616061    -3.385327    1.5375893   571936 
 6857000    1.3357032    -3.384882   -1.8468469   0.11571826    -3.384882    1.5380351   571951 
 6858000    1.3380639   -3.3870225   -1.8463175   0.10870055   -3.3870225     1.540705   571969 
 6859000    1.3369543   -3.3847427    -1.845353   0.11618605   -3.3847427    1.5393897   571983 
 6860000    1.3378395   -3.3866619   -1.8462907   0.11327636   -3.3866619    1.5403712   571997 
 6861000    1.3372733   -3.3868287   -1.8471417   0.10701105   -3.3868287     1.539687   572009 
 6862000    1.3373311   -3.3859693   -1.8462615   0.10963919   -3.3859693    1.5397078   572026 
 6863000     1.335878   -3.3847414   -1.8467739   0.11339447   -3.3847414    1.5379675   572051 
 6864000    1.3350996   -3.3844607   -1.8473865    0.1117307   -3.3844607    1.5370741   572050 
 6865000    1.3361205   -3.3857946   -1.8475748   0.10723895   -3.3857946    1.5382199   572061 
 6866000    1.3370921   -3.3871155    -1.847804   0.11124767   -3.3871155    1.5393116   572071 
 6867000     1.336901   -3.3852896   -1.8462734   0.11681585   -3.3852896    1.5390162   572099 
 6868000    1.3380133   -3.3870069    -1.846721   0.11569132   -3.3870069    1.5402859   572103 
 6869000    1.3361516   -3.3853563    -1.847254   0.11621849   -3.3853563    1.5381024   572118 
 6870000    1.3357848   -3.3844752    -1.846838   0.10817394   -3.3844752    1.5376372   572134 
 6871000    1.3358507   -3.3845454   -1.8468834   0.11130485   -3.3845454     1.537662   572153 
 6872000    1.3357296    -3.385662   -1.8481905   0.11109512    -3.385662    1.5374715   572172 
 6873000    1.3370865   -3.3883068   -1.8492707   0.10934291   -3.3883068     1.539036   572171 
 6874000    1.3373054   -3.3882744   -1.8490053   0.10684208   -3.3882744    1.5392691   572178 
 6875000     1.337128   -3.3873469   -1.8483572   0.10769346   -3.3873469    1.5389897   572206 
 6876000    1.3355016   -3.3859869   -1.8488959   0.11761156   -3.3859869    1.5370909   572216 
 6877000    1.3351628   -3.3861751   -1.8494741   0.10891439   -3.3861751     1.536701   572216 
 6878000    1.3374642   -3.3883872   -1.8490617   0.10935883   -3.3883872    1.5393255   572225 
 6879000    1.3371506   -3.3875662   -1.8486473   0.11541645   -3.3875662    1.5389189   572242 
 6880000    1.3362101   -3.3880466   -1.8502478   0.11197523   -3.3880466    1.5377988   572256 
 6881000    1.3351247   -3.3862266   -1.8497199    0.1106707   -3.3862266    1.5365067   572272 
 6882000    1.3346352   -3.3874683   -1.8515463   0.10672007   -3.3874683    1.5359219   572280 
 6883000      1.33613   -3.3886932   -1.8511021   0.10909491   -3.3886932    1.5375911   572299 
 6884000    1.3362911   -3.3883352   -1.8505909   0.11445943   -3.3883352    1.5377443   572311 
 6885000    1.3371853    -3.389109   -1.8503546   0.11533985    -3.389109    1.5387544   572318 
 6886000    1.3362481   -3.3883677   -1.8507589    0.1095706   -3.3883677    1.5376088   572343 
 6887000    1.3361043   -3.3884408   -1.8510781   0.11271323   -3.3884408    1.5373627   572373 
 6888000    1.3378504   -3.3904069   -1.8510968   0.11116015   -3.3904069    1.5393101   572396 
 6889000     1.339574   -3.3915562   -1.8502846   0.10756653   -3.3915562    1.5412716   572404 
 6890000       1.3384   -3.3906135   -1.8506685   0.11075036   -3.3906135     1.539945   572395 
 6891000    1.3378759   -3.3894663    -1.850135   0.11450522   -3.3894663    1.5393313   572399 
 6892000    1.3377791   -3.3887354    -1.849529   0.11603672   -3.3887354    1.5392064   572404 
 6893000    1.3361462   -3.3873671   -1.8500583   0.11159453   -3.3873671    1.5373089   572411 
 6894000    1.3370089   -3.3875414   -1.8492776   0.11273386   -3.3875414    1.5382638   572425 
 6895000    1.3369689    -3.387583   -1.8494028   0.11408155    -3.387583    1.5381802   572439 
 6896000    1.3368607   -3.3885335   -1.8504992   0.11399383   -3.3885335    1.5380342   572447 
 6897000    1.3384938   -3.3897217   -1.8498462   0.11126316   -3.3897217    1.5398755   572461 
 6898000    1.3376441     -3.38841   -1.8495739   0.10963022     -3.38841    1.5388361   572484 
 6899000    1.3353786   -3.3866017   -1.8504229    0.1058523   -3.3866017    1.5361788   572503 
 6900000    1.3366431   -3.3883605   -1.8507807    0.1095087   -3.3883605    1.5375798   572523 
 6901000     1.337865    -3.390188   -1.8512618   0.10148752    -3.390188    1.5389262   572545 
 6902000    1.3365215   -3.3883878   -1.8510419   0.11660003   -3.3883878    1.5373459   572558 
 6903000    1.3385513   -3.3896282   -1.8499663   0.11151705   -3.3896282    1.5396619   572565 
 6904000    1.3379506   -3.3889633   -1.8500085   0.11165853   -3.3889633    1.5389548   572571 
 6905000    1.3347098   -3.3863974     -1.85124   0.11322852   -3.3863974    1.5351574   572597 
 6906000      1.33785   -3.3890404   -1.8503116   0.10689424   -3.3890404    1.5387289   572612 
 6907000    1.3357743   -3.3859331   -1.8496319   0.11346759   -3.3859331    1.5363012   572627 
 6908000    1.3379283   -3.3889288   -1.8501986   0.11081528   -3.3889288    1.5387302   572645 
 6909000    1.3391776   -3.3901834   -1.8500109   0.10936345   -3.3901834    1.5401724   572643 
 6910000    1.3363993   -3.3878254   -1.8508671   0.11149439   -3.3878254    1.5369584   572650 
 6911000    1.3374889   -3.3889301   -1.8507589   0.10957684   -3.3889301    1.5381712   572665 
 6912000    1.3371119    -3.388641   -1.8509195   0.11012825    -3.388641    1.5377215   572671 
 6913000    1.3378214    -3.389161   -1.8506396   0.11254692    -3.389161    1.5385214   572677 
 6914000    1.3388307   -3.3911888   -1.8515363   0.10418733   -3.3911888    1.5396525   572688 
 6915000    1.3381335   -3.3913194   -1.8524928   0.10580959   -3.3913194    1.5388266   572697 
 6916000    1.3366242   -3.3897297    -1.852714     0.109243   -3.3897297    1.5370157   572725 
 6917000    1.3365643   -3.3903473   -1.8534649   0.10883431   -3.3903473    1.5368824   572749 
 6918000    1.3381287   -3.3908264   -1.8521988   0.11076384   -3.3908264    1.5386275   572769 
 6919000    1.3376035   -3.3892586   -1.8512538   0.11319761   -3.3892586    1.5380048   572776 
 6920000    1.3374343   -3.3891615    -1.851378    0.1188325   -3.3891615    1.5377835   572786 
 6921000    1.3374322   -3.3896037    -1.851887   0.11774566   -3.3896037    1.5377167   572810 
 6922000    1.3365962   -3.3897715   -1.8530804   0.11319369   -3.3897715     1.536691   572834 
 6923000    1.3390606   -3.3918209   -1.8523718   0.11036117   -3.3918209    1.5394492   572862 
 6924000    1.3375878   -3.3902327   -1.8524956   0.11214872   -3.3902327    1.5377372   572869 
 6925000    1.3370267    -3.390263   -1.8531924   0.11053381    -3.390263    1.5370707   572877 
 6926000    1.3379825    -3.391432   -1.8533243   0.10986184    -3.391432    1.5381077   572900 
 6927000    1.3371444   -3.3912053   -1.8540772   0.11197731   -3.3912053    1.5371281   572906 
 6928000    1.3373884   -3.3908019   -1.8534362   0.10770901   -3.3908019    1.5373657   572922 
 6929000    1.3381297   -3.3923929   -1.8542315   0.10649211   -3.3923929    1.5381614   572943 
 6930000    1.3385694   -3.3929063   -1.8542985   0.10837978   -3.3929063    1.5386078   572965 
 6931000    1.3353875   -3.3891735   -1.8543035   0.10478743   -3.3891735      1.53487   572995 
 6932000    1.3353837   -3.3884039   -1.8536238   0.10837071   -3.3884039      1.53478   573027 
 6933000    1.3375584   -3.3908708   -1.8536343   0.10776523   -3.3908708    1.5372365   573043 
 6934000    1.3385487   -3.3904439   -1.8520827   0.10894856   -3.3904439    1.5383612   573048 
 6935000    1.3385995   -3.3916994    -1.853347   0.11033406   -3.3916994    1.5383525   573073 
 6936000    1.3368023   -3.3898099   -1.8535362   0.11428793   -3.3898099    1.5362737   573078 
 6937000    1.3388052   -3.3920221   -1.8534923   0.10495749   -3.3920221    1.5385298   573095 
 6938000    1.3401954   -3.3931043   -1.8529958   0.10646534   -3.3931043    1.5401086   573102 
 6939000    1.3384873   -3.3918839   -1.8537704   0.10506276   -3.3918839    1.5381135   573114 
 6940000    1.3384536   -3.3923622   -1.8543036   0.10764346   -3.3923622    1.5380587   573120 
 6941000    1.3392463   -3.3935378   -1.8545844   0.11104854   -3.3935378    1.5389534   573126 
 6942000    1.3369971    -3.390843   -1.8545224   0.11073771    -3.390843    1.5363205   573144 
 6943000     1.338031   -3.3926775   -1.8551876   0.10638906   -3.3926775    1.5374899   573151 
 6944000    1.3372281    -3.392035    -1.855516   0.10352782    -3.392035    1.5365189   573169 
 6945000     1.337119   -3.3918635   -1.8555182   0.11014424   -3.3918635    1.5363453   573187 
 6946000    1.3361286   -3.3912323   -1.8560383   0.11374523   -3.3912323     1.535194   573192 
 6947000    1.3361632    -3.391125   -1.8558752   0.11078569    -3.391125    1.5352498   573186 
 6948000    1.3369855    -3.392514   -1.8563622   0.10883711    -3.392514    1.5361518   573202 
 6949000    1.3375677   -3.3930691   -1.8562537   0.10375829   -3.3930691    1.5368153   573204 
 6950000    1.3371326   -3.3925343   -1.8562349   0.10742933   -3.3925343    1.5362994   573210 
 6951000    1.3361401   -3.3914133   -1.8562703   0.11259132   -3.3914133     1.535143   573216 
 6952000    1.3380449   -3.3948415   -1.8575341   0.10527489   -3.3948415    1.5373074   573225 
 6953000    1.3368235   -3.3921483   -1.8562817   0.10960748   -3.3921483    1.5358666   573239 
 6954000    1.3378598   -3.3935001   -1.8564751   0.11086612   -3.3935001     1.537025   573251 
 6955000    1.3390326   -3.3939668   -1.8556508   0.10974601   -3.3939668    1.5383159   573272 
 6956000    1.3374158   -3.3931091   -1.8567068   0.11173642   -3.3931091    1.5364023   573293 
 6957000    1.3386096   -3.3934589    -1.855712   0.10952219   -3.3934589    1.5377468   573303 
 6958000    1.3382938   -3.3924775   -1.8551685   0.10839215   -3.3924775     1.537309   573331 
 6959000    1.3366467   -3.3901161   -1.8547634   0.11503311   -3.3901161    1.5353527   573355 
 6960000    1.3381214   -3.3930041   -1.8559709   0.11066862   -3.3930041    1.5370332   573360 
 6961000    1.3390923   -3.3936061   -1.8554979   0.10614308   -3.3936061    1.5381083   573375 
 6962000    1.3385149    -3.392707   -1.8552942   0.11026003    -3.392707    1.5374128   573387 
 6963000    1.3397715   -3.3952544   -1.8564304   0.10636838   -3.3952544     1.538824   573399 
 6964000    1.3392263   -3.3935717   -1.8553874   0.11324103   -3.3935717    1.5381843   573404 
 6965000    1.3376076   -3.3920455   -1.8557766   0.12141612   -3.3920455    1.5362689   573425 
 6966000    1.3377932   -3.3924454   -1.8560357   0.10895163   -3.3924454    1.5364098   573452 
 6967000    1.3384825     -3.39396   -1.8567641   0.10879499     -3.39396     1.537196   573454 
 6968000    1.3377468   -3.3934065   -1.8570716   0.10906679   -3.3934065     1.536335   573460 
 6969000     1.338021   -3.3942294   -1.8576411   0.10508984   -3.3942294    1.5365883   573483 
 6970000    1.3385439   -3.3948538   -1.8577213   0.10664152   -3.3948538    1.5371325   573504 
 6971000    1.3354694   -3.3919954   -1.8584684   0.11391863   -3.3919954     1.533527   573532 
 6972000     1.338682   -3.3946984   -1.8574931   0.10475564   -3.3946984    1.5372053   573536 
 6973000    1.3392312   -3.3953382   -1.8575371   0.11085652   -3.3953382    1.5378011   573549 
 6974000    1.3374176   -3.3929505   -1.8572641    0.1074653   -3.3929505    1.5356865   573561 
 6975000    1.3370056   -3.3932595   -1.8580514   0.10726416   -3.3932595    1.5352081   573563 
 6976000    1.3404502   -3.3963865   -1.8572448   0.10876949   -3.3963865    1.5391418   573571 
 6977000    1.3380541   -3.3938285   -1.8574995   0.10719105   -3.3938285     1.536329   573594 
 6978000    1.3372316    -3.392895    -1.857564   0.11242827    -3.392895     1.535331   573614 
 6979000     1.338434   -3.3952063   -1.8585135   0.10747817   -3.3952063    1.5366928   573621 
 6980000     1.338339   -3.3958157   -1.8592722    0.1124673   -3.3958157    1.5365435   573636 
 6981000    1.3387594   -3.3958419   -1.8588719   0.11196522   -3.3958419      1.53697   573657 
 6982000    1.3392126   -3.3961948   -1.8587234   0.10246748   -3.3961948    1.5374714   573664 
 6983000    1.3396125   -3.3965103    -1.858628    0.1140743   -3.3965103    1.5378823   573682 
 6984000    1.3402429   -3.3973675   -1.8587883   0.11085515   -3.3973675    1.5385792   573692 
 6985000    1.3403293   -3.3969008   -1.8582545   0.10741019   -3.3969008    1.5386462   573704 
 6986000    1.3399259   -3.3958488   -1.8577113   0.11136474   -3.3958488    1.5381375   573721 
 6987000    1.3367732    -3.392951   -1.8585048   0.11256583    -3.392951    1.5344462   573748 
 6988000     1.337728   -3.3944504   -1.8589163     0.112345   -3.3944504    1.5355342   573751 
 6989000    1.3370243   -3.3941244   -1.8594461   0.11386699   -3.3941244    1.5346783   573769 
 6990000    1.3385439   -3.3956309   -1.8592352   0.11137492   -3.3956309    1.5363958   573779 
 6991000    1.3378531   -3.3955166   -1.8599566   0.11087381   -3.3955166      1.53556   573795 
 6992000    1.3396787   -3.3969587   -1.8593409   0.10502117   -3.3969587    1.5376179   573809 
 6993000    1.3370736   -3.3926981    -1.858121   0.12276824   -3.3926981    1.5345771   573828 
 6994000    1.3369885   -3.3930465   -1.8586071   0.10958614   -3.3930465    1.5344393   573843 
 6995000    1.3380267   -3.3938058   -1.8582045   0.10289153   -3.3938058    1.5356013   573854 
 6996000    1.3376469   -3.3937514   -1.8586394   0.10898767   -3.3937514     1.535112   573874 
 6997000    1.3383206   -3.3941949   -1.8583686    0.1087625   -3.3941949    1.5358263   573896 
 6998000    1.3401565   -3.3959979   -1.8581076   0.11171872   -3.3959979    1.5378903   573912 
 6999000    1.3401818   -3.3969031   -1.8590589  0.099760788   -3.3969031    1.5378442   573940 
 7000000    1.3400869   -3.3943303   -1.8566004   0.10779221   -3.3943303      1.53773   573942 
 7001000    1.3393917   -3.3954389   -1.8585495   0.11170666   -3.3954389    1.5368894   573958 
 7002000    1.3397135   -3.3966472   -1.8594528   0.11358477   -3.3966472    1.5371944   573982 
 7003000    1.3379228   -3.3940701   -1.8589625   0.10901429   -3.3940701    1.5351076   573994 
 7004000    1.3400992   -3.3966138   -1.8590519   0.10340944   -3.3966138     1.537562   574010 
 7005000    1.3385805    -3.393912   -1.8581407   0.10831572    -3.393912    1.5357713   574028 
 7006000    1.3399642   -3.3955604   -1.8582551   0.11750236   -3.3955604    1.5373053   574048 
 7007000    1.3389906    -3.394627   -1.8584628   0.11011809    -3.394627    1.5361643   574057 
 7008000    1.3383963   -3.3943203   -1.8588459   0.11528677   -3.3943203    1.5354744   574060 
 7009000    1.3396076   -3.3966952   -1.8598821    0.1129304   -3.3966952    1.5368131   574079 
 7010000    1.3405426   -3.3980164   -1.8601815   0.11246803   -3.3980164    1.5378349   574098 
 7011000    1.3390834   -3.3964657   -1.8603663   0.11519661   -3.3964657    1.5360994   574121 
 7012000    1.3400202   -3.3990056   -1.8618316   0.10496837   -3.3990056    1.5371741   574121 
 7013000    1.3386322   -3.3971705   -1.8616529     0.115779   -3.3971705    1.5355176   574145 
 7014000    1.3396599   -3.3970328   -1.8603684   0.11415526   -3.3970328    1.5366643   574157 
 7015000    1.3400666   -3.3979063   -1.8608369   0.11223628   -3.3979063    1.5370693   574180 
 7016000    1.3409327   -3.3991196   -1.8611158   0.10691785   -3.3991196    1.5380039   574202 
 7017000    1.3403795   -3.3983462   -1.8609983   0.11069263   -3.3983462    1.5373479   574210 
 7018000    1.3403393   -3.3984872   -1.8612175   0.10929856   -3.3984872    1.5372697   574222 
 7019000    1.3397206   -3.3985896   -1.8620563   0.10903236   -3.3985896    1.5365333   574232 
 7020000     1.340175   -3.3993675   -1.8623505   0.10908518   -3.3993675     1.537017   574246 
 7021000    1.3401515   -3.3987206   -1.8617867   0.10614982   -3.3987206    1.5369339   574267 
 7022000    1.3412669   -3.3997818   -1.8615822   0.11232013   -3.3997818    1.5381996   574272 
 7023000    1.3393259   -3.3983001   -1.8623398   0.11258824   -3.3983001    1.5359602   574277 
 7024000    1.3391758   -3.3979839   -1.8622172   0.10887727   -3.3979839    1.5357667   574285 
 7025000     1.338793   -3.3976424   -1.8623335   0.10922022   -3.3976424     1.535309   574292 
 7026000    1.3401812   -3.3999128   -1.8630359   0.11075929   -3.3999128    1.5368769   574301 
 7027000    1.3389268   -3.3983355   -1.8628892    0.1085194   -3.3983355    1.5354464   574298 
 7028000    1.3395043   -3.3988474   -1.8627682   0.10771742   -3.3988474    1.5360793   574309 
 7029000    1.3389785   -3.3984069   -1.8629199   0.11099295   -3.3984069     1.535487   574305 
 7030000    1.3383441   -3.3979611   -1.8632578     0.110839   -3.3979611    1.5347033   574326 
 7031000    1.3391859   -3.3979235   -1.8622869   0.10815351   -3.3979235    1.5356366   574338 
 7032000    1.3401214   -3.3986561   -1.8619709   0.10738478   -3.3986561    1.5366852   574347 
 7033000    1.3408721   -3.3995557   -1.8620899   0.10750255   -3.3995557    1.5374657   574377 
 7034000    1.3391146   -3.3992037   -1.8637959   0.11242303   -3.3992037    1.5354078   574393 
 7035000    1.3387913   -3.3971856   -1.8621725   0.11406035   -3.3971856    1.5350131   574402 
 7036000     1.338069   -3.3964048   -1.8622173   0.11155344   -3.3964048    1.5341875   574401 
 7037000    1.3414567   -3.3994954   -1.8614263   0.11492963   -3.3994954    1.5380691   574402 
 7038000    1.3398932   -3.3974087   -1.8611537   0.11261952   -3.3974087    1.5362551   574410 
 7039000    1.3394031   -3.3972622   -1.8615931   0.11450001   -3.3972622    1.5356691   574419 
 7040000    1.3405453   -3.3984185   -1.8614827   0.11319086   -3.3984185    1.5369358   574435 
 7041000    1.3397651   -3.3969028   -1.8608909   0.11156099   -3.3969028    1.5360119   574446 
 7042000    1.3407164   -3.3976745   -1.8606121   0.11397506   -3.3976745    1.5370624   574461 
 7043000     1.342151   -3.3985245   -1.8598469   0.11090824   -3.3985245    1.5386776   574472 
 7044000     1.342064   -3.3981137   -1.8595598   0.10906531   -3.3981137    1.5385538   574481 
 7045000    1.3412516   -3.3978295   -1.8601991   0.11543886   -3.3978295    1.5376305   574478 
 7046000    1.3421418   -3.3990561   -1.8604693   0.11353539   -3.3990561    1.5385868   574502 
 7047000     1.342739   -3.3998709   -1.8606129   0.11211361   -3.3998709     1.539258   574507 
 7048000    1.3415736   -3.3982419   -1.8603628   0.10993253   -3.3982419    1.5378791   574523 
 7049000    1.3418079   -3.3989345   -1.8608136   0.10838505   -3.3989345    1.5381209   574533 
 7050000     1.341497   -3.3986616   -1.8609612   0.11423076   -3.3986616    1.5377004   574557 
 7051000      1.34138   -3.3976718   -1.8601431   0.11385332   -3.3976718    1.5375287   574571 
 7052000    1.3411774   -3.3985396   -1.8612698   0.11214251   -3.3985396    1.5372698   574581 
 7053000    1.3403476   -3.3975672   -1.8612994   0.11728232   -3.3975672    1.5362679   574600 
 7054000     1.341694   -3.3989232   -1.8611389    0.1089488   -3.3989232    1.5377843   574610 
 7055000    1.3420097   -3.3991926   -1.8611001   0.11457849   -3.3991926    1.5380926   574630 
 7056000    1.3432622   -3.4006229   -1.8611216   0.11255173   -3.4006229    1.5395013   574640 
 7057000    1.3413615   -3.3987105   -1.8614276   0.11461254   -3.3987105    1.5372828   574655 
 7058000    1.3421551   -3.3998798   -1.8617302   0.11385874   -3.3998798    1.5381495   574671 
 7059000    1.3417898   -3.3991709   -1.8614695   0.11130689   -3.3991709    1.5377014   574682 
 7060000    1.3407384   -3.3981688   -1.8617177   0.10941826   -3.3981688    1.5364511   574699 
 7061000     1.340568   -3.3981462   -1.8619305   0.11374484   -3.3981462    1.5362157   574714 
 7062000    1.3410539   -3.3979258   -1.8611961   0.11304381   -3.3979258    1.5367297   574730 
 7063000    1.3406736   -3.3973785   -1.8611033   0.11282112   -3.3973785    1.5362752   574737 
 7064000    1.3407683   -3.3972453   -1.8608909   0.11662948   -3.3972453    1.5363544   574748 
 7065000    1.3426574   -3.3998032   -1.8613457   0.11124107   -3.3998032    1.5384575   574771 
 7066000    1.3410037   -3.3981869   -1.8616322   0.11487693   -3.3981869    1.5365546   574774 
 7067000     1.343809   -3.4017311   -1.8620157    0.1118188   -3.4017311    1.5397154   574794 
 7068000    1.3417294   -3.3985991   -1.8613333   0.11395108   -3.3985991    1.5372658   574819 
 7069000    1.3429555   -3.4006571   -1.8620293   0.11179538   -3.4006571    1.5386277   574835 
 7070000    1.3435047   -3.4015619   -1.8623345   0.11193068   -3.4015619    1.5392274   574846 
 7071000    1.3428372   -3.4006155   -1.8621501    0.1150432   -3.4006155    1.5384654   574845 
 7072000    1.3400712   -3.3993847   -1.8641017    0.1094715   -3.3993847    1.5352831   574850 
 7073000    1.3405585   -3.3998049   -1.8639715   0.11068728   -3.3998049    1.5358334   574853 
 7074000    1.3421717   -3.4019172   -1.8643079   0.11143371   -3.4019172    1.5376094   574880 
 7075000    1.3404233    -3.399367   -1.8637793   0.11429277    -3.399367    1.5355877   574887 
 7076000    1.3410243   -3.3999958   -1.8638131   0.11198747   -3.3999958    1.5361826   574922 
 7077000    1.3418087   -3.3999892    -1.862924   0.11537132   -3.3999892    1.5370651   574928 
 7078000    1.3425163   -3.4011563   -1.8632994   0.10801428   -3.4011563     1.537857   574935 
 7079000    1.3427936   -3.4014159   -1.8632601   0.10865786   -3.4014159    1.5381559   574942 
 7080000    1.3413808   -3.3993409   -1.8628647    0.1159566   -3.3993409    1.5364761   574965 
 7081000    1.3443157   -3.4024282   -1.8626412   0.10638137   -3.4024282     1.539787   574984 
 7082000    1.3423699   -3.4001765   -1.8626664   0.11287174   -3.4001765    1.5375102   575002 
 7083000    1.3410534   -3.3996992   -1.8637424   0.10974817   -3.3996992    1.5359568   575019 
 7084000    1.3430249   -3.4016732   -1.8635251   0.10943669   -3.4016732     1.538148   575044 
 7085000     1.340825   -3.3991833   -1.8635895   0.10787256   -3.3991833    1.5355938   575057 
 7086000    1.3423063   -3.4003768    -1.863116   0.11017465   -3.4003768    1.5372609   575068 
 7087000    1.3423203    -3.401128   -1.8638966   0.11394029    -3.401128    1.5372314   575085 
 7088000    1.3418048   -3.4021892   -1.8656015   0.11263338   -3.4021892    1.5365876   575105 
 7089000    1.3410978   -3.4010931   -1.8653391   0.10899344   -3.4010931    1.5357539   575114 
 7090000    1.3402092   -3.3998855   -1.8651785   0.10479173   -3.3998855     1.534707   575125 
 7091000    1.3391656    -3.398261   -1.8648077   0.11195933    -3.398261    1.5334533   575147 
 7092000    1.3410404   -3.4000903   -1.8645596   0.10512891   -3.4000903    1.5355307   575173 
 7093000     1.342889    -3.402086   -1.8644679   0.10873122    -3.402086     1.537618   575184 
 7094000    1.3418641   -3.4007873   -1.8643829   0.11001828   -3.4007873    1.5364044   575199 
 7095000     1.342131   -3.4019982   -1.8653523   0.11359537   -3.4019982    1.5366459   575223 
 7096000    1.3407397   -3.3995808   -1.8645439   0.11486397   -3.3995808     1.535037   575229 
 7097000    1.3431769   -3.4028285   -1.8650653   0.11080011   -3.4028285    1.5377632   575253 
 7098000    1.3429483   -3.4022172   -1.8647344   0.10754597   -3.4022172    1.5374828   575260 
 7099000    1.3433686   -3.4028316   -1.8649105   0.10986265   -3.4028316    1.5379212   575276 
 7100000    1.3426567   -3.4028118   -1.8657324   0.11432662   -3.4028118    1.5370794   575286 
 7101000     1.341903   -3.4017374   -1.8655555   0.11753612   -3.4017374    1.5361819   575299 
 7102000    1.3404484   -3.4004204   -1.8659144   0.11557687   -3.4004204     1.534506   575303 
 7103000    1.3429433    -3.403025    -1.865703   0.11172843    -3.403025     1.537322   575318 
 7104000    1.3416211    -3.402576   -1.8668103   0.11374934    -3.402576    1.5357657   575334 
 7105000    1.3422928   -3.4040991   -1.8676178   0.11135483   -3.4040991    1.5364813   575354 
 7106000    1.3424944   -3.4036749   -1.8670511   0.11003564   -3.4036749    1.5366238   575387 
 7107000    1.3440179   -3.4057353   -1.8674157   0.11312142   -3.4057353    1.5383196   575405 
 7108000    1.3426691   -3.4041105   -1.8673588   0.10948565   -3.4041105    1.5367517   575414 
 7109000     1.342602   -3.4047989   -1.8681481   0.10971936   -3.4047989    1.5366508   575423 
 7110000    1.3414387   -3.4042915   -1.8689801   0.10703363   -3.4042915    1.5353115   575426 
 7111000    1.3418681   -3.4043906   -1.8686171    0.1106104   -3.4043906    1.5357735   575437 
 7112000    1.3421296   -3.4038043   -1.8677768   0.11237072   -3.4038043    1.5360275   575454 
 7113000    1.3420294    -3.403484     -1.86763   0.11398757    -3.403484     1.535854   575476 
 7114000    1.3426209    -3.402758   -1.8662377   0.12151536    -3.402758    1.5365203   575480 
 7115000    1.3427211   -3.4037763   -1.8671814   0.11189636   -3.4037763    1.5365949   575495 
 7116000    1.3438413   -3.4046251    -1.866775   0.11208005   -3.4046251    1.5378501   575505 
 7117000      1.34393   -3.4050077   -1.8670854   0.11301096   -3.4050077    1.5379223   575516 
 7118000    1.3437625   -3.4046717   -1.8669705   0.11169205   -3.4046717    1.5377012   575527 
 7119000    1.3447076   -3.4066516   -1.8679063   0.11242928   -3.4066516    1.5387453   575541 
 7120000    1.3433994   -3.4056423   -1.8684261   0.11202583   -3.4056423    1.5372162   575553 
 7121000    1.3441416   -3.4050259   -1.8669925   0.11507879   -3.4050259    1.5380334   575565 
 7122000    1.3431968   -3.4038565   -1.8669629   0.11496599   -3.4038565    1.5368936   575587 
 7123000    1.3417174   -3.4018307   -1.8667018   0.12087681   -3.4018307    1.5351289   575614 
 7124000    1.3434921   -3.4048369   -1.8677229   0.11162775   -3.4048369    1.5371139   575631 
 7125000     1.345528   -3.4060952   -1.8666974   0.10681701   -3.4060952    1.5393978   575648 
 7126000    1.3426286   -3.4040059   -1.8679333   0.11140539   -3.4040059    1.5360726   575651 
 7127000    1.3439217   -3.4041908   -1.8666762     0.112744   -3.4041908    1.5375147   575665 
 7128000    1.3408347    -3.401548   -1.8675437   0.11453177    -3.401548    1.5340043   575657 
 7129000    1.3437482   -3.4041236   -1.8668475   0.11104747   -3.4041236    1.5372761   575680 
 7130000    1.3418698   -3.4027174   -1.8676436   0.11046514   -3.4027174    1.5350739   575700 
 7131000    1.3429502   -3.4037478   -1.8674807   0.11286204   -3.4037478    1.5362671   575716 
 7132000    1.3411692   -3.4020716   -1.8679191   0.11135715   -3.4020716    1.5341525   575745 
 7133000    1.3416439   -3.4021105   -1.8675083   0.10899214   -3.4021105    1.5346022   575780 
 7134000    1.3440537    -3.405012   -1.8676614   0.10555971    -3.405012    1.5373506   575783 
 7135000    1.3412964    -3.402241   -1.8680869   0.10833958    -3.402241    1.5341541   575799 
 7136000    1.3417139   -3.4038692   -1.8692749   0.11254399   -3.4038692    1.5345943   575813 
 7137000    1.3422991   -3.4044125   -1.8691382   0.11490309   -3.4044125    1.5352743   575809 
 7138000    1.3418415   -3.4041106    -1.869453   0.11025919   -3.4041106    1.5346577   575844 
 7139000    1.3435163    -3.405223   -1.8686846   0.11086079    -3.405223    1.5365384   575857 
 7140000    1.3424847   -3.4041801   -1.8688722   0.11399507   -3.4041801    1.5353079   575876 
 7141000    1.3419697   -3.4044987    -1.869809   0.11268478   -3.4044987    1.5346897   575887 
 7142000    1.3420321   -3.4035326   -1.8688169   0.11244492   -3.4035326    1.5347157   575904 
 7143000    1.3443664   -3.4053435    -1.867953   0.10997373   -3.4053435    1.5373905   575902 
 7144000    1.3443994    -3.404848   -1.8674278   0.11283359    -3.404848    1.5374202   575905 
 7145000    1.3441912   -3.4057357   -1.8685989   0.11030559   -3.4057357    1.5371367   575922 
 7146000    1.3434992   -3.4041218    -1.867795   0.11478166   -3.4041218    1.5363268   575929 
 7147000    1.3442657   -3.4056953   -1.8685533   0.12103847   -3.4056953    1.5371419   575952 
 7148000    1.3431044   -3.4046625   -1.8689099   0.11367202   -3.4046625    1.5357526   575975 
 7149000    1.3430928   -3.4055721   -1.8698513   0.11349755   -3.4055721    1.5357207   575982 
 7150000    1.3438115   -3.4058128   -1.8693022   0.11399047   -3.4058128    1.5365105   575994 
 7151000    1.3438489   -3.4056133   -1.8690841   0.11257756   -3.4056133    1.5365292   576003 
 7152000    1.3434028   -3.4046476   -1.8686925    0.1109461   -3.4046476    1.5359551   576027 
 7153000    1.3440757   -3.4064654   -1.8697916    0.1147543   -3.4064654    1.5366738   576046 
 7154000    1.3442031   -3.4071299   -1.8703158   0.11026476   -3.4071299    1.5368141   576048 
 7155000    1.3423219   -3.4054644   -1.8708543   0.11231501   -3.4054644    1.5346101   576068 
 7156000    1.3419156   -3.4055999   -1.8715022   0.10770222   -3.4055999    1.5340977   576086 
 7157000    1.3429597   -3.4087175   -1.8734688   0.10459976   -3.4087175    1.5352487   576102 
 7158000    1.3426678   -3.4076629   -1.8727639   0.10174248   -3.4076629     1.534899   576108 
 7159000    1.3436297   -3.4077405   -1.8717979   0.10647045   -3.4077405    1.5359426   576129 
 7160000    1.3432438   -3.4073617   -1.8718949   0.11325336   -3.4073617    1.5354668   576142 
 7161000    1.3422882   -3.4055432   -1.8712086   0.11752345   -3.4055432    1.5343346   576157 
 7162000    1.3445136   -3.4066528   -1.8697905   0.10849626   -3.4066528    1.5368623   576163 
 7163000    1.3425819    -3.404729    -1.870088   0.11995807    -3.404729    1.5346409   576168 
 7164000    1.3422418   -3.4055564   -1.8713708   0.11223917   -3.4055564    1.5341856   576193 
 7165000    1.3438818   -3.4062517   -1.8702449   0.11222463   -3.4062517    1.5360068   576213 
 7166000    1.3436783   -3.4061052   -1.8703816   0.10806842   -3.4061052    1.5357236   576232 
 7167000    1.3443238   -3.4067681   -1.8703334   0.11709353   -3.4067681    1.5364347   576242 
 7168000    1.3441324   -3.4074569   -1.8713422   0.11784433   -3.4074569    1.5361147   576280 
 7169000    1.3448705    -3.407094   -1.8701758   0.11282916    -3.407094    1.5369182   576295 
 7170000    1.3437247    -3.404811   -1.8692955   0.11699691    -3.404811    1.5355154   576330 
 7171000    1.3448845   -3.4072894   -1.8704806   0.10966026   -3.4072894    1.5368089   576342 
 7172000     1.344571   -3.4071819   -1.8707873   0.11324738   -3.4071819    1.5363946   576363 
 7173000    1.3432508   -3.4056746   -1.8707938   0.11620158   -3.4056746    1.5348808   576365 
 7174000    1.3435854   -3.4076447   -1.8724215   0.11591839   -3.4076447    1.5352232   576380 
 7175000     1.344468   -3.4080435   -1.8718545   0.11405573   -3.4080435     1.536189   576396 
 7176000    1.3429798   -3.4069802   -1.8725103   0.11543506   -3.4069802    1.5344699   576403 
 7177000    1.3437111   -3.4082449   -1.8729554   0.10520377   -3.4082449    1.5352896   576409 
 7178000    1.3444763   -3.4083962   -1.8722723   0.11678615   -3.4083962    1.5361239   576424 
 7179000    1.3444753   -3.4070099   -1.8709325   0.11386364   -3.4070099    1.5360774   576441 
 7180000    1.3451604   -3.4076576   -1.8708321   0.11511133   -3.4076576    1.5368255   576454 
 7181000    1.3445168   -3.4068235   -1.8707679   0.11741226   -3.4068235    1.5360556   576467 
 7182000    1.3454958   -3.4072296   -1.8701062   0.11056188   -3.4072296    1.5371234   576486 
 7183000    1.3455604   -3.4067963   -1.8696525   0.11064483   -3.4067963    1.5371438   576506 
 7184000    1.3455962   -3.4080373   -1.8708713   0.11539891   -3.4080373    1.5371661   576513 
 7185000    1.3442944   -3.4068939   -1.8712363   0.11484341   -3.4068939    1.5356576   576521 
 7186000    1.3432011   -3.4064687      -1.8721   0.11353915   -3.4064687    1.5343687   576536 
 7187000    1.3430377   -3.4067769   -1.8726453   0.10455568   -3.4067769    1.5341316   576555 
 7188000    1.3452631   -3.4097497   -1.8731241   0.11064933   -3.4097497    1.5366256   576573 
 7189000    1.3456997   -3.4101233   -1.8730523   0.11224222   -3.4101233     1.537071   576593 
 7190000    1.3443892   -3.4084527   -1.8728946   0.10509064   -3.4084527    1.5355581   576599 
 7191000     1.343762   -3.4086257   -1.8738159   0.11088098   -3.4086257    1.5348099   576611 
 7192000    1.3430677    -3.407984   -1.8739512   0.11500451    -3.407984    1.5340328   576605 
 7193000    1.3435534   -3.4081589    -1.873574   0.11088704   -3.4081589    1.5345849   576606 
 7194000    1.3443637   -3.4085351   -1.8730194   0.10842566   -3.4085351    1.5355157   576604 
 7195000    1.3456919   -3.4092267   -1.8722367   0.11480691   -3.4092267    1.5369901   576620 
 7196000    1.3449579   -3.4090655   -1.8729776    0.1096188   -3.4090655    1.5360878   576644 
 7197000    1.3461887   -3.4111967   -1.8737272   0.10975303   -3.4111967    1.5374695   576653 
 7198000    1.3436633   -3.4089898   -1.8744444   0.11398154   -3.4089898    1.5345454   576668 
 7199000    1.3442106   -3.4110993   -1.8759582   0.10918664   -3.4110993    1.5351412   576679 
 7200000    1.3445399   -3.4103228   -1.8748429   0.10850582   -3.4103228      1.53548   576693 
 7201000    1.3424361    -3.407739   -1.8747121   0.11263962    -3.407739    1.5330269   576712 
 7202000    1.3440148   -3.4094458   -1.8746241   0.11413869   -3.4094458    1.5348218   576715 
 7203000    1.3441074   -3.4101173   -1.8751979   0.10832209   -3.4101173    1.5349194   576718 
 7204000    1.3433723   -3.4091071   -1.8750589   0.11036826   -3.4091071    1.5340482   576730 
 7205000    1.3435426   -3.4094633   -1.8752713   0.11206075   -3.4094633     1.534192   576749 
 7206000    1.3444833   -3.4102859   -1.8750596   0.10725296   -3.4102859    1.5352263   576764 
 7207000    1.3429309    -3.408448   -1.8750049   0.11223642    -3.408448    1.5334431   576768 
 7208000    1.3454568   -3.4111582   -1.8748709   0.10930137   -3.4111582    1.5362873   576783 
 7209000    1.3450402    -3.410457   -1.8746853   0.10964633    -3.410457    1.5357717   576798 
 7210000    1.3455128   -3.4103071   -1.8740331   0.11727199   -3.4103071     1.536274   576812 
 7211000    1.3461749   -3.4104881   -1.8734954   0.11537413   -3.4104881    1.5369927   576826 
 7212000    1.3480006   -3.4128846   -1.8738182   0.11214844   -3.4128846    1.5390664   576830 
 7213000    1.3460632   -3.4103213   -1.8735388   0.11582959   -3.4103213    1.5367825   576857 
 7214000    1.3446548   -3.4099492   -1.8748012    0.1171715   -3.4099492     1.535148   576867 
 7215000    1.3461521   -3.4100833   -1.8732818   0.11254652   -3.4100833    1.5368015   576888 
 7216000    1.3447511   -3.4096316   -1.8744561   0.11634451   -3.4096316    1.5351754   576898 
 7217000    1.3463859   -3.4109385   -1.8739474   0.11082778   -3.4109385    1.5369911   576917 
 7218000    1.3454515   -3.4096569    -1.873751   0.11736344   -3.4096569    1.5359058   576924 
 7219000    1.3443034   -3.4085495   -1.8739757    0.1103661   -3.4085495    1.5345738   576932 
 7220000    1.3437225   -3.4084446   -1.8745658   0.11031593   -3.4084446    1.5338788   576944 
 7221000    1.3450068   -3.4099391   -1.8746474   0.11566327   -3.4099391    1.5352917   576964 
 7222000    1.3433135   -3.4089348   -1.8756345   0.11115625   -3.4089348    1.5333003   576986 
 7223000    1.3444086   -3.4099933   -1.8754776    0.1148563   -3.4099933    1.5345157   576999 
 7224000     1.345698   -3.4113851   -1.8754455   0.11243023   -3.4113851    1.5359396   577017 
 7225000    1.3445645   -3.4109424   -1.8763445    0.1107131   -3.4109424    1.5345979   577035 
 7226000    1.3448409   -3.4103479   -1.8755089   0.11525112   -3.4103479     1.534839   577063 
 7227000    1.3457751   -3.4117871   -1.8759032   0.11047991   -3.4117871    1.5358838   577071 
 7228000     1.345312   -3.4116527   -1.8763666   0.11050486   -3.4116527    1.5352861   577097 
 7229000    1.3462029   -3.4132085   -1.8769269   0.11073952   -3.4132085    1.5362816   577105 
 7230000    1.3463604   -3.4143332   -1.8779224   0.11072486   -3.4143332    1.5364107   577124 
 7231000    1.3439224   -3.4124597   -1.8788312   0.11288843   -3.4124597    1.5336285   577124 
 7232000    1.3451252   -3.4124675   -1.8774982   0.11237287   -3.4124675    1.5349693   577136 
 7233000    1.3451668   -3.4124661   -1.8774814   0.11821776   -3.4124661    1.5349847   577148 
 7234000    1.3455556   -3.4132067   -1.8778128   0.11098874   -3.4132067    1.5353939   577161 
 7235000    1.3456271   -3.4120904   -1.8766709   0.11011355   -3.4120904    1.5354196   577182 
 7236000    1.3459617   -3.4137831   -1.8779977   0.11223858   -3.4137831    1.5357855   577188 
 7237000     1.344756   -3.4134059   -1.8790122   0.11094642   -3.4134059    1.5343937   577194 
 7238000    1.3445444   -3.4135972   -1.8794875   0.11029517   -3.4135972    1.5341097   577210 
 7239000    1.3446511   -3.4131215   -1.8789219   0.11088973   -3.4131215    1.5341996   577222 
 7240000    1.3436148   -3.4125062   -1.8795341   0.11011219   -3.4125062    1.5329721   577239 
 7241000    1.3448214   -3.4135195      -1.8792   0.10867543   -3.4135195    1.5343195   577250 
 7242000     1.345637   -3.4135559   -1.8783563   0.11217333   -3.4135559    1.5351995   577269 
 7243000    1.3454708   -3.4136953   -1.8787014   0.10975373   -3.4136953    1.5349939   577275 
 7244000    1.3447136   -3.4130179   -1.8789383   0.11461297   -3.4130179    1.5340796   577294 
 7245000    1.3432625   -3.4103045   -1.8779122   0.11593962   -3.4103045    1.5323923   577306 
 7246000    1.3436272   -3.4120039   -1.8792327   0.10864239   -3.4120039    1.5327712   577320 
 7247000    1.3444014   -3.4131648   -1.8795557   0.10750914   -3.4131648    1.5336091   577337 
 7248000    1.3429868   -3.4118956   -1.8799611   0.10989285   -3.4118956    1.5319345   577360 
 7249000    1.3443653   -3.4131383   -1.8796632    0.1148096   -3.4131383    1.5334751   577372 
 7250000    1.3446176   -3.4133146   -1.8795677   0.11105896   -3.4133146    1.5337469   577378 
 7251000    1.3453039   -3.4132452   -1.8787607   0.11461136   -3.4132452    1.5344845   577395 
 7252000    1.3440443   -3.4121455   -1.8791136   0.11171765   -3.4121455    1.5330318   577401 
 7253000    1.3450705   -3.4125138   -1.8783354   0.11135433   -3.4125138    1.5341785   577410 
 7254000    1.3457907   -3.4136163   -1.8786881   0.11070451   -3.4136163    1.5349282   577437 
 7255000    1.3467425    -3.414984    -1.878989   0.10593381    -3.414984    1.5359951   577444 
 7256000    1.3446587   -3.4121374   -1.8785243    0.1163275   -3.4121374    1.5336131   577446 
 7257000    1.3455655    -3.412702   -1.8780652   0.11039305    -3.412702    1.5346367   577450 
 7258000    1.3452267   -3.4123226    -1.878128   0.11699243   -3.4123226    1.5341946   577471 
 7259000    1.3449997   -3.4129656    -1.879083   0.10949218   -3.4129656    1.5338825   577491 
 7260000    1.3452046   -3.4137747   -1.8797091   0.10620549   -3.4137747    1.5340657   577510 
 7261000    1.3451496   -3.4145915   -1.8806602   0.10867083   -3.4145915    1.5339313   577537 
 7262000    1.3458797    -3.415244   -1.8805306   0.10726357    -3.415244    1.5347134   577556 
 7263000    1.3446204   -3.4126407   -1.8794111   0.11369899   -3.4126407    1.5332296   577574 
 7264000     1.345375   -3.4131348   -1.8790688   0.10681376   -3.4131348    1.5340661   577583 
 7265000    1.3464552   -3.4143745   -1.8790979   0.10508369   -3.4143745    1.5352766   577591 
 7266000    1.3459203   -3.4145978   -1.8799205   0.10640635   -3.4145978    1.5346773   577587 
 7267000    1.3468857   -3.4157559   -1.8800417    0.1047824   -3.4157559    1.5357143   577611 
 7268000    1.3466188   -3.4151108   -1.8797168   0.11137831   -3.4151108    1.5353939   577617 
 7269000    1.3449901   -3.4142313   -1.8806891   0.11611991   -3.4142313    1.5335423   577615 
 7270000    1.3453002   -3.4145986   -1.8807213    0.1160833   -3.4145986    1.5338773   577622 
 7271000    1.3451152   -3.4138456    -1.880259   0.11242751   -3.4138456    1.5335867   577652 
 7272000    1.3467871   -3.4158922   -1.8804233   0.11467322   -3.4158922    1.5354689   577661 
 7273000     1.347563   -3.4167475   -1.8804579   0.10854553   -3.4167475    1.5362897   577685 
 7274000    1.3465985   -3.4152597   -1.8800855   0.11481586   -3.4152597    1.5351742   577691 
 7275000    1.3469605   -3.4146683   -1.8791585   0.11754335   -3.4146683    1.5355098   577720 
 7276000    1.3471979   -3.4148812    -1.879162   0.11141778   -3.4148812    1.5357192   577743 
 7277000     1.347204   -3.4142851   -1.8786041    0.1127811   -3.4142851     1.535681   577760 
 7278000    1.3468139   -3.4144681   -1.8792716   0.11476809   -3.4144681    1.5351965   577775 
 7279000     1.347299    -3.415881   -1.8801741   0.11150917    -3.415881    1.5357069   577791 
 7280000    1.3483339   -3.4164349   -1.8795776   0.10663693   -3.4164349    1.5368573   577802 
 7281000    1.3468559    -3.414738   -1.8795893   0.11347852    -3.414738    1.5351487   577811 
 7282000     1.345539   -3.4140639   -1.8804348   0.11324747   -3.4140639    1.5336291   577818 
 7283000    1.3463611   -3.4147173    -1.880183   0.10838805   -3.4147173    1.5345343   577830 
 7284000    1.3460489   -3.4146075   -1.8804397   0.10861387   -3.4146075    1.5341678   577834 
 7285000    1.3460608   -3.4151483   -1.8810306   0.10632453   -3.4151483    1.5341177   577858 
 7286000     1.344989   -3.4137301   -1.8808578   0.10438483   -3.4137301    1.5328723   577867 
 7287000    1.3466057    -3.414646    -1.879955   0.11535484    -3.414646    1.5346909   577876 
 7288000    1.3463306   -3.4143311   -1.8800015   0.10779501   -3.4143311    1.5343296   577894 
 7289000     1.347678   -3.4165998   -1.8807718   0.11105824   -3.4165998     1.535828   577908 
 7290000     1.347396   -3.4158162    -1.880307   0.11551808   -3.4158162    1.5355092   577907 
 7291000    1.3469242   -3.4151627   -1.8802257   0.11919769   -3.4151627     1.534937   577920 
 7292000    1.3477393   -3.4162676   -1.8804257   0.10425345   -3.4162676     1.535842   577929 
 7293000    1.3457313   -3.4153374   -1.8818208    0.1076833   -3.4153374    1.5335166   577943 
 7294000    1.3463007   -3.4156229   -1.8814548   0.11149245   -3.4156229    1.5341681   577942 
 7295000    1.3465197   -3.4161892    -1.881806   0.11260977   -3.4161892    1.5343831   577955 
 7296000    1.3473959   -3.4167493    -1.881381   0.11140493   -3.4167493    1.5353683   577960 
 7297000    1.3453361   -3.4153166   -1.8823565   0.10916716   -3.4153166    1.5329602   577983 
 7298000    1.3458085   -3.4160345   -1.8825732   0.10709795   -3.4160345    1.5334613   577997 
 7299000    1.3467225   -3.4164979   -1.8820137   0.10930584   -3.4164979    1.5344842   578004 
 7300000    1.3454634   -3.4150724   -1.8820812   0.11002638   -3.4150724    1.5329912   578026 
 7301000    1.3461582   -3.4158712   -1.8820964   0.11453268   -3.4158712    1.5337748   578029 
 7302000    1.3451557   -3.4150481   -1.8824341   0.11359461   -3.4150481     1.532614   578036 
 7303000    1.3457221   -3.4150096    -1.881782   0.11021243   -3.4150096    1.5332275   578048 
 7304000    1.3469256   -3.4156076    -1.881054   0.11595349   -3.4156076    1.5345536   578065 
 7305000    1.3467556   -3.4164636   -1.8821647   0.10954893   -3.4164636    1.5342989   578088 
 7306000    1.3465872   -3.4162693   -1.8821756   0.10902032   -3.4162693    1.5340937   578093 
 7307000    1.3467694   -3.4169952   -1.8827285   0.10881652   -3.4169952    1.5342668   578106 
 7308000    1.3480859   -3.4180252   -1.8822958   0.11473369   -3.4180252    1.5357295   578120 
 7309000    1.3456673   -3.4169173   -1.8839961   0.11814154   -3.4169173    1.5329212   578140 
 7310000    1.3486516   -3.4199248   -1.8836174   0.10592625   -3.4199248    1.5363074   578145 
 7311000    1.3468113   -3.4184276   -1.8842458    0.1131712   -3.4184276    1.5341818   578156 
 7312000    1.3463481   -3.4176576   -1.8840007   0.11897443   -3.4176576    1.5336568   578155 
 7313000    1.3457822   -3.4179452   -1.8849648   0.11053886   -3.4179452    1.5329804   578167 
 7314000    1.3456529   -3.4174162   -1.8846467   0.10916445   -3.4174162    1.5327695   578191 
 7315000    1.3453705   -3.4175918   -1.8851863   0.10755151   -3.4175918    1.5324055   578207 
 7316000     1.346537   -3.4183641   -1.8846698    0.1161571   -3.4183641    1.5336943   578222 
 7317000    1.3465983   -3.4199917   -1.8862912    0.1080845   -3.4199917    1.5337005   578246 
 7318000    1.3452399   -3.4188601     -1.88672    0.1118444   -3.4188601    1.5321401   578251 
 7319000    1.3457695   -3.4193383   -1.8866003   0.10752893   -3.4193383     1.532738   578253 
 7320000    1.3452816   -3.4183364   -1.8861594   0.11019559   -3.4183364     1.532177   578255 
 7321000    1.3466011   -3.4184156   -1.8847729   0.11659749   -3.4184156    1.5336427   578269 
 7322000    1.3470313   -3.4193746   -1.8853056   0.10754927   -3.4193746     1.534069   578293 
 7323000    1.3467532   -3.4187812   -1.8850688   0.11257098   -3.4187812    1.5337125   578308 
 7324000    1.3452315   -3.4187622   -1.8868065   0.10667783   -3.4187622    1.5319556   578317 
 7325000    1.3460157   -3.4182132   -1.8854043   0.11277676   -3.4182132    1.5328089   578332 
 7326000    1.3467683    -3.418509   -1.8848961   0.11662428    -3.418509    1.5336129   578352 
 7327000     1.348569   -3.4201846   -1.8845981    0.1145088   -3.4201846    1.5355865   578381 
 7328000    1.3474449   -3.4191577   -1.8848989   0.11172643   -3.4191577    1.5342587   578399 
 7329000    1.3470211   -3.4180947   -1.8843583   0.11035951   -3.4180947    1.5337364   578414 
 7330000    1.3471233   -3.4185779   -1.8847702   0.11720403   -3.4185779    1.5338077   578431 
 7331000    1.3461413   -3.4165891   -1.8839233    0.1117008   -3.4165891    1.5326658   578440 
 7332000    1.3462136    -3.416698   -1.8840082   0.11312722    -3.416698    1.5326898   578462 
 7333000    1.3475078   -3.4189608   -1.8848055   0.11019206   -3.4189608    1.5341553   578465 
 7334000    1.3459998   -3.4176699   -1.8852897    0.1130618   -3.4176699    1.5323802   578487 
 7335000    1.3457727   -3.4162452   -1.8841792   0.11381482   -3.4162452     1.532066   578508 
 7336000    1.3463763    -3.417702   -1.8849913   0.11232324    -3.417702    1.5327107   578524 
 7337000    1.3462572   -3.4179518   -1.8854084    0.1069782   -3.4179518    1.5325434   578536 
 7338000    1.3451799    -3.416827    -1.885555   0.10773813    -3.416827    1.5312721   578553 
 7339000    1.3467574   -3.4183901   -1.8853488   0.11448571   -3.4183901    1.5330413   578563 
 7340000    1.3473076   -3.4181156   -1.8844693    0.1093265   -3.4181156    1.5336463   578571 
 7341000    1.3458821   -3.4175939   -1.8856046   0.11236626   -3.4175939    1.5319893   578584 
 7342000    1.3466693   -3.4181094   -1.8852478   0.11790687   -3.4181094    1.5328616   578593 
 7343000     1.347364    -3.419759    -1.886128   0.11197094    -3.419759     1.533631   578601 
 7344000    1.3480962   -3.4207014   -1.8862581   0.10490352   -3.4207014    1.5344432   578609 
 7345000    1.3472973    -3.420498   -1.8869588   0.11567408    -3.420498    1.5335392   578607 
 7346000    1.3483992   -3.4223708   -1.8876277   0.11122063   -3.4223708    1.5347431   578626 
 7347000    1.3473598   -3.4215181   -1.8879421   0.11176936   -3.4215181     1.533576   578620 
 7348000    1.3456591    -3.419628    -1.888017   0.11400287    -3.419628     1.531611   578631 
 7349000    1.3442992   -3.4191597   -1.8890938   0.11281231   -3.4191597    1.5300659   578630 
 7350000    1.3462833   -3.4217937   -1.8894881   0.10992365   -3.4217937    1.5323056   578637 
 7351000     1.346685   -3.4211697   -1.8884492   0.10650567   -3.4211697    1.5327204   578653 
 7352000     1.346465   -3.4213791   -1.8889171   0.10948169   -3.4213791    1.5324621   578656 
 7353000    1.3467323   -3.4201676   -1.8874331   0.11274345   -3.4201676    1.5327345   578668 
 7354000    1.3469112   -3.4203179   -1.8873958    0.1132831   -3.4203179    1.5329222   578674 
 7355000    1.3470954   -3.4209352   -1.8878404   0.11221885   -3.4209352    1.5330948   578688 
 7356000    1.3472814    -3.420933    -1.887661   0.10984945    -3.420933     1.533272   578701 
 7357000    1.3454666   -3.4192162   -1.8880729   0.11317618   -3.4192162    1.5311432   578725 
 7358000    1.3469775   -3.4207187   -1.8878773   0.11021855   -3.4207187    1.5328414   578733 
 7359000    1.3468655   -3.4195834   -1.8869012   0.11533613   -3.4195834    1.5326822   578745 
 7360000    1.3465195   -3.4192277   -1.8869525   0.11549415   -3.4192277    1.5322752   578750 
 7361000    1.3476462   -3.4195398   -1.8860222   0.10731423   -3.4195398    1.5335177   578765 
 7362000    1.3488401   -3.4200908   -1.8852677   0.11371914   -3.4200908    1.5348231   578785 
 7363000    1.3473546   -3.4188957   -1.8858317   0.11278433   -3.4188957     1.533064   578811 
 7364000    1.3485366   -3.4205085   -1.8861633   0.11243143   -3.4205085    1.5343453   578835 
 7365000    1.3464134   -3.4185715   -1.8866923   0.11327423   -3.4185715    1.5318792   578854 
 7366000    1.3443659   -3.4169997   -1.8874739    0.1141746   -3.4169997    1.5295258   578863 
 7367000    1.3458344   -3.4191813   -1.8880112   0.11066325   -3.4191813    1.5311702   578873 
 7368000     1.345513   -3.4176421   -1.8868799   0.11434992   -3.4176421    1.5307622   578889 
 7369000    1.3472467    -3.420096   -1.8873508   0.11080016    -3.420096    1.5327452   578885 
 7370000    1.3473088   -3.4192674   -1.8864701   0.11064906   -3.4192674    1.5327973   578892 
 7371000    1.3462988   -3.4185426    -1.886905   0.11418806   -3.4185426    1.5316376   578896 
 7372000    1.3470859   -3.4190423   -1.8865488   0.11418161   -3.4190423    1.5324934   578911 
 7373000    1.3485833   -3.4204158   -1.8862136    0.1070252   -3.4204158    1.5342022   578909 
 7374000     1.349796   -3.4206007   -1.8850321   0.11325043   -3.4206007    1.5355686   578914 
 7375000    1.3504398   -3.4208055   -1.8845576   0.11356802   -3.4208055    1.5362479   578934 
 7376000    1.3486329   -3.4191141   -1.8849403   0.11579745   -3.4191141    1.5341739   578941 
 7377000    1.3497558   -3.4206394   -1.8851883   0.11796474   -3.4206394    1.5354512   578941 
 7378000    1.3485387   -3.4199636   -1.8859445   0.11346692   -3.4199636     1.534019   578959 
 7379000    1.3503661   -3.4220204   -1.8859412   0.11532586   -3.4220204    1.5360792   578966 
 7380000    1.3482068   -3.4215584   -1.8879938   0.11243395   -3.4215584    1.5335646   578988 
 7381000    1.3495828   -3.4222744   -1.8871845   0.10980503   -3.4222744      1.53509   579003 
 7382000    1.3491399   -3.4218802   -1.8872967   0.11541314   -3.4218802    1.5345836   579004 
 7383000    1.3464326   -3.4194109   -1.8879357   0.11380592   -3.4194109    1.5314751   579015 
 7384000     1.348047   -3.4211527   -1.8878679   0.10896047   -3.4211527    1.5332848   579025 
 7385000    1.3482832   -3.4221899    -1.888639   0.11253114   -3.4221899    1.5335509   579026 
 7386000    1.3473009   -3.4201487   -1.8877628   0.11178898   -3.4201487    1.5323859   579044 
 7387000    1.3488192   -3.4227383   -1.8886864   0.11426809   -3.4227383    1.5340519   579067 
 7388000    1.3479267   -3.4214852   -1.8884457   0.11039458   -3.4214852    1.5330395   579066 
 7389000    1.3492092   -3.4220059   -1.8874814   0.11161846   -3.4220059    1.5345246   579056 
 7390000    1.3492844    -3.422449   -1.8878918   0.10542866    -3.422449    1.5345572   579076 
 7391000    1.3488754   -3.4215857   -1.8874937    0.1052167   -3.4215857     1.534092   579076 
 7392000    1.3484942   -3.4213417   -1.8877495   0.11481794   -3.4213417    1.5335922   579101 
 7393000    1.3475748    -3.419809   -1.8872941   0.11132735    -3.419809    1.5325149   579113 
 7394000    1.3480261   -3.4208703   -1.8878555   0.11533948   -3.4208703    1.5330148   579118 
 7395000    1.3474698    -3.421253   -1.8888839   0.10828145    -3.421253    1.5323691   579123 
 7396000    1.3475907   -3.4212753   -1.8887979   0.11425526   -3.4212753    1.5324774   579134 
 7397000    1.3478615   -3.4213126   -1.8885775   0.11394551   -3.4213126    1.5327351   579153 
 7398000    1.3474045   -3.4196336   -1.8874367   0.11417568   -3.4196336    1.5321968   579160 
 7399000    1.3482733   -3.4203341    -1.887181   0.11004562   -3.4203341    1.5331531   579172 
 7400000    1.3478045   -3.4208831   -1.8882816   0.11165301   -3.4208831    1.5326015   579179 
 7401000    1.3468994   -3.4205771   -1.8890498   0.11061055   -3.4205771    1.5315273   579196 
 7402000    1.3485969   -3.4213612   -1.8879303   0.10897671   -3.4213612     1.533431   579206 
 7403000     1.349837   -3.4217995   -1.8869982   0.11339272   -3.4217995    1.5348013   579221 
 7404000    1.3480346    -3.419786   -1.8870817   0.11557688    -3.419786    1.5327043   579239 
 7405000    1.3494467   -3.4216845   -1.8873772   0.11343672   -3.4216845    1.5343072   579240 
 7406000    1.3483986   -3.4206025   -1.8875399   0.11065632   -3.4206025    1.5330626   579260 
 7407000    1.3477601    -3.420689   -1.8883735   0.11038851    -3.420689    1.5323155   579268 
 7408000    1.3493368   -3.4230855   -1.8890065   0.11437437   -3.4230855     1.534079   579279 
 7409000    1.3483491   -3.4213535    -1.888416   0.11167697   -3.4213535    1.5329375   579286 
 7410000    1.3477548   -3.4211425   -1.8888781   0.10983949   -3.4211425    1.5322645   579285 
 7411000    1.3489674   -3.4226029   -1.8890075   0.11278586   -3.4226029    1.5335955   579303 
 7412000    1.3490772   -3.4217007   -1.8879858   0.11710758   -3.4217007    1.5337149   579305 
 7413000    1.3481212    -3.421487   -1.8888642    0.1115811    -3.421487    1.5326228   579307 
 7414000    1.3494194   -3.4228209   -1.8887222   0.11565692   -3.4228209    1.5340987   579307 
 7415000    1.3469914   -3.4210217   -1.8897388    0.1143354   -3.4210217    1.5312829   579328 
 7416000      1.34788   -3.4219792   -1.8896915   0.11201335   -3.4219792    1.5322878   579330 
 7417000    1.3485152   -3.4220937   -1.8891262   0.10628894   -3.4220937    1.5329675   579346 
 7418000    1.3484079   -3.4223637   -1.8895419   0.11308933   -3.4223637    1.5328218   579355 
 7419000    1.3476612   -3.4219469   -1.8900109     0.112235   -3.4219469     1.531936   579369 
 7420000    1.3462929   -3.4204696   -1.8901103    0.1143239   -3.4204696    1.5303594   579377 
 7421000    1.3479765   -3.4227701   -1.8905127   0.11214705   -3.4227701    1.5322573   579383 
 7422000    1.3493639   -3.4250187   -1.8912161   0.10998504   -3.4250187    1.5338026   579395 
 7423000     1.348367   -3.4230035   -1.8903791   0.11365077   -3.4230035    1.5326244   579412 
 7424000    1.3490039   -3.4243768   -1.8910523   0.11133064   -3.4243768    1.5333246   579421 
 7425000    1.3485794   -3.4242063   -1.8913563   0.11156863   -3.4242063      1.53285   579418 
 7426000    1.3477508    -3.422419   -1.8905636   0.10921881    -3.422419    1.5318554   579438 
 7427000    1.3493451   -3.4241771   -1.8905758   0.11194338   -3.4241771    1.5336013   579463 
 7428000    1.3489219   -3.4232235   -1.8901059   0.10840858   -3.4232235    1.5331177   579464 
 7429000    1.3475659   -3.4217659      -1.8902    0.1089711   -3.4217659    1.5315658   579468 
 7430000    1.3494799    -3.424113   -1.8904247   0.10495812    -3.424113    1.5336883   579488 
 7431000    1.3482143   -3.4227945    -1.890571   0.11167185   -3.4227945    1.5322235   579498 
 7432000    1.3492827   -3.4242786   -1.8908912   0.10966908   -3.4242786    1.5333875   579517 
 7433000    1.3500362   -3.4243817   -1.8901803   0.11277789   -3.4243817    1.5342013   579533 
 7434000    1.3507761   -3.4248536   -1.8898326   0.11657036   -3.4248536    1.5350211   579541 
 7435000    1.3505823   -3.4254389   -1.8906619   0.10735972   -3.4254389     1.534777   579550 
 7436000    1.3513403   -3.4255603    -1.889959   0.11423161   -3.4255603    1.5356013   579564 
 7437000     1.349307    -3.422718   -1.8894696    0.1113329    -3.422718    1.5332484   579580 
 7438000    1.3495013   -3.4229809   -1.8895778   0.11341145   -3.4229809    1.5334031   579605 
 7439000    1.3509129   -3.4242912   -1.8893001   0.11484508   -3.4242912    1.5349911   579611 
 7440000    1.3507799   -3.4246395   -1.8898445   0.11630592   -3.4246395     1.534795   579628 
 7441000    1.3500435   -3.4238086   -1.8898344   0.11282478   -3.4238086    1.5339742   579622 
 7442000    1.3495624   -3.4229032   -1.8894519   0.11343272   -3.4229032    1.5334513   579613 
 7443000    1.3504542   -3.4241972   -1.8897697   0.11033794   -3.4241972    1.5344275   579627 
 7444000    1.3510302   -3.4247278   -1.8896802   0.11071127   -3.4247278    1.5350476   579640 
 7445000     1.348912   -3.4221504   -1.8894884   0.10711439   -3.4221504     1.532662   579632 
 7446000    1.3488204   -3.4232287   -1.8906866   0.10993595   -3.4232287    1.5325421   579638 
 7447000    1.3488839   -3.4231704   -1.8905747   0.10851797   -3.4231704    1.5325958   579645 
 7448000    1.3483439   -3.4218222    -1.889922   0.11458504   -3.4218222    1.5319002   579676 
 7449000    1.3491563   -3.4233993   -1.8905734   0.11351286   -3.4233993    1.5328259   579675 
 7450000    1.3490793   -3.4227354   -1.8900049   0.11338825   -3.4227354    1.5327304   579678 
 7451000    1.3490648    -3.423083   -1.8903981   0.11384196    -3.423083    1.5326849   579689 
 7452000    1.3498475   -3.4227465   -1.8891803   0.11448519   -3.4227465    1.5335662   579692 
 7453000     1.349769   -3.4237311   -1.8902726   0.10924294   -3.4237311    1.5334585   579699 
 7454000    1.3483399   -3.4229329   -1.8911403   0.11295333   -3.4229329    1.5317927   579715 
 7455000    1.3490475   -3.4236486   -1.8910626   0.10837466   -3.4236486    1.5325859   579719 
 7456000    1.3473953   -3.4216088   -1.8909236   0.11288282   -3.4216088    1.5306852   579728 
 7457000    1.3476628   -3.4213923   -1.8904217   0.11541405   -3.4213923    1.5309706   579735 
 7458000    1.3491208   -3.4237833   -1.8911616   0.11252511   -3.4237833    1.5326217   579737 
 7459000    1.3494199   -3.4236451   -1.8907286   0.11693255   -3.4236451    1.5329165   579754 
 7460000    1.3498797   -3.4244879   -1.8910755   0.11351196   -3.4244879    1.5334124   579764 
 7461000    1.3482867    -3.424135   -1.8926221   0.11201228    -3.424135    1.5315129   579798 
 7462000    1.3489311    -3.424003   -1.8917818   0.10558388    -3.424003    1.5322212   579807 
 7463000     1.349114   -3.4240314   -1.8916448   0.10571159   -3.4240314    1.5323866   579823 
 7464000     1.349392    -3.423405   -1.8907212   0.11494001    -3.423405    1.5326838   579830 
 7465000     1.350244   -3.4238161   -1.8901777   0.11109977   -3.4238161    1.5336384   579835 
 7466000    1.3508901   -3.4251356   -1.8908005   0.11163315   -3.4251356    1.5343351   579849 
 7467000    1.3504988   -3.4240816   -1.8902437    0.1182874   -3.4240816    1.5338379   579869 
 7468000    1.3511186   -3.4251861   -1.8906444   0.11252039   -3.4251861    1.5345417   579869 
 7469000     1.350258   -3.4250165   -1.8914601   0.11154642   -3.4250165    1.5335564   579872 
 7470000    1.3518876   -3.4263658   -1.8909348   0.10863533   -3.4263658     1.535431   579863 
 7471000    1.3490926   -3.4237643   -1.8915658   0.11354787   -3.4237643    1.5321985   579885 
 7472000    1.3502064   -3.4245722   -1.8911458   0.11436561   -3.4245722    1.5334264   579899 
 7473000    1.3493269   -3.4249703    -1.892585   0.11530454   -3.4249703    1.5323853   579915 
 7474000    1.3484881   -3.4243034   -1.8928602   0.11059904   -3.4243034    1.5314433   579911 
 7475000    1.3492562   -3.4249219   -1.8926433   0.11148212   -3.4249219    1.5322785   579925 
 7476000    1.3492309   -3.4255835   -1.8933653   0.11330045   -3.4255835    1.5322182   579937 
 7477000    1.3493318   -3.4251695   -1.8928606    0.1102199   -3.4251695    1.5323089   579946 
 7478000    1.3497147   -3.4251535   -1.8924415   0.11121322   -3.4251535    1.5327121   579958 
 7479000    1.3502297   -3.4257052   -1.8924189   0.11177481   -3.4257052    1.5332863   579962 
 7480000    1.3493816   -3.4262714   -1.8939747   0.11260244   -3.4262714    1.5322967   579972 
 7481000    1.3498771   -3.4262247   -1.8934075    0.1145257   -3.4262247    1.5328172   579988 
 7482000    1.3499052   -3.4257787    -1.892956   0.11534217   -3.4257787    1.5328227   579998 
 7483000     1.350842   -3.4277192    -1.893899   0.11192344   -3.4277192    1.5338202   580023 
 7484000    1.3496035   -3.4258455     -1.89345   0.11335847   -3.4258455    1.5323955   580030 
 7485000    1.3498323   -3.4255701   -1.8929492    0.1169332   -3.4255701     1.532621   580043 
 7486000     1.350606   -3.4259533   -1.8925146    0.1173215   -3.4259533    1.5334386   580066 
 7487000    1.3524334    -3.428989   -1.8934995   0.11239787    -3.428989    1.5354896   580075 
 7488000    1.3508026   -3.4277504   -1.8941335   0.11317308   -3.4277504    1.5336169   580083 
 7489000    1.3502521   -3.4269637   -1.8940167   0.11287041   -3.4269637     1.532947   580100 
 7490000    1.3510316   -3.4277064   -1.8939432   0.11480088   -3.4277064    1.5337632   580126 
 7491000    1.3496268   -3.4267273   -1.8945932   0.11420473   -3.4267273    1.5321341   580139 
 7492000    1.3511097   -3.4275128   -1.8937403   0.12009965   -3.4275128    1.5337725   580156 
 7493000    1.3485496   -3.4261484   -1.8953163   0.11773703   -3.4261484    1.5308321   580169 
 7494000    1.3492547    -3.426984   -1.8953832   0.11652909    -3.426984    1.5316008   580181 
 7495000     1.349565   -3.4272706   -1.8953361   0.10730712   -3.4272706    1.5319345   580188 
 7496000    1.3480627   -3.4255128   -1.8953495   0.11381567   -3.4255128    1.5301632   580213 
 7497000    1.3503974   -3.4286676   -1.8959071   0.10789229   -3.4286676    1.5327605   580233 
 7498000    1.3495938   -3.4276784   -1.8958829   0.11056793   -3.4276784    1.5317956   580253 
 7499000    1.3493187   -3.4271412    -1.895679   0.11483238   -3.4271412    1.5314622   580261 
 7500000    1.3483112   -3.4267724   -1.8964933   0.11783825   -3.4267724    1.5302792   580276 
 7501000    1.3521402   -3.4308072   -1.8962008   0.10415413   -3.4308072    1.5346064   580283 
 7502000      1.35181   -3.4297177   -1.8955151   0.10803606   -3.4297177    1.5342026   580294 
 7503000    1.3517548   -3.4294501   -1.8953525    0.1175235   -3.4294501    1.5340976   580310 
 7504000     1.351116   -3.4277971   -1.8944483   0.11077187   -3.4277971    1.5333489   580319 
 7505000    1.3488777   -3.4257925   -1.8950023   0.11685446   -3.4257925    1.5307902   580326 
 7506000    1.3498827   -3.4276268   -1.8957198   0.11661869   -3.4276268     1.531907   580335 
 7507000    1.3511885   -3.4288034   -1.8954382   0.11651103   -3.4288034    1.5333651   580344 
 7508000    1.3503093   -3.4292647   -1.8969212   0.10892885   -3.4292647    1.5323436   580353 
 7509000     1.349563   -3.4287751    -1.897318   0.11044751   -3.4287751    1.5314572   580368 
 7510000    1.3492106   -3.4282707   -1.8972531   0.11220558   -3.4282707    1.5310176   580383 
 7511000    1.3498857    -3.429061   -1.8973142   0.10795242    -3.429061    1.5317468   580397 
 7512000    1.3500445   -3.4285361   -1.8966487   0.11128034   -3.4285361    1.5318874   580412 
 7513000    1.3463523   -3.4261535   -1.8984714    0.1176005   -3.4261535    1.5276821   580418 
 7514000    1.3487929   -3.4278384   -1.8974187   0.11414599   -3.4278384    1.5304197   580430 
 7515000    1.3509876   -3.4300143   -1.8971518   0.10914984   -3.4300143    1.5328624   580448 
 7516000    1.3503364   -3.4282812   -1.8961946   0.11312049   -3.4282812    1.5320866   580462 
 7517000    1.3515222    -3.431089   -1.8976728   0.10636341    -3.431089    1.5334162   580468 
 7518000    1.3487733   -3.4282543   -1.8979781   0.10971337   -3.4282543    1.5302762   580476 
 7519000    1.3486191   -3.4288509   -1.8987865   0.11223433   -3.4288509    1.5300643   580490 
 7520000     1.348986   -3.4279265   -1.8974775   0.11466691   -3.4279265     1.530449   580502 
 7521000    1.3480884   -3.4278382    -1.898447   0.11672456   -3.4278382    1.5293912   580517 
 7522000       1.3492   -3.4297464   -1.8991179   0.11152552   -3.4297464    1.5306285   580526 
 7523000    1.3491669   -3.4286873   -1.8981069    0.1161841   -3.4286873    1.5305804   580530 
 7524000    1.3498998   -3.4279607   -1.8965779   0.11782761   -3.4279607    1.5313828   580541 
 7525000    1.3503029   -3.4283883    -1.896564    0.1099706   -3.4283883    1.5318243   580547 
 7526000    1.3491473   -3.4272011   -1.8967115   0.11535839   -3.4272011    1.5304896   580556 
 7527000    1.3510992   -3.4294276   -1.8967765   0.11748667   -3.4294276    1.5326511   580576 
 7528000    1.3517294   -3.4293097   -1.8959674   0.11474514   -3.4293097    1.5333422   580585 
 7529000    1.3506968   -3.4291363   -1.8970024   0.11344523   -3.4291363    1.5321339   580599 
 7530000    1.3524336    -3.430062   -1.8959844   0.11021018    -3.430062    1.5340776   580609 
 7531000    1.3506151   -3.4281782   -1.8962056   0.11920834   -3.4281782    1.5319726   580625 
 7532000    1.3516277   -3.4296049    -1.896526   0.10823993   -3.4296049    1.5330789   580641 
 7533000     1.350589    -3.429543   -1.8976818   0.11678147    -3.429543    1.5318612   580656 
 7534000    1.3512926   -3.4292925   -1.8966596   0.11445116   -3.4292925    1.5326329   580666 
 7535000    1.3503672   -3.4279606   -1.8964459   0.11804904   -3.4279606    1.5315146   580692 
 7536000    1.3522968   -3.4299787   -1.8962861   0.11319499   -3.4299787    1.5336926   580696 
 7537000    1.3523783   -3.4304409    -1.896669   0.11517628   -3.4304409    1.5337719   580701 
 7538000    1.3505596    -3.429531   -1.8978192   0.11553447    -3.429531    1.5317118   580700 
 7539000    1.3496467    -3.428649   -1.8980121   0.11341095    -3.428649    1.5306369   580715 
 7540000    1.3507021   -3.4314952    -1.899664   0.10840881   -3.4314952    1.5318312   580716 
 7541000    1.3493013   -3.4296156   -1.8993915   0.11371641   -3.4296156    1.5302242   580723 
 7542000    1.3496662   -3.4299853   -1.8993737   0.11194164   -3.4299853    1.5306116   580733 
 7543000    1.3506765   -3.4303498   -1.8986188    0.1136794   -3.4303498    1.5317309   580743 
 7544000    1.3502452   -3.4302342   -1.8990161   0.11006345   -3.4302342    1.5312181   580752 
 7545000    1.3499412   -3.4279206   -1.8970947   0.10461516   -3.4279206    1.5308259   580770 
 7546000    1.3514206   -3.4296163   -1.8971576   0.11584704   -3.4296163    1.5324587   580787 
 7547000    1.3487346   -3.4282149   -1.8987994   0.11520315   -3.4282149    1.5294155   580786 
 7548000    1.3502997   -3.4302957   -1.8991054   0.10927773   -3.4302957    1.5311903   580786 
 7549000    1.3502226   -3.4293109   -1.8982872   0.10703363   -3.4293109    1.5310237   580816 
 7550000    1.3497209    -3.430107   -1.8996837   0.11039682    -3.430107    1.5304233   580828 
 7551000    1.3505133   -3.4305413   -1.8992511    0.1046569   -3.4305413    1.5312901   580840 
 7552000    1.3513494   -3.4304177   -1.8982033   0.11233088   -3.4304177    1.5322144   580849 
 7553000    1.3518284   -3.4302999   -1.8975662   0.11716689   -3.4302999    1.5327337   580858 
 7554000    1.3517344   -3.4298564   -1.8972583   0.11646975   -3.4298564    1.5325981   580869 
 7555000    1.3519418    -3.430879   -1.8980852   0.11629014    -3.430879    1.5327938   580884 
 7556000    1.3527946   -3.4317239   -1.8980028   0.11319564   -3.4317239     1.533721   580899 
 7557000    1.3539918   -3.4338238   -1.8987455   0.10938025   -3.4338238    1.5350783   580899 
 7558000    1.3517353   -3.4307764   -1.8983038   0.11135829   -3.4307764    1.5324726   580917 
 7559000    1.3514571    -3.431636   -1.8995343   0.11318955    -3.431636    1.5321018   580938 
 7560000     1.352234   -3.4323931   -1.8994791   0.11641359   -3.4323931    1.5329139   580964 
 7561000    1.3498706   -3.4296375   -1.8994133   0.11996456   -3.4296375    1.5302241   580968 
 7562000     1.350865   -3.4309906   -1.8996603   0.11598878   -3.4309906    1.5313303   580976 
 7563000    1.3518687   -3.4327836   -1.9003603   0.10938359   -3.4327836    1.5324233   580993 
 7564000    1.3509415    -3.431889   -1.9005379   0.10941032    -3.431889    1.5313512   581001 
 7565000    1.3504605   -3.4310297   -1.9002607   0.11217325   -3.4310297     1.530769   581015 
 7566000    1.3529383   -3.4329215    -1.899349    0.1100643   -3.4329215    1.5335724   581017 
 7567000    1.3518717   -3.4324524   -1.9001259   0.11171854   -3.4324524    1.5323264   581031 
 7568000     1.351392    -3.431202   -1.8994482   0.11372683    -3.431202    1.5317538   581042 
 7569000    1.3516662    -3.432107   -1.9001004   0.10989138    -3.432107    1.5320066   581064 
 7570000     1.351295   -3.4306661   -1.8990909   0.11415967   -3.4306661    1.5315753   581068 
 7571000    1.3524158   -3.4328573    -1.900046   0.10944278   -3.4328573    1.5328113   581081 
 7572000    1.3518628   -3.4321854   -1.9000378    0.1113018   -3.4321854    1.5321476   581095 
 7573000    1.3527752   -3.4327762   -1.8996499   0.11068431   -3.4327762    1.5331263   581116 
 7574000    1.3529174   -3.4339909   -1.9007325   0.10793048   -3.4339909    1.5332584   581127 
 7575000    1.3522438   -3.4320317   -1.8995577   0.11432533   -3.4320317     1.532474   581135 
 7576000    1.3523247   -3.4319042   -1.8993623     0.111089   -3.4319042    1.5325419   581144 
 7577000    1.3517373   -3.4309319   -1.8990847   0.10725741   -3.4309319    1.5318472   581155 
 7578000    1.3516767   -3.4296878   -1.8979593   0.11338392   -3.4296878    1.5317285   581174 
 7579000    1.3520465   -3.4324875   -1.9003795   0.11333829   -3.4324875     1.532108   581189 
 7580000    1.3514563   -3.4306873   -1.8992745   0.11475201   -3.4306873    1.5314128   581199 
 7581000    1.3523008   -3.4322278   -1.8998976   0.10880189   -3.4322278    1.5323303   581214 
 7582000     1.352484   -3.4334423   -1.9009203   0.11184213   -3.4334423     1.532522   581220 
 7583000    1.3516319    -3.431734   -1.9002407   0.11247601    -3.431734    1.5314933   581244 
 7584000    1.3533627   -3.4331335   -1.8997345    0.1190514   -3.4331335     1.533399   581265 
 7585000    1.3520681    -3.432415    -1.900525    0.1146952    -3.432415      1.53189   581281 
 7586000    1.3537394   -3.4338259   -1.9001003   0.11623647   -3.4338259    1.5337255   581303 
 7587000    1.3522351   -3.4329175   -1.9009516   0.11582297   -3.4329175    1.5319659   581324 
 7588000    1.3534074   -3.4335008   -1.9002674   0.11237732   -3.4335008    1.5332334   581347 
 7589000    1.3520041   -3.4315676    -1.900003   0.12077488   -3.4315676    1.5315645   581377 
 7590000    1.3526863   -3.4326725   -1.9003747   0.10765994   -3.4326725    1.5322978   581392 
 7591000    1.3527391   -3.4335598    -1.901247   0.11018872   -3.4335598    1.5323128   581409 
 7592000    1.3529502   -3.4345378   -1.9020149   0.11053014   -3.4345378    1.5325229   581420 
 7593000    1.3503174   -3.4314605   -1.9019829   0.11242015   -3.4314605    1.5294775   581444 
 7594000    1.3519268   -3.4326564   -1.9014349   0.11971312   -3.4326564    1.5312215   581474 
 7595000    1.3524249   -3.4334216   -1.9016808   0.11085962   -3.4334216    1.5317409   581491 
 7596000    1.3514929    -3.433059   -1.9024184   0.11609668    -3.433059    1.5306406   581508 
 7597000    1.3518303   -3.4331193   -1.9021309   0.11467665   -3.4331193    1.5309884   581521 
 7598000    1.3529458   -3.4332735   -1.9010454   0.11606822   -3.4332735    1.5322281   581530 
 7599000    1.3526307    -3.433352    -1.901494   0.11743432    -3.433352     1.531858   581535 
 7600000    1.3546586   -3.4356041   -1.9014891   0.10964593   -3.4356041     1.534115   581550 
 7601000     1.353715   -3.4336982   -1.9006675   0.12076811   -3.4336982    1.5330307   581556 
 7602000     1.355024    -3.434366   -1.8998477   0.10872973    -3.434366    1.5345183   581554 
 7603000    1.3543864   -3.4335021   -1.8997374   0.12099619   -3.4335021    1.5337646   581566 
 7604000    1.3536057   -3.4333903   -1.9005282   0.11657294   -3.4333903    1.5328621   581573 
 7605000    1.3537226   -3.4333109   -1.9003533   0.11165881   -3.4333109    1.5329576   581587 
 7606000    1.3526223   -3.4328587   -1.9011551   0.11367238   -3.4328587    1.5317036   581590 
 7607000    1.3539338   -3.4334341    -1.900277   0.11543203   -3.4334341    1.5331571   581602 
 7608000    1.3536529   -3.4322529   -1.8994085    0.1157305   -3.4322529    1.5328444   581600 
 7609000    1.3535227    -3.432682   -1.9000273   0.11358316    -3.432682    1.5326547   581616 
 7610000    1.3540004   -3.4329398   -1.8998047   0.11255261   -3.4329398    1.5331351   581639 
 7611000     1.353059   -3.4315055   -1.8994522   0.11290901   -3.4315055    1.5320533   581645 
 7612000    1.3524436   -3.4316505   -1.9003389   0.11684514   -3.4316505    1.5313117   581662 
 7613000    1.3530756   -3.4335589   -1.9015526   0.11399408   -3.4335589    1.5320063   581670 
 7614000    1.3518506   -3.4322189   -1.9016234   0.11798729   -3.4322189    1.5305955   581679 
 7615000    1.3511365   -3.4311442   -1.9013914   0.12097746   -3.4311442    1.5297528   581692 
 7616000    1.3530626    -3.432913   -1.9009926    0.1136828    -3.432913    1.5319204   581697 
 7617000    1.3523893   -3.4310369    -1.899892   0.11704218   -3.4310369    1.5311449   581702 
 7618000    1.3537507   -3.4327849   -1.9001119   0.11172866   -3.4327849    1.5326731   581707 
 7619000     1.353248   -3.4327522   -1.9006983   0.11500727   -3.4327522    1.5320539   581726 
 7620000    1.3549136    -3.434248   -1.9003453   0.11643008    -3.434248    1.5339027   581740 
 7621000    1.3542525   -3.4350542   -1.9019237   0.11257579   -3.4350542    1.5331305   581749 
 7622000    1.3530784   -3.4331016    -1.901316   0.11515959   -3.4331016    1.5317856   581755 
 7623000     1.355963   -3.4359921   -1.9009911   0.11469674   -3.4359921     1.535001   581774 
 7624000     1.354548   -3.4344246   -1.9010623   0.11628754   -3.4344246    1.5333623   581788 
 7625000    1.3519842   -3.4318308   -1.9013839   0.11865195   -3.4318308    1.5304468   581793 
 7626000    1.3548738   -3.4357637   -1.9020748   0.11028444   -3.4357637    1.5336889   581804 
 7627000    1.3541511   -3.4354158   -1.9025977   0.11608368   -3.4354158    1.5328181   581824 
 7628000    1.3538078   -3.4350696   -1.9026269   0.11274501   -3.4350696    1.5324427   581819 
 7629000    1.3532185   -3.4353221   -1.9035911   0.11416189   -3.4353221    1.5317309   581836 
 7630000     1.353209   -3.4350237   -1.9033141   0.11066966   -3.4350237    1.5317097   581840 
 7631000    1.3538946    -3.435631   -1.9031427   0.11123073    -3.435631    1.5324883   581839 
 7632000    1.3528663   -3.4360852   -1.9047687   0.11641694   -3.4360852    1.5313165   581842 
 7633000    1.3526496    -3.437251    -1.906151   0.11199101    -3.437251    1.5311001   581831 
 7634000    1.3514928   -3.4362148   -1.9064767   0.11000613   -3.4362148    1.5297381   581851 
 7635000    1.3521468   -3.4354122   -1.9049208   0.11342918   -3.4354122    1.5304915   581846 
 7636000    1.3532434    -3.437046   -1.9053555   0.10405715    -3.437046    1.5316906   581862 
 7637000    1.3526409   -3.4361139   -1.9051395    0.1228875   -3.4361139    1.5309744   581875 
 7638000    1.3533616   -3.4367715   -1.9050393   0.11787606   -3.4367715    1.5317322   581897 
 7639000    1.3513461   -3.4355797   -1.9061364   0.11271753   -3.4355797    1.5294432   581900 
 7640000     1.351813    -3.435503   -1.9055682   0.10618238    -3.435503    1.5299348   581914 
 7641000    1.3523602   -3.4349186   -1.9043618   0.11745278   -3.4349186    1.5305568   581913 
 7642000    1.3522765   -3.4355401   -1.9050912   0.11101554   -3.4355401     1.530449   581918 
 7643000      1.35133   -3.4349583   -1.9056436   0.11572263   -3.4349583    1.5293146   581942 
 7644000    1.3521509   -3.4355113   -1.9053307   0.11588519   -3.4355113    1.5301806   581966 
 7645000    1.3528148   -3.4368368   -1.9059707   0.11585122   -3.4368368    1.5308662   581991 
 7646000    1.3522108   -3.4366903   -1.9065551   0.11559695   -3.4366903    1.5301353   582009 
 7647000    1.3533235   -3.4367317   -1.9053558   0.10599714   -3.4367317    1.5313759   582016 
 7648000    1.3520604   -3.4344571    -1.904563   0.11536963   -3.4344571    1.5298942   582036 
 7649000    1.3521697   -3.4358779   -1.9059074   0.10957104   -3.4358779    1.5299705   582054 
 7650000    1.3521672   -3.4357771   -1.9058226    0.1075982   -3.4357771    1.5299546   582059 
 7651000    1.3509901   -3.4347656   -1.9061456   0.11314176   -3.4347656      1.52862   582060 
 7652000    1.3545258   -3.4372747   -1.9046937   0.10986907   -3.4372747    1.5325811   582075 
 7653000    1.3533532   -3.4363476   -1.9051037   0.11303852   -3.4363476    1.5312439   582079 
 7654000    1.3536351   -3.4371422   -1.9056189   0.11146143   -3.4371422    1.5315233   582094 
 7655000    1.3528452   -3.4364058   -1.9058445   0.11601356   -3.4364058    1.5305613   582120 
 7656000    1.3537532   -3.4372848   -1.9057463   0.11488079   -3.4372848    1.5315385   582139 
 7657000    1.3533737    -3.438079   -1.9069646    0.1101411    -3.438079    1.5311145   582137 
 7658000    1.3530953   -3.4387064   -1.9079516   0.11170221   -3.4387064    1.5307548   582154 
 7659000    1.3507545   -3.4354936   -1.9073975   0.11772341   -3.4354936    1.5280961   582158 
 7660000    1.3517464   -3.4358304   -1.9066384   0.10934851   -3.4358304    1.5291921   582168 
 7661000    1.3534948    -3.436774   -1.9056383   0.11998533    -3.436774    1.5311358   582181 
 7662000     1.355375   -3.4389405   -1.9056963    0.1124666   -3.4389405    1.5332443   582188 
 7663000    1.3542145     -3.43838   -1.9064959     0.110748     -3.43838    1.5318841   582206 
 7664000     1.352167   -3.4357863   -1.9062472   0.11686553   -3.4357863    1.5295391   582217 
 7665000    1.3544833   -3.4374056   -1.9053121   0.11418756   -3.4374056    1.5320935   582242 
 7666000    1.3532422   -3.4365352   -1.9058771   0.11109446   -3.4365352    1.5306581   582254 
 7667000    1.3526535   -3.4363796   -1.9064137   0.11880789   -3.4363796    1.5299659   582264 
 7668000    1.3520753   -3.4367078   -1.9074064   0.11756419   -3.4367078    1.5293014   582268 
 7669000     1.353388   -3.4377419   -1.9069636   0.11456261   -3.4377419    1.5307783   582271 
 7670000    1.3533919   -3.4376487   -1.9068817   0.11783214   -3.4376487     1.530767   582277 
 7671000    1.3543874   -3.4383382   -1.9064426   0.11591215   -3.4383382    1.5318956   582276 
 7672000    1.3525967    -3.437161   -1.9072882   0.11563663    -3.437161    1.5298727   582275 
 7673000    1.3538325   -3.4375145   -1.9062572   0.11741613   -3.4375145    1.5312574   582280 
 7674000    1.3537362   -3.4382939   -1.9071691   0.11417545   -3.4382939    1.5311247   582289 
 7675000    1.3538913   -3.4380728   -1.9068042   0.11421818   -3.4380728    1.5312686   582301 
 7676000    1.3532682   -3.4373026   -1.9067465   0.11396454   -3.4373026     1.530556   582304 
 7677000    1.3537794   -3.4371333   -1.9060122    0.1159879   -3.4371333    1.5311211   582309 
 7678000    1.3547689   -3.4377239   -1.9054916   0.11341741   -3.4377239    1.5322323   582312 
 7679000    1.3541289    -3.436972   -1.9055082   0.11514667    -3.436972    1.5314637   582329 
 7680000    1.3530137   -3.4375321    -1.907348   0.11330958   -3.4375321    1.5301841   582336 
 7681000    1.3544438   -3.4389553   -1.9071538   0.11188306   -3.4389553    1.5318015   582336 
 7682000    1.3530158   -3.4369946   -1.9068396   0.10873698   -3.4369946     1.530155   582348 
 7683000    1.3539871   -3.4384299   -1.9072027   0.11333361   -3.4384299    1.5312271   582358 
 7684000    1.3538735   -3.4379825   -1.9069259   0.11500487   -3.4379825    1.5310566   582374 
 7685000    1.3547725   -3.4370389   -1.9049867   0.11268588   -3.4370389    1.5320522   582382 
 7686000    1.3558158   -3.4386332   -1.9053986   0.11667569   -3.4386332    1.5332346   582381 
 7687000    1.3553983   -3.4387002   -1.9060141   0.10872248   -3.4387002    1.5326862   582410 
 7688000     1.352955   -3.4361681      -1.9063   0.11766704   -3.4361681    1.5298681   582431 
 7689000    1.3540709   -3.4373249   -1.9062632   0.11155354   -3.4373249    1.5310617   582457 
 7690000    1.3538387   -3.4379001   -1.9071115   0.11796999   -3.4379001    1.5307886   582461 
 7691000    1.3545816   -3.4384426   -1.9068693     0.110559   -3.4384426    1.5315733   582482 
 7692000    1.3544751   -3.4387695   -1.9073508   0.11832948   -3.4387695    1.5314187   582495 
 7693000    1.3546368    -3.438234   -1.9066614   0.11508083    -3.438234    1.5315726   582506 
 7694000    1.3537869   -3.4386376   -1.9080626   0.11395808   -3.4386376     1.530575   582520 
 7695000    1.3534196   -3.4381177   -1.9080001   0.11156095   -3.4381177    1.5301176   582536 
 7696000    1.3531247   -3.4388456    -1.909085   0.11365878   -3.4388456    1.5297606   582545 
 7697000     1.352348   -3.4377205   -1.9088773   0.11893811   -3.4377205    1.5288432   582560 
 7698000    1.3532563   -3.4389195   -1.9091047   0.11235212   -3.4389195    1.5298148   582581 
 7699000     1.353168   -3.4393556   -1.9096694   0.10703429   -3.4393556    1.5296862   582592 
 7700000    1.3534861    -3.440355   -1.9103617   0.11116968    -3.440355    1.5299932   582612 
 7701000    1.3543543   -3.4408389   -1.9099011   0.11115532   -3.4408389    1.5309378   582626 
 7702000    1.3533821   -3.4391605   -1.9093269    0.1195337   -3.4391605    1.5298337   582628 
 7703000      1.35345   -3.4400819   -1.9101794   0.11434404   -3.4400819    1.5299025   582631 
 7704000    1.3538171   -3.4405142    -1.910202   0.11196138   -3.4405142    1.5303122   582633 
 7705000    1.3533084   -3.4394986   -1.9098165   0.11373936   -3.4394986    1.5296821   582654 
 7706000    1.3544062    -3.441918   -1.9109845    0.1133248    -3.441918    1.5309335   582650 
 7707000    1.3544167   -3.4407965   -1.9099247   0.10849584   -3.4407965    1.5308717   582678 
 7708000    1.3532954   -3.4410411   -1.9114526   0.11207958   -3.4410411    1.5295886   582684 
 7709000     1.352526    -3.440066   -1.9113706    0.1147475    -3.440066    1.5286954   582693 
 7710000    1.3544418   -3.4422777   -1.9114853   0.10966917   -3.4422777    1.5307924   582719 
 7711000    1.3530339   -3.4404044     -1.91119   0.11261843   -3.4404044    1.5292144   582714 
 7712000    1.3538128   -3.4409798   -1.9109219   0.11221855   -3.4409798    1.5300579   582728 
 7713000    1.3557865   -3.4427653   -1.9104872   0.11026587   -3.4427653     1.532278   582732 
 7714000    1.3541114   -3.4415902   -1.9112421   0.12168199   -3.4415902    1.5303481   582746 
 7715000    1.3533547    -3.441955   -1.9124988   0.11289757    -3.441955    1.5294562   582760 
 7716000    1.3545189   -3.4421562    -1.911429   0.10763439   -3.4421562    1.5307272   582777 
 7717000    1.3539355   -3.4408149   -1.9107786   0.10849909   -3.4408149    1.5300363   582789 
 7718000    1.3556495   -3.4426584   -1.9107061   0.11342715   -3.4426584    1.5319523   582797 
 7719000    1.3560573   -3.4421314   -1.9097314   0.11274037   -3.4421314       1.5324   582802 
 7720000    1.3555223   -3.4406644   -1.9088899    0.1153096   -3.4406644    1.5317744   582810 
 7721000    1.3559809   -3.4413392    -1.909086   0.11189876   -3.4413392    1.5322532   582825 
 7722000    1.3547509   -3.4403244    -1.909461    0.1136003   -3.4403244    1.5308633   582825 
 7723000    1.3551443   -3.4420523   -1.9107602   0.11184451   -3.4420523    1.5312921   582831 
 7724000    1.3546818   -3.4419013   -1.9111633   0.11473588   -3.4419013    1.5307379   582843 
 7725000    1.3535665   -3.4409923   -1.9115382   0.11377795   -3.4409923    1.5294541   582852 
 7726000    1.3511179   -3.4391588   -1.9125213   0.10978676   -3.4391588    1.5266375   582871 
 7727000    1.3546148   -3.4439749   -1.9134492   0.10791127   -3.4439749    1.5305257   582895 
 7728000    1.3523592   -3.4409987   -1.9130531    0.1119062   -3.4409987    1.5279457   582907 
 7729000    1.3529111   -3.4411258   -1.9126064   0.11524404   -3.4411258    1.5285194   582926 
 7730000    1.3541582    -3.442151   -1.9122253   0.10904212    -3.442151    1.5299258   582927 
 7731000    1.3526943    -3.441107    -1.912898   0.11479187    -3.441107    1.5282089   582951 
 7732000    1.3531288   -3.4418216   -1.9131507    0.1122845   -3.4418216    1.5286709   582962 
 7733000    1.3558154   -3.4434991    -1.911835   0.11177857   -3.4434991     1.531664   582978 
 7734000    1.3550771   -3.4437295   -1.9129494   0.11367174   -3.4437295    1.5307801   582997 
 7735000     1.353397   -3.4410404   -1.9121897   0.12243017   -3.4410404    1.5288508   583009 
 7736000    1.3544544   -3.4421755   -1.9121801   0.11304821   -3.4421755    1.5299953   583028 
 7737000    1.3555581   -3.4438449   -1.9126265   0.11766358   -3.4438449    1.5312184   583037 
 7738000    1.3564243   -3.4443151   -1.9121892   0.11933239   -3.4443151    1.5321259   583064 
 7739000    1.3555462   -3.4431232     -1.91201   0.11374124   -3.4431232    1.5311131   583072 
 7740000       1.3549    -3.442693   -1.9123019   0.10949927    -3.442693    1.5303911   583069 
 7741000    1.3554603   -3.4429626   -1.9119544   0.11417434   -3.4429626    1.5310082   583075 
 7742000    1.3559033   -3.4440756   -1.9125881    0.1144492   -3.4440756    1.5314876   583083 
 7743000    1.3549696   -3.4423198   -1.9119578   0.11540305   -3.4423198     1.530362   583110 
 7744000    1.3543575   -3.4414249   -1.9118224   0.11384026   -3.4414249    1.5296026   583136 
 7745000    1.3560382   -3.4433412   -1.9119009   0.11299951   -3.4433412    1.5314403   583159 
 7746000     1.355469   -3.4434315   -1.9126787   0.11061529   -3.4434315    1.5307528   583176 
 7747000    1.3543884   -3.4430461   -1.9135267    0.1050352   -3.4430461    1.5295194   583181 
 7748000    1.3540342   -3.4428869   -1.9138199   0.10675541   -3.4428869     1.529067   583201 
 7749000     1.354913   -3.4426495   -1.9126505   0.10774425   -3.4426495     1.529999   583224 
 7750000    1.3536767   -3.4410148   -1.9124486    0.1169737   -3.4410148    1.5285662   583238 
 7751000    1.3557352   -3.4432672   -1.9124054   0.11070463   -3.4432672    1.5308618   583249 
 7752000    1.3566606   -3.4436161   -1.9117199   0.11364245   -3.4436161    1.5318962   583253 
 7753000     1.355039   -3.4422676   -1.9122653   0.10982338   -3.4422676    1.5300022   583277 
 7754000    1.3557508   -3.4430571     -1.91228   0.11329289   -3.4430571    1.5307771   583288 
 7755000    1.3543865   -3.4418692   -1.9126693   0.12196768   -3.4418692    1.5291999   583302 
 7756000    1.3550386   -3.4432907   -1.9134017   0.10979285   -3.4432907     1.529889   583320 
 7757000    1.3559811   -3.4436037   -1.9126952    0.1137668   -3.4436037    1.5309085   583337 
 7758000       1.3553   -3.4426972   -1.9125707   0.11777174   -3.4426972    1.5301265   583342 
 7759000    1.3559145   -3.4435131   -1.9127165   0.11384104   -3.4435131    1.5307966   583351 
 7760000    1.3565797   -3.4446492   -1.9131488   0.11703731   -3.4446492    1.5315004   583369 
 7761000     1.355657    -3.443881   -1.9134748   0.11266033    -3.443881    1.5304062   583389 
 7762000    1.3545932   -3.4439378   -1.9147666    0.1095652   -3.4439378    1.5291712   583402 
 7763000    1.3542426   -3.4430917   -1.9143373   0.11880076   -3.4430917    1.5287544   583410 
 7764000     1.354986   -3.4441595   -1.9146261   0.11104077   -3.4441595    1.5295334   583433 
 7765000    1.3542773   -3.4443072    -1.915579   0.11208855   -3.4443072    1.5287281   583435 
 7766000    1.3546458   -3.4448362   -1.9157445   0.11403868   -3.4448362    1.5290917   583455 
 7767000    1.3566073   -3.4463742   -1.9151157    0.1168843   -3.4463742    1.5312585   583473 
 7768000     1.355549   -3.4457598   -1.9157456   0.11316926   -3.4457598    1.5300142   583492 
 7769000    1.3548066   -3.4443839   -1.9152627   0.11509335   -3.4443839    1.5291212   583513 
 7770000     1.355685   -3.4467394   -1.9166294   0.11500063   -3.4467394    1.5301099   583514 
 7771000    1.3545148   -3.4446279   -1.9158622   0.12199652   -3.4446279    1.5287657   583523 
 7772000    1.3550002   -3.4465417   -1.9172413   0.11454975   -3.4465417    1.5293004   583528 
 7773000    1.3544089   -3.4445761   -1.9159745   0.11436012   -3.4445761    1.5286016   583540 
 7774000    1.3541937   -3.4444967   -1.9161615   0.11658968   -3.4444967    1.5283351   583549 
 7775000    1.3541552   -3.4454619   -1.9171807   0.11549313   -3.4454619    1.5282812   583553 
 7776000    1.3536017    -3.445952   -1.9183296   0.11802218    -3.445952    1.5276224   583566 
 7777000    1.3548267   -3.4470399   -1.9180847   0.11290923   -3.4470399    1.5289552   583585 
 7778000    1.3534442   -3.4447725    -1.917422   0.11728834   -3.4447725    1.5273505   583602 
 7779000     1.355004   -3.4467843   -1.9176736   0.11482674   -3.4467843    1.5291107   583602 
 7780000     1.353498   -3.4452862    -1.917909   0.11177236   -3.4452862    1.5273772   583615 
 7781000    1.3565422   -3.4478392    -1.917032   0.10841629   -3.4478392    1.5308072   583617 
 7782000     1.355756   -3.4477581   -1.9178984   0.10789549   -3.4477581    1.5298598   583640 
 7783000    1.3543409   -3.4453718   -1.9171926   0.11065038   -3.4453718    1.5281792   583672 
 7784000    1.3560661   -3.4474981     -1.91743   0.11432556   -3.4474981    1.5300681   583694 
 7785000     1.354269   -3.4455747   -1.9175605   0.11280173   -3.4455747    1.5280143   583704 
 7786000    1.3546622   -3.4449396   -1.9165079   0.11251687   -3.4449396    1.5284317   583714 
 7787000    1.3544073   -3.4446147   -1.9165308    0.1212749   -3.4446147    1.5280839   583737 
 7788000    1.3557064   -3.4459886   -1.9164731    0.1116325   -3.4459886    1.5295155   583750 
 7789000    1.3552764   -3.4453652   -1.9163452   0.11391805   -3.4453652    1.5290199   583754 
 7790000    1.3550042   -3.4454894   -1.9168184    0.1167135   -3.4454894     1.528671   583770 
 7791000    1.3557373   -3.4466434   -1.9171874   0.11076404   -3.4466434     1.529456   583786 
 7792000    1.3564336   -3.4470409   -1.9168386   0.11226649   -3.4470409    1.5302023   583801 
 7793000    1.3557008   -3.4455601   -1.9162134   0.11327089   -3.4455601    1.5293468   583812 
 7794000     1.355756   -3.4461018    -1.916719   0.10967851   -3.4461018    1.5293828   583822 
 7795000    1.3564876   -3.4455636   -1.9153712   0.11819585   -3.4455636    1.5301924   583828 
 7796000    1.3545373   -3.4440498   -1.9160967   0.12248034   -3.4440498    1.5279531   583843 
 7797000    1.3565378   -3.4461939   -1.9159947   0.11496231   -3.4461939    1.5301992   583847 
 7798000     1.355486   -3.4442794   -1.9152902   0.11688913   -3.4442794    1.5289892   583856 
 7799000    1.3573398    -3.446387   -1.9153119   0.11480405    -3.446387     1.531075   583858 
 7800000    1.3567182   -3.4462757   -1.9159568   0.10946557   -3.4462757    1.5303189   583879 
 7801000    1.3563169   -3.4461631   -1.9163362   0.11913545   -3.4461631    1.5298269   583894 
 7802000    1.3569701   -3.4451267   -1.9145788   0.12015382   -3.4451267     1.530548   583900 
 7803000    1.3561674   -3.4440537   -1.9144556   0.11720736   -3.4440537    1.5295981   583917 
 7804000    1.3580568   -3.4467158   -1.9149631   0.11189906   -3.4467158    1.5317527   583908 
 7805000    1.3559056   -3.4439923   -1.9147053   0.11727285   -3.4439923    1.5292871   583923 
 7806000    1.3586867   -3.4459165   -1.9134953   0.11850727   -3.4459165    1.5324212   583924 
 7807000     1.358632   -3.4459308   -1.9135635   0.11386474   -3.4459308    1.5323673   583921 
 7808000    1.3574886   -3.4452385   -1.9141739   0.11477599   -3.4452385    1.5310646   583926 
 7809000    1.3560702   -3.4442575   -1.9148372   0.11615888   -3.4442575    1.5294203   583943 
 7810000    1.3573054   -3.4454865   -1.9147098   0.11812982   -3.4454865    1.5307767   583957 
 7811000    1.3573141   -3.4460707   -1.9153367   0.11848953   -3.4460707    1.5307341   583977 
 7812000    1.3574509    -3.446576   -1.9157033   0.11334064    -3.446576    1.5308726   583983 
 7813000    1.3583297   -3.4473066   -1.9155137   0.11455341   -3.4473066    1.5317928   584010 
 7814000      1.35659   -3.4454899    -1.915685    0.1098298   -3.4454899    1.5298049   584020 
 7815000    1.3548415   -3.4436343   -1.9158248   0.11802926   -3.4436343    1.5278095   584029 
 7816000    1.3562341   -3.4455183   -1.9161593   0.11954246   -3.4455183     1.529359   584037 
 7817000    1.3560176   -3.4456167    -1.916549   0.11122946   -3.4456167    1.5290677   584055 
 7818000    1.3563857   -3.4466855   -1.9172185   0.11180155   -3.4466855     1.529467   584061 
 7819000    1.3561624   -3.4462993   -1.9171338   0.11835034   -3.4462993    1.5291655   584080 
 7820000    1.3570892   -3.4478695   -1.9176904   0.10991141   -3.4478695    1.5301791   584092 
 7821000    1.3569094   -3.4475069   -1.9175462   0.11306063   -3.4475069    1.5299607   584098 
 7822000     1.355906   -3.4474696    -1.918643   0.10845272   -3.4474696    1.5288266   584099 
 7823000    1.3553009   -3.4464508   -1.9183273    0.1195077   -3.4464508    1.5281235   584107 
 7824000    1.3558495   -3.4478727   -1.9191543   0.11190974   -3.4478727    1.5287184   584116 
 7825000    1.3559269   -3.4468082    -1.918039   0.11082122   -3.4468082    1.5287692   584130 
 7826000     1.356383   -3.4468561   -1.9175989   0.11073289   -3.4468561    1.5292571   584140 
 7827000    1.3573651   -3.4475759   -1.9172822    0.1105742   -3.4475759    1.5302937   584167 
 7828000    1.3572533   -3.4469156   -1.9167506   0.12032355   -3.4469156    1.5301651   584168 
 7829000    1.3571475   -3.4483491   -1.9183426   0.11517316   -3.4483491    1.5300065   584183 
 7830000    1.3553927   -3.4471073   -1.9190844   0.11270982   -3.4471073    1.5280229   584185 
 7831000    1.3568936   -3.4471094   -1.9174285   0.11336655   -3.4471094     1.529681   584198 
 7832000    1.3554439   -3.4469321   -1.9189038   0.11710658   -3.4469321    1.5280284   584205 
 7833000    1.3571976   -3.4477927   -1.9178241   0.11264271   -3.4477927    1.5299686   584219 
 7834000    1.3578498   -3.4482469   -1.9175614   0.11671594   -3.4482469    1.5306855   584226 
 7835000    1.3591606   -3.4504636   -1.9183344   0.10921906   -3.4504636    1.5321292   584239 
 7836000    1.3575426   -3.4483347   -1.9180348   0.11476134   -3.4483347    1.5302999   584241 
 7837000    1.3565299   -3.4465674   -1.9174247    0.1117755   -3.4465674    1.5291427   584247 
 7838000    1.3561658   -3.4463733   -1.9176725   0.11503104   -3.4463733    1.5287008   584259 
 7839000    1.3575937   -3.4469212   -1.9166501   0.11366314   -3.4469212    1.5302711   584274 
 7840000    1.3577802   -3.4468952   -1.9164164   0.11498553   -3.4468952    1.5304788   584275 
 7841000    1.3578576   -3.4471947   -1.9166445    0.1188387   -3.4471947    1.5305503   584281 
 7842000    1.3571395   -3.4469713   -1.9172672   0.11822517   -3.4469713    1.5297042   584295 
 7843000    1.3578171   -3.4470301   -1.9166093   0.11568335   -3.4470301    1.5304208   584313 
 7844000    1.3573563   -3.4460414   -1.9162001   0.11755293   -3.4460414    1.5298412   584336 
 7845000    1.3587777   -3.4474286   -1.9160352    0.1169223   -3.4474286    1.5313934   584355 
 7846000    1.3574768   -3.4458318   -1.9159255   0.11591084   -3.4458318    1.5299063   584363 
 7847000    1.3582536   -3.4461007   -1.9153425   0.11320354   -3.4461007    1.5307582   584372 
 7848000    1.3594082   -3.4466102   -1.9145901   0.11994394   -3.4466102    1.5320201   584387 
 7849000    1.3597823   -3.4473509   -1.9149145   0.11717712   -3.4473509    1.5324364   584389 
 7850000    1.3589468   -3.4481859   -1.9167277   0.12047848   -3.4481859    1.5314582   584403 
 7851000    1.3578387   -3.4473913   -1.9171897   0.12158408   -3.4473913    1.5302016   584406 
 7852000     1.357252   -3.4470013    -1.917474   0.11605173   -3.4470013    1.5295273   584411 
 7853000    1.3581368   -3.4473684   -1.9168701   0.10901754   -3.4473684    1.5304983   584421 
 7854000    1.3597228   -3.4490494   -1.9167797   0.10920278   -3.4490494    1.5322697   584427 
 7855000    1.3590827   -3.4476807   -1.9161191   0.11641703   -3.4476807    1.5315616   584422 
 7856000    1.3583765    -3.447466   -1.9167107    0.1152539    -3.447466    1.5307552   584426 
 7857000    1.3570239    -3.446724   -1.9175113   0.11516878    -3.446724    1.5292127   584433 
 7858000     1.358019    -3.448345   -1.9180293   0.11655735    -3.448345    1.5303158   584440 
 7859000    1.3558295    -3.446289   -1.9184719   0.11298898    -3.446289    1.5278171   584452 
 7860000    1.3575744   -3.4474634    -1.917735   0.11382605   -3.4474634    1.5297284   584473 
 7861000    1.3576833   -3.4472448   -1.9174016   0.11653941   -3.4472448    1.5298432   584476 
 7862000     1.358645   -3.4482777   -1.9173743    0.1152592   -3.4482777    1.5309033   584485 
 7863000    1.3567232   -3.4458918   -1.9171853   0.11393886   -3.4458918    1.5287065   584497 
 7864000     1.357998   -3.4488945   -1.9187674   0.10913094   -3.4488945    1.5301271   584503 
 7865000    1.3572978    -3.448532   -1.9192095   0.11589267    -3.448532    1.5293225   584509 
 7866000    1.3583161   -3.4492484   -1.9187942   0.11597404   -3.4492484    1.5304542   584515 
 7867000    1.3564743   -3.4475708   -1.9192468   0.11537669   -3.4475708     1.528324   584536 
 7868000    1.3582736    -3.449078   -1.9187712    0.1139476    -3.449078    1.5303068   584553 
 7869000    1.3579251   -3.4498552   -1.9199751   0.11303824   -3.4498552    1.5298801   584566 
 7870000    1.3575076   -3.4492745   -1.9198675   0.11636096   -3.4492745    1.5294071   584567 
 7871000    1.3558496   -3.4474319   -1.9199057   0.11320169   -3.4474319    1.5275261   584572 
 7872000    1.3583915   -3.4502329   -1.9198666    0.1091966   -3.4502329    1.5303663   584581 
 7873000    1.3579399   -3.4500065   -1.9201699   0.11653374   -3.4500065    1.5298365   584589 
 7874000    1.3574813   -3.4482933   -1.9189943   0.12071661   -3.4482933    1.5292991   584597 
 7875000    1.3574909   -3.4496288   -1.9203373   0.11589066   -3.4496288    1.5292915   584604 
 7876000    1.3580326   -3.4498132   -1.9199219    0.1151263   -3.4498132    1.5298913   584608 
 7877000    1.3573865   -3.4493265    -1.920184   0.11505108   -3.4493265    1.5291425   584616 
 7878000    1.3565618   -3.4490386   -1.9208643   0.11879669   -3.4490386    1.5281743   584631 
 7879000    1.3585371   -3.4508104   -1.9204528   0.11957062   -3.4508104    1.5303576   584647 
 7880000    1.3586309   -3.4508844   -1.9204369    0.1125036   -3.4508844    1.5304475   584653 
 7881000    1.3595102   -3.4514351   -1.9200494   0.11683878   -3.4514351    1.5313857   584673 
 7882000    1.3584482   -3.4493502   -1.9191583   0.11708292   -3.4493502    1.5301919   584672 
 7883000    1.3590756   -3.4501849   -1.9193202   0.11675482   -3.4501849    1.5308647   584685 
 7884000    1.3565805   -3.4481715   -1.9201905   0.12285897   -3.4481715     1.527981   584713 
 7885000     1.357344   -3.4491849    -1.920357   0.11370248   -3.4491849    1.5288279   584718 
 7886000    1.3575886   -3.4493494   -1.9202696   0.11403703   -3.4493494    1.5290799   584727 
 7887000    1.3607097    -3.451738   -1.9191586   0.11415449    -3.451738    1.5325795   584733 
 7888000    1.3589073    -3.449823   -1.9192972   0.11672781    -3.449823    1.5305258   584742 
 7889000     1.358849   -3.4507918   -1.9203551   0.11403207   -3.4507918    1.5304367   584751 
 7890000    1.3592112   -3.4494067   -1.9185699   0.11753037   -3.4494067    1.5308368   584754 
 7891000    1.3584131   -3.4488381   -1.9189264   0.11547689   -3.4488381    1.5299117   584764 
 7892000    1.3569397   -3.4475638   -1.9193691   0.11826962   -3.4475638    1.5281947   584786 
 7893000    1.3578302   -3.4473663   -1.9181817   0.11531821   -3.4473663    1.5291846   584791 
 7894000    1.3562916   -3.4475284   -1.9201131   0.12004136   -3.4475284    1.5274153   584805 
 7895000    1.3580295   -3.4486101   -1.9192299   0.12130986   -3.4486101    1.5293803   584802 
 7896000    1.3582046   -3.4487728   -1.9191927   0.12197035   -3.4487728    1.5295801   584801 
 7897000    1.3578407   -3.4489267   -1.9197486   0.11354773   -3.4489267    1.5291782   584798 
 7898000    1.3568268    -3.448966   -1.9209323    0.1168587    -3.448966    1.5280337   584799 
 7899000    1.3579877    -3.449725   -1.9203918   0.11698349    -3.449725    1.5293332   584802 
 7900000    1.3595868   -3.4496602   -1.9185863   0.11538776   -3.4496602    1.5310739   584825 
 7901000    1.3594869   -3.4493081   -1.9183519   0.11281752   -3.4493081    1.5309561   584827 
 7902000    1.3598439   -3.4504284   -1.9190991   0.11242595   -3.4504284    1.5313294   584838 
 7903000    1.3578842   -3.4472895    -1.918222    0.1179163   -3.4472895    1.5290676   584859 
 7904000    1.3598379    -3.450992   -1.9197322   0.11374777    -3.450992    1.5312597   584862 
 7905000    1.3599164   -3.4513742   -1.9200444   0.11179211   -3.4513742    1.5313298   584869 
 7906000     1.358044   -3.4504135   -1.9212313   0.11443387   -3.4504135    1.5291822   584884 
 7907000     1.357738    -3.450354   -1.9215163   0.11376534    -3.450354    1.5288377   584884 
 7908000     1.359619   -3.4515054   -1.9205942   0.11135182   -3.4515054    1.5309112   584901 
 7909000    1.3580916   -3.4495144   -1.9203283   0.11001362   -3.4495144    1.5291861   584903 
 7910000    1.3571527   -3.4494657   -1.9213316   0.11495821   -3.4494657    1.5281342   584901 
 7911000     1.358793   -3.4518519    -1.921897   0.10841449   -3.4518519    1.5299549   584911 
 7912000    1.3586152   -3.4512709   -1.9215763   0.11981325   -3.4512709    1.5296946   584934 
 7913000    1.3576776   -3.4516628   -1.9230814   0.11389311   -3.4516628    1.5285815   584956 
 7914000    1.3585703   -3.4508783   -1.9213075   0.11361487   -3.4508783    1.5295708   584962 
 7915000    1.3591269   -3.4521925   -1.9220238   0.11401665   -3.4521925    1.5301687   584973 
 7916000    1.3599203   -3.4524549   -1.9214061    0.1129621   -3.4524549    1.5310488   584978 
 7917000    1.3590676   -3.4516628   -1.9215975   0.11671388   -3.4516628    1.5300654   584987 
 7918000    1.3591223   -3.4516186   -1.9215492   0.11679241   -3.4516186    1.5300694   585009 
 7919000    1.3587945   -3.4499523   -1.9203147   0.11715949   -3.4499523    1.5296376   585033 
 7920000    1.3586622   -3.4492735   -1.9198188   0.12037218   -3.4492735    1.5294546   585046 
 7921000    1.3597433   -3.4509117     -1.92024   0.11471793   -3.4509117    1.5306717   585046 
 7922000    1.3600916   -3.4508725    -1.919835   0.12346207   -3.4508725    1.5310375   585056 
 7923000    1.3598678   -3.4511603   -1.9203852   0.11673942   -3.4511603    1.5307751   585060 
 7924000    1.3578495    -3.450421   -1.9218995   0.11637191    -3.450421    1.5285216   585053 
 7925000    1.3576244   -3.4504088   -1.9221746   0.11516136   -3.4504088    1.5282342   585066 
 7926000    1.3576119   -3.4510963    -1.922871   0.11822799   -3.4510963    1.5282254   585064 
 7927000    1.3595584   -3.4523362   -1.9219511   0.12016389   -3.4523362    1.5303851   585076 
 7928000    1.3579124   -3.4498765   -1.9213625   0.11140587   -3.4498765     1.528514   585083 
 7929000    1.3587294   -3.4501812   -1.9207894   0.11282741   -3.4501812    1.5293917   585099 
 7930000    1.3579019   -3.4490485   -1.9206274   0.12093628   -3.4490485    1.5284212   585114 
 7931000    1.3575185   -3.4495957   -1.9216218   0.11210047   -3.4495957    1.5279739   585120 
 7932000    1.3581113   -3.4503093   -1.9217361   0.11388278   -3.4503093    1.5285733   585146 
 7933000    1.3588123   -3.4521328   -1.9228228   0.11499018   -3.4521328      1.52931   585166 
 7934000    1.3598061   -3.4536515   -1.9232413   0.11604867   -3.4536515    1.5304102   585173 
 7935000    1.3586048   -3.4530491   -1.9240353   0.11381211   -3.4530491    1.5290137   585190 
 7936000    1.3581296   -3.4524839   -1.9240258   0.11543309   -3.4524839    1.5284581   585198 
 7937000    1.3588908   -3.4528796   -1.9236016   0.11492488   -3.4528796     1.529278   585212 
 7938000    1.3584635   -3.4525426   -1.9237793   0.11287409   -3.4525426    1.5287633   585225 
 7939000    1.3586816   -3.4537198   -1.9247529   0.11681434   -3.4537198    1.5289669   585241 
 7940000    1.3595352   -3.4542718   -1.9243862   0.11157313   -3.4542718    1.5298856   585257 
 7941000     1.360257   -3.4552174   -1.9245299   0.11543867   -3.4552174    1.5306875   585261 
 7942000    1.3587469   -3.4528657   -1.9238907   0.12109053   -3.4528657     1.528975   585266 
 7943000    1.3583156   -3.4524522   -1.9240043   0.11656696   -3.4524522    1.5284479   585282 
 7944000    1.3596878   -3.4535219   -1.9235822    0.1154164   -3.4535219    1.5299398   585302 
 7945000    1.3601582   -3.4534396   -1.9229915   0.12292377   -3.4534396    1.5304481   585310 
 7946000     1.358248   -3.4535821   -1.9253173   0.12179839   -3.4535821    1.5282648   585323 
 7947000    1.3590062   -3.4534389   -1.9243472   0.11595731   -3.4534389    1.5290918   585333 
 7948000     1.359125   -3.4541811   -1.9249582   0.10900797   -3.4541811    1.5292229   585334 
 7949000    1.3599845   -3.4548363   -1.9246674   0.11612259   -3.4548363     1.530169   585342 
 7950000    1.3593632   -3.4541834   -1.9247422   0.12294729   -3.4541834    1.5294412   585353 
 7951000    1.3578378   -3.4522827   -1.9245838   0.11928645   -3.4522827    1.5276989   585363 
 7952000    1.3594805   -3.4548841   -1.9253684   0.11621311   -3.4548841    1.5295157   585375 
 7953000    1.3582879   -3.4537956   -1.9256243   0.11140729   -3.4537956    1.5281713   585376 
 7954000    1.3592222   -3.4541004   -1.9249092   0.11336803   -3.4541004    1.5291912   585388 
 7955000    1.3577553   -3.4532829   -1.9257786   0.11418704   -3.4532829    1.5275043   585402 
 7956000     1.357828   -3.4534981    -1.925946   0.11505288   -3.4534981    1.5275521   585415 
 7957000    1.3577061   -3.4529317   -1.9255637   0.11837186   -3.4529317     1.527368   585433 
 7958000    1.3585333   -3.4531952   -1.9249487   0.11422516   -3.4531952    1.5282464   585453 
 7959000    1.3600265   -3.4541806   -1.9242754   0.11355455   -3.4541806    1.5299052   585461 
 7960000    1.3581183   -3.4522071    -1.924451   0.11290586   -3.4522071     1.527756   585462 
 7961000    1.3592002   -3.4535979   -1.9246718    0.1171762   -3.4535979    1.5289261   585480 
 7962000    1.3597935   -3.4532809   -1.9237658   0.11847332   -3.4532809    1.5295151   585510 
 7963000    1.3597636   -3.4536799   -1.9242245   0.11294977   -3.4536799    1.5294554   585520 
 7964000    1.3604112   -3.4546667   -1.9244986   0.11076448   -3.4546667    1.5301681   585526 
 7965000     1.360637   -3.4550389    -1.924643   0.11169476   -3.4550389    1.5303959   585536 
 7966000     1.361397   -3.4559172   -1.9246821   0.11919879   -3.4559172    1.5312351   585542 
 7967000    1.3596784   -3.4542829   -1.9250252   0.11553228   -3.4542829    1.5292577   585559 
 7968000    1.3600772   -3.4542013   -1.9245056    0.1164312   -3.4542013    1.5296957   585563 
 7969000    1.3600681   -3.4541293   -1.9244725   0.12343231   -3.4541293    1.5296568   585574 
 7970000    1.3596262   -3.4542428   -1.9250856   0.10927136   -3.4542428    1.5291572   585575 
 7971000    1.3588875   -3.4536872   -1.9254052   0.11998031   -3.4536872     1.528282   585592 
 7972000    1.3614496   -3.4561428   -1.9250238   0.10899893   -3.4561428     1.531119   585609 
 7973000    1.3612732   -3.4556221   -1.9246989   0.11645662   -3.4556221    1.5309233   585608 
 7974000    1.3634567   -3.4577417    -1.924389   0.10993831   -3.4577417    1.5333527   585618 
 7975000    1.3612419   -3.4557687   -1.9249121   0.11905402   -3.4557687    1.5308567   585620 
 7976000    1.3601696   -3.4551878   -1.9255684   0.11777681   -3.4551878    1.5296194   585632 
 7977000    1.3600513   -3.4558675    -1.926436    0.1153133   -3.4558675    1.5294316   585653 
 7978000    1.3612306   -3.4573415   -1.9265995    0.1139557   -3.4573415     1.530742   585659 
 7979000    1.3604061    -3.455791    -1.925997   0.11846143    -3.455791     1.529794   585667 
 7980000    1.3611681    -3.455832   -1.9252073   0.12107923    -3.455832    1.5306247   585677 
 7981000    1.3601063   -3.4549287   -1.9255162   0.11735925   -3.4549287    1.5294125   585684 
 7982000    1.3610992   -3.4557369   -1.9252602   0.11772411   -3.4557369    1.5304767   585704 
 7983000    1.3578327   -3.4527441   -1.9259951   0.12112158   -3.4527441     1.526749   585725 
 7984000     1.359275   -3.4544849   -1.9261586   0.11773758   -3.4544849    1.5283263   585742 
 7985000    1.3575745   -3.4533413   -1.9269712   0.11608593   -3.4533413    1.5263701   585759 
 7986000     1.359383   -3.4562941   -1.9278933   0.11482098   -3.4562941    1.5284008   585760 
 7987000     1.359265   -3.4556368   -1.9273739   0.11177034   -3.4556368    1.5282629   585762 
 7988000    1.3583284   -3.4549186   -1.9276852   0.11209816   -3.4549186    1.5272334   585753 
 7989000    1.3584347   -3.4558654   -1.9284995    0.1109913   -3.4558654    1.5273659   585748 
 7990000    1.3580498   -3.4553589    -1.928444   0.10634909   -3.4553589    1.5269149   585755 
 7991000    1.3568677   -3.4538665   -1.9283093   0.11713215   -3.4538665    1.5255572   585766 
 7992000    1.3584512   -3.4548986   -1.9276184   0.11558633   -3.4548986    1.5272801   585788 
 7993000    1.3577184   -3.4544952   -1.9280598   0.11007872   -3.4544952    1.5264354   585796 
 7994000    1.3574307   -3.4547264   -1.9286431   0.11034094   -3.4547264    1.5260833   585807 
 7995000    1.3605044   -3.4580939   -1.9286176    0.1126229   -3.4580939    1.5294762   585831 
 7996000    1.3589769   -3.4563133   -1.9286143   0.10862683   -3.4563133     1.527699   585854 
 7997000    1.3579789   -3.4557637   -1.9292204   0.11893293   -3.4557637    1.5265433   585867 
 7998000    1.3588934   -3.4561874   -1.9286683   0.11534794   -3.4561874    1.5275191   585887 
 7999000    1.3583217   -3.4556843   -1.9288261   0.11757411   -3.4556843    1.5268582   585894 
 8000000    1.3594146   -3.4562076   -1.9281756   0.11465164   -3.4562076     1.528032   585915 
Loop time of 10193.3 on 192 procs for 5000000 steps with 585915 atoms

Performance: 211903.301 tau/day, 490.517 timesteps/s
99.1% CPU use with 192 MPI tasks x 1 OpenMP threads

MPI task timing breakdown:
Section |  min time  |  avg time  |  max time  |%varavg|  %CPU | %total
-----------------------------------------------------------------------
Pair    | 3073.7     | 3971.7     | 4348.5     | 556.4 |  99.1 | 38.96
Bond    | 3.316      | 3.4603     | 3.6111     |   3.2 | 100.0 |  0.03
Neigh   | 1657.5     | 1944       | 2103.9     | 226.0 |  99.5 | 19.07
Comm    | 1337.7     | 2176.1     | 3279.2     | 993.8 |  99.0 | 21.35
Output  | 278.52     | 283.46     | 283.5      |   2.1 |  98.4 |  2.78
Modify  | 1528.3     | 1623.2     | 2122.8     | 461.2 |  99.1 | 15.92
Other   |            | 191.3      |            |       |       |  1.88

Nlocal:        3051.64 ave        3174 max        2924 min
Histogram: 1 2 20 32 34 36 43 16 7 1
Nghost:        4072.19 ave        4420 max        3239 min
Histogram: 4 33 11 0 0 0 0 6 88 50
Neighs:        88905.4 ave       96426 max       76965 min
Histogram: 6 7 9 7 19 33 34 39 31 7

Total # of neighbors = 17069839
Ave neighs/atom = 29.133644
Ave special neighs/atom = 0.0000000
Neighbor list builds = 505000
Dangerous builds = 450000

write_restart   restart_write.dat
System init for write_restart ...
write_data	data.write
System init for write_data ...
WARNING: Not all mixed pair coeffs generated from mixing. Use write_data with 'pair ij' option to store all pair coeffs. (src/write_data.cpp:312)

Total wall time: 2:49:57
