LAMMPS (24 Dec 2020)
OMP_NUM_THREADS environment is not set. Defaulting to 1 thread. (src/comm.cpp:94)
  using 1 OpenMP thread(s) per MPI task
# Simple rigid body system
# needed variables: startTemp, temp

units		lj
atom_style	full
dimension 	3
boundary	p p f
pair_style	lj/cut/opt 2.5

variable 	gcmcdisplace	equal 0
variable 	sigma		equal 1.0
variable 	epsilon 	equal 1.0


read_restart	restart.dat.3000000
Reading restart file ...
  restart file = 24 Dec 2020, LAMMPS = 24 Dec 2020
WARNING: Restart file used different # of processors: 48 vs. 192 (src/read_restart.cpp:697)
  restoring atom style full from restart
  orthogonal box = (0.0000000 0.0000000 0.0000000) to (80.000000 80.000000 160.00000)
  6 by 4 by 8 MPI processor grid
  restoring pair style lj/cut/opt from restart
  439061 atoms
Finding 1-2 1-3 1-4 neighbors ...
  special bond factors lj:    0        0        0       
  special bond factors coul:  0        0        0       
     0 = max # of 1-2 neighbors
     0 = max # of 1-3 neighbors
     0 = max # of 1-4 neighbors
     1 = max # of special neighbors
  special bonds CPU = 1.423 seconds
  read_restart CPU = 1.721 seconds

mass		1 1.0
mass		2 1.0
mass		3 1.0


group		solvent type 1
439061 atoms in group solvent


neighbor 	0.4 bin

pair_coeff	1 1 1.0 1.0
pair_coeff	2 2 0.0 0.0
pair_coeff	3 3 0.0 0.0
pair_coeff	2 3 0.0 0.0
pair_coeff	1 2*3 0.0 0.0

pair_modify 	shift yes


balance 	1.05 shift z 10 1.05
Balancing ...
Neighbor list info ...
  update every 1 steps, delay 10 steps, check yes
  max neighbors/atom: 2000, page size: 100000
  master list distance cutoff = 2.9
  ghost atom cutoff = 2.9
  binsize = 1.45, bins = 56 56 111
  1 neighbor lists, perpetual/occasional/extra = 1 0 0
  (1) pair lj/cut/opt, perpetual
      attributes: half, newton on
      pair build: half/bin/newton
      stencil: half/bin/3d/newton
      bin: standard
 rebalancing time: 0.025 seconds
  iteration count = 5
  initial/final maximal load/proc = 3162.0000 2575.0000
  initial/final imbalance factor  = 1.3827327 1.1260394
  x cuts: 0.0000000 0.16666667 0.33333333 0.50000000 0.66666667 0.83333333 1.0000000
  y cuts: 0.0000000 0.25000000 0.50000000 0.75000000 1.0000000
  z cuts: 0.0000000 0.097656250 0.18359375 0.27734375 0.37890625 0.47656250 0.57031250 0.67968750 1.0000000


####################### WALLS ###########################


variable       epsilonWall equal 2*${epsilon}
variable       epsilonWall equal 2*1

variable       cutoffTop   equal   0.7147*${sigma}
variable       cutoffTop   equal   0.7147*1

variable       cutoffLow   equal   3*${sigma}
variable       cutoffLow   equal   3*1


fix            topWall all wall/lj93 zhi EDGE                ${epsilonWall} ${sigma} ${cutoffTop} units box
fix            topWall all wall/lj93 zhi EDGE                2 ${sigma} ${cutoffTop} units box
fix            topWall all wall/lj93 zhi EDGE                2 1 ${cutoffTop} units box
fix            topWall all wall/lj93 zhi EDGE                2 1 0.7147 units box

fix            lowWall all wall/lj93 zlo EDGE                ${epsilonWall} ${sigma} ${cutoffLow} units box
fix            lowWall all wall/lj93 zlo EDGE                2 ${sigma} ${cutoffLow} units box
fix            lowWall all wall/lj93 zlo EDGE                2 1 ${cutoffLow} units box
fix            lowWall all wall/lj93 zlo EDGE                2 1 3 units box


###################### COMPUTES ##########################

compute        bin1 solvent chunk/atom bin/1d z upper 1.0



######################	FIXES ############################


fix 		peclet solvent ave/chunk 1000 1 1000 bin1 density/number norm 		 none ave one file density.profile

fix 		 temp solvent ave/chunk 1000 1 1000 bin1 temp norm none ave one file temp.profile

fix 		2 solvent nve

## Thermostat


region		regthermo block EDGE EDGE EDGE EDGE 0 20

group 		thermo dynamic solvent region regthermo every 1000
dynamic group thermo defined

fix 		3 thermo langevin ${startTemp} ${temp} 10 156453
fix 		3 thermo langevin 1.0 ${temp} 10 156453
fix 		3 thermo langevin 1.0 1.0 10 156453


## Evaporation

region		regevap block EDGE EDGE EDGE EDGE 140 158
fix 		gcmc solvent gcmc 100 100 0 1 780493 ${temp} ${mu} ${gcmcdisplace} region regevap
fix 		gcmc solvent gcmc 100 100 0 1 780493 1.0 ${mu} ${gcmcdisplace} region regevap
fix 		gcmc solvent gcmc 100 100 0 1 780493 1.0 -10 ${gcmcdisplace} region regevap
fix 		gcmc solvent gcmc 100 100 0 1 780493 1.0 -10 0 region regevap


#### Load balancing

fix 		bal all balance 1000 1.05 shift z 10 1.05

############### Diagnostics and computes ###################
#compute 	com cube	  rigid/local	1 mol x y z
#compute 	quat cube	  rigid/local	1 mol quatw quati quatj quatk

thermo 		1000
thermo_style 	custom step temp epair etotal press pe ke atoms

dump		1 all custom 100000 dump.lammpstrj id mol type x y z
dump 		2 all image 10000 image.*.png type type
dump 		3 all movie 1000 movie.avi type type
#dump 		com cube local 1000 dump.*.xyz c_com[*]
#dump		quat cube      local 1000 dump.*.quat c_quat[*]


restart 	1000000 restart.dat
timestep 	0.005
timer 		full
New timer settings: style=full  mode=nosync  timeout=off


run		5000000
Per MPI rank memory allocation (min/avg/max) = 9.923 | 9.986 | 10.01 Mbytes
Step Temp E_pair TotEng Press PotEng KinEng Atoms 
 3000000     1.016004   -3.1352716   -1.6112691  0.079025997   -3.1352716    1.5240025   439061 
 3001000    1.0138668   -3.1358588    -1.613363   0.07379812   -3.1358588    1.5224958   438571 
 3002000    1.0130713   -3.1378801   -1.6149015  0.074462725   -3.1378801    1.5229786   438088 
 3003000    1.0120821   -3.1394076   -1.6161568  0.073730434   -3.1394076    1.5232508   437582 
 3004000     1.010068   -3.1400241   -1.6181004  0.073680959   -3.1400241    1.5219237   437092 
 3005000     1.008377   -3.1402144   -1.6191299  0.075371804   -3.1402144    1.5210844   436601 
 3006000     1.008151   -3.1442895    -1.621771  0.075579549   -3.1442895    1.5225185   436092 
 3007000    1.0078946   -3.1469342   -1.6229751  0.078129852   -3.1469342    1.5239591   435569 
 3008000    1.0061745    -3.146463   -1.6233144   0.07186383    -3.146463    1.5231486   435057 
 3009000    1.0043601    -3.149297   -1.6271141  0.072859211    -3.149297    1.5221829   434548 
 3010000    1.0028593   -3.1484856    -1.626837  0.075186379   -3.1484856    1.5216486   434051 
 3011000    1.0031229   -3.1533809   -1.6296403  0.073900317   -3.1533809    1.5237406   433569 
 3012000    0.9999374   -3.1535957   -1.6328769  0.076196074   -3.1535957    1.5207187   433051 
 3013000   0.99900944    -3.155749    -1.634738  0.075626315    -3.155749     1.521011   432566 
 3014000   0.99881171   -3.1583397   -1.6359475  0.073610028   -3.1583397    1.5223922   432088 
 3015000   0.99785192   -3.1605084    -1.637877  0.068464183   -3.1605084    1.5226313   431605 
 3016000   0.99574043   -3.1603436   -1.6391261  0.070989491   -3.1603436    1.5212175   431092 
 3017000   0.99546164   -3.1643039   -1.6417924  0.069058498   -3.1643039    1.5225115   430605 
 3018000   0.99089547   -3.1602623   -1.6430185  0.073992903   -3.1602623    1.5172437   430118 
 3019000   0.99060288   -3.1637336   -1.6452927  0.064228149   -3.1637336    1.5184409   429652 
 3020000   0.98777042   -3.1653176   -1.6494615  0.060364303   -3.1653176    1.5158561   429154 
 3021000   0.98528413   -3.1659552   -1.6520944   0.06269547   -3.1659552    1.5138608   428638 
 3022000   0.98281763   -3.1652192    -1.653381  0.060453109   -3.1652192    1.5118382   428137 
 3023000   0.98076661   -3.1669799   -1.6564727  0.061299562   -3.1669799    1.5105072   427620 
 3024000   0.97969575   -3.1690437    -1.658377  0.065159199   -3.1690437    1.5106667   427108 
 3025000   0.97902876   -3.1712263   -1.6599215  0.062093347   -3.1712263    1.5113048   426637 
 3026000   0.97645432   -3.1719111   -1.6627197  0.060795216   -3.1719111    1.5091914   426111 
 3027000   0.97451394   -3.1747933   -1.6668103  0.056409623   -3.1747933    1.5079831   425605 
 3028000   0.97119483   -3.1746264   -1.6700331  0.056463181   -3.1746264    1.5045934   425111 
 3029000   0.97118263   -3.1759569   -1.6696142  0.049561811   -3.1759569    1.5063427   424612 
 3030000   0.97065417   -3.1763147   -1.6690487   0.05346823   -3.1763147    1.5072659   424121 
 3031000   0.96758624   -3.1759239   -1.6716485   0.05649482   -3.1759239    1.5042753   423621 
 3032000   0.96687433   -3.1800711   -1.6751263  0.055939069   -3.1800711    1.5049448   423121 
 3033000   0.96403522   -3.1796561   -1.6773338  0.050970837   -3.1796561    1.5023223   422615 
 3034000   0.96297381   -3.1815786   -1.6791434  0.057928709   -3.1815786    1.5024351   422118 
 3035000   0.96203598   -3.1838508   -1.6811167  0.057410155   -3.1838508    1.5027341   421623 
 3036000   0.96065106    -3.187421   -1.6851185  0.053681471    -3.187421    1.5023025   421137 
 3037000   0.95903549   -3.1893946    -1.687743   0.04896299   -3.1893946    1.5016516   420611 
 3038000   0.95737035   -3.1913945   -1.6905589  0.046935924   -3.1913945    1.5008356   420109 
 3039000   0.95656526   -3.1938258   -1.6923974  0.050015196   -3.1938258    1.5014283   419590 
 3040000   0.95319848    -3.192904   -1.6950109  0.048818281    -3.192904    1.4978931   419100 
 3041000   0.95304215   -3.1968069   -1.6974422  0.050214072   -3.1968069    1.4993647   418620 
 3042000   0.95141194   -3.1965678   -1.6980855  0.048720671   -3.1965678    1.4984823   418150 
 3043000   0.95008194   -3.1994111   -1.7013254  0.048731884   -3.1994111    1.4980858   417676 
 3044000   0.94925616   -3.2025073    -1.703944  0.046729642   -3.2025073    1.4985632   417180 
 3045000   0.94734042   -3.2043846   -1.7070511  0.048764581   -3.2043846    1.4973335   416680 
 3046000   0.94576321   -3.2066139   -1.7099342  0.045433724   -3.2066139    1.4966797   416168 
 3047000    0.9428404   -3.2071743   -1.7133575  0.044450714   -3.2071743    1.4938167   415677 
 3048000   0.94128088   -3.2097214   -1.7166191  0.038495634   -3.2097214    1.4931023   415188 
 3049000   0.94021338   -3.2117047   -1.7185551  0.044328886   -3.2117047    1.4931496   414704 
 3050000   0.94008094   -3.2144062   -1.7196466  0.044566316   -3.2144062    1.4947595   414199 
 3051000   0.93777213   -3.2150095   -1.7220901  0.043119098   -3.2150095    1.4929195   413691 
 3052000   0.93500282    -3.218095   -1.7277108  0.041249258    -3.218095    1.4903841   413171 
 3053000   0.93227798   -3.2192574   -1.7313152  0.042859523   -3.2192574    1.4879423   412643 
 3054000   0.93051985   -3.2205631   -1.7336071  0.040225313   -3.2205631     1.486956   412138 
 3055000   0.92856421   -3.2230906   -1.7374573  0.041247569   -3.2230906    1.4856333   411638 
 3056000   0.92829375   -3.2274496   -1.7405043  0.038648754   -3.2274496    1.4869453   411155 
 3057000   0.92471884   -3.2264389   -1.7434887  0.038022939   -3.2264389    1.4829502   410675 
 3058000   0.92234096   -3.2275628   -1.7466771  0.035211879   -3.2275628    1.4808858   410190 
 3059000   0.92254749   -3.2311688   -1.7481219   0.03415564   -3.2311688    1.4830468   409684 
 3060000   0.91966135   -3.2316241   -1.7514936  0.028275861   -3.2316241    1.4801305   409207 
 3061000   0.91769179   -3.2324872   -1.7537377  0.033834201   -3.2324872    1.4787494   408712 
 3062000   0.91758945    -3.237785   -1.7574076  0.027777111    -3.237785    1.4803774   408217 
 3063000   0.91602289   -3.2401718   -1.7605675  0.031601852   -3.2401718    1.4796043   407733 
 3064000   0.91349958   -3.2380678   -1.7607783  0.031145521   -3.2380678    1.4772894   407247 
 3065000   0.91450837   -3.2424847   -1.7617058  0.029957416   -3.2424847    1.4807789   406736 
 3066000   0.91090781   -3.2410804   -1.7643635  0.035869859   -3.2410804    1.4767169   406249 
 3067000   0.91213896   -3.2468507   -1.7664215  0.031528969   -3.2468507    1.4804292   405778 
 3068000   0.91004554   -3.2489758   -1.7701038  0.033041197   -3.2489758     1.478872   405273 
 3069000   0.90925753   -3.2512515   -1.7717983  0.031001007   -3.2512515    1.4794532   404763 
 3070000   0.90812342   -3.2546428   -1.7750976   0.02937178   -3.2546428    1.4795452   404233 
 3071000   0.90576601    -3.256415   -1.7788611  0.028839751    -3.256415     1.477554   403727 
 3072000   0.90482618   -3.2599958    -1.782141   0.02724467   -3.2599958    1.4778548   403226 
 3073000   0.90370909   -3.2631169   -1.7852174   0.03131815   -3.2631169    1.4778995   402716 
 3074000   0.90105076   -3.2629681   -1.7875806  0.027900261   -3.2629681    1.4753876   402215 
 3075000   0.90133529   -3.2668364   -1.7892379  0.026582296   -3.2668364    1.4775985   401740 
 3076000    0.8977822   -3.2678584   -1.7942727  0.027135157   -3.2678584    1.4735857   401246 
 3077000   0.89693837   -3.2717178    -1.797684  0.023973329   -3.2717178    1.4740338   400747 
 3078000   0.89251588   -3.2706481   -1.8021049  0.022641026   -3.2706481    1.4685432   400262 
 3079000   0.89278567   -3.2755649   -1.8048104  0.025324965   -3.2755649    1.4707545   399781 
 3080000    0.8923242   -3.2787404    -1.807038  0.024925617   -3.2787404    1.4717024   399317 
 3081000   0.89042707   -3.2819297   -1.8115151  0.026226992   -3.2819297    1.4704147   398817 
 3082000   0.88936544   -3.2853812    -1.814924  0.023591403   -3.2853812    1.4704571   398330 
 3083000   0.88794826   -3.2880621   -1.8180808  0.024302108   -3.2880621    1.4699813   397824 
 3084000   0.88569273   -3.2888638   -1.8207972   0.02304598   -3.2888638    1.4680666   397331 
 3085000   0.88399832   -3.2929892   -1.8259071  0.015798074   -3.2929892    1.4670821   396837 
 3086000   0.88174777     -3.29386   -1.8287149  0.017706998     -3.29386    1.4651451   396350 
 3087000   0.87991782   -3.2939544   -1.8298885  0.022307168   -3.2939544    1.4640658   395819 
 3088000   0.87922242   -3.2991981   -1.8344576  0.017303807   -3.2991981    1.4647405   395324 
 3089000   0.87775774   -3.3009182   -1.8368252  0.017359353   -3.3009182     1.464093   394840 
 3090000   0.87629905   -3.3053337   -1.8418242  0.017780205   -3.3053337    1.4635095   394341 
 3091000   0.87586872    -3.308286    -1.843653  0.018450017    -3.308286     1.464633   393845 
 3092000   0.87465282   -3.3113108   -1.8469003   0.02190052   -3.3113108    1.4644105   393358 
 3093000   0.87314375   -3.3118497   -1.8481201  0.022932869   -3.3118497    1.4637296   392862 
 3094000   0.87240608   -3.3162414   -1.8519444  0.017959264   -3.3162414     1.464297   392378 
 3095000   0.87056999   -3.3162211   -1.8530931  0.014460845   -3.3162211    1.4631281   391865 
 3096000   0.86898283   -3.3199423   -1.8575635  0.019436657   -3.3199423    1.4623788   391351 
 3097000    0.8671275   -3.3236778   -1.8625096  0.020473865   -3.3236778    1.4611682   390839 
 3098000   0.86581561   -3.3251275   -1.8644022  0.016111801   -3.3251275    1.4607253   390366 
 3099000   0.86448077    -3.327825   -1.8678781  0.015938481    -3.327825    1.4599468   389972 
 3100000   0.86425558   -3.3316895   -1.8708905  0.015224516   -3.3316895    1.4607989   389643 
 3101000   0.86277696   -3.3325216   -1.8729108  0.013798071   -3.3325216    1.4596108   389293 
 3102000   0.85945105   -3.3305887   -1.8752661  0.015757489   -3.3305887    1.4553225   388935 
 3103000   0.85920809    -3.331229   -1.8750937  0.017384359    -3.331229    1.4561354   388608 
 3104000   0.85874928   -3.3343852   -1.8776179   0.01183895   -3.3343852    1.4567673   388232 
 3105000   0.85729015   -3.3345767   -1.8790324  0.013708411   -3.3345767    1.4555443   387898 
 3106000   0.85707756   -3.3367578   -1.8804858  0.016053628   -3.3367578    1.4562721   387608 
 3107000   0.85521657   -3.3384891   -1.8839568  0.015995747   -3.3384891    1.4545323   387229 
 3108000    0.8541864   -3.3395082   -1.8854025   0.01583976   -3.3395082    1.4541058   386876 
 3109000   0.85203904   -3.3400824   -1.8883375  0.014326761   -3.3400824    1.4517449   386531 
 3110000     0.850556    -3.341753   -1.8912929  0.019061345    -3.341753    1.4504601   386200 
 3111000    0.8509385   -3.3446329   -1.8923284 0.0082609879   -3.3446329    1.4523044   385883 
 3112000   0.85020481   -3.3472539   -1.8950049 0.0090209562   -3.3472539     1.452249   385565 
 3113000   0.84881679   -3.3467466   -1.8957884  0.012260487   -3.3467466    1.4509581   385278 
 3114000   0.84875366   -3.3499078   -1.8978289  0.017562534   -3.3499078    1.4520789   384952 
 3115000   0.84597149   -3.3488731   -1.9003311  0.015269238   -3.3488731     1.448542   384627 
 3116000   0.84472806   -3.3512617   -1.9037461  0.014439594   -3.3512617    1.4475156   384334 
 3117000   0.84643611   -3.3547785   -1.9031916  0.011587365   -3.3547785    1.4515869   384031 
 3118000   0.84540298   -3.3544542   -1.9035094  0.012344873   -3.3544542    1.4509448   383732 
 3119000   0.84466997   -3.3561278   -1.9053825   0.01499321   -3.3561278    1.4507453   383452 
 3120000   0.84355968   -3.3567534   -1.9067731  0.012359961   -3.3567534    1.4499803   383150 
 3121000   0.84149294   -3.3582443   -1.9107511  0.012653736   -3.3582443    1.4474932   382868 
 3122000   0.83970177   -3.3570519    -1.911526  0.015146973   -3.3570519    1.4455259   382573 
 3123000   0.84008526   -3.3597487   -1.9125185  0.015412035   -3.3597487    1.4472302   382297 
 3124000   0.83861645   -3.3606514   -1.9148889  0.015889622   -3.3606514    1.4457625   382016 
 3125000   0.83757225   -3.3608875   -1.9158547  0.015160599   -3.3608875    1.4450328   381733 
 3126000   0.83527237   -3.3621885   -1.9200734   0.01379813   -3.3621885    1.4421151   381455 
 3127000   0.83613967   -3.3658118   -1.9212715  0.015160348   -3.3658118    1.4445403   381210 
 3128000   0.83472397   -3.3668427    -1.923745  0.010079716   -3.3668427    1.4430977   380945 
 3129000   0.83418644   -3.3696311   -1.9264209  0.010140442   -3.3696311    1.4432103   380670 
 3130000   0.83209286   -3.3696022    -1.928924  0.014985739   -3.3696022    1.4406782   380382 
 3131000   0.83078186   -3.3714476   -1.9318585  0.012471333   -3.3714476    1.4395891   380070 
 3132000   0.83044444   -3.3722473   -1.9322881  0.012919307   -3.3722473    1.4399592   379818 
 3133000   0.83052962   -3.3745152   -1.9333991  0.015478848   -3.3745152    1.4411161   379552 
 3134000   0.83004222   -3.3756943   -1.9344024 0.0094990365   -3.3756943    1.4412919   379283 
 3135000   0.82794249   -3.3742138   -1.9355171  0.013965776   -3.3742138    1.4386966   379006 
 3136000   0.82839286   -3.3764949   -1.9360009  0.011420816   -3.3764949     1.440494   378739 
 3137000   0.82705394   -3.3761178   -1.9369489  0.018681038   -3.3761178    1.4391689   378475 
 3138000   0.82560004   -3.3774666   -1.9398894   0.01604668   -3.3774666    1.4375771   378228 
 3139000   0.82657565   -3.3822109    -1.941983  0.021246768   -3.3822109    1.4402279   377978 
 3140000   0.82461337   -3.3829281   -1.9452482     0.019577   -3.3829281    1.4376798   377749 
 3141000   0.82385004    -3.386208   -1.9488125  0.015603324    -3.386208    1.4373954   377474 
 3142000   0.82387668   -3.3891699   -1.9507601  0.017708488   -3.3891699    1.4384098   377220 
 3143000    0.8234419   -3.3890038   -1.9504875  0.018447635   -3.3890038    1.4385164   376993 
 3144000   0.82244649   -3.3905641   -1.9526883  0.019079556   -3.3905641    1.4378759   376705 
 3145000   0.82190856   -3.3928903   -1.9549891  0.013315105   -3.3928903    1.4379011   376452 
 3146000   0.81898923   -3.3903541   -1.9566843  0.016146005   -3.3903541    1.4336698   376222 
 3147000   0.81925248   -3.3925091   -1.9574592  0.017825713   -3.3925091    1.4350499   375981 
 3148000   0.81887589   -3.3935645    -1.958281  0.019604161   -3.3935645    1.4352835   375747 
 3149000   0.81664863   -3.3911434   -1.9588794  0.016597291   -3.3911434     1.432264   375515 
 3150000   0.81762688   -3.3958996   -1.9609149   0.01483705   -3.3958996    1.4349847   375252 
 3151000   0.81567274   -3.3946974   -1.9622529  0.012537134   -3.3946974    1.4324445   375019 
 3152000   0.81636611   -3.3990538    -1.964531  0.018763355   -3.3990538    1.4345228   374794 
 3153000   0.81633395    -3.402119   -1.9667143 0.0096005647    -3.402119    1.4354046   374549 
 3154000   0.81393623   -3.4000561   -1.9679766  0.019833305   -3.4000561    1.4320795   374316 
 3155000   0.81268015   -3.3999184   -1.9691966  0.018195028   -3.3999184    1.4307218   374093 
 3156000   0.81296641   -3.4038329    -1.971696  0.018505508   -3.4038329    1.4321369   373855 
 3157000   0.81189896   -3.4037694   -1.9726018  0.021443548   -3.4037694    1.4311676   373617 
 3158000   0.81311366   -3.4092817   -1.9750362  0.017125626   -3.4092817    1.4342455   373373 
 3159000   0.81324976   -3.4123595   -1.9770167  0.016403211   -3.4123595    1.4353428   373150 
 3160000   0.81004097   -3.4107832   -1.9801452  0.024694583   -3.4107832    1.4306379   372900 
 3161000   0.81179786   -3.4155411   -1.9809424   0.02093881   -3.4155411    1.4345987   372677 
 3162000   0.80794888   -3.4130716   -1.9843623  0.015826624   -3.4130716    1.4287093   372439 
 3163000   0.80677722   -3.4107844    -1.983277  0.027727715   -3.4107844    1.4275075   372212 
 3164000   0.80942428     -3.41784   -1.9848095  0.019800243     -3.41784    1.4330305   371994 
 3165000   0.80510412   -3.4125744   -1.9863222  0.019521854   -3.4125744    1.4262523   371767 
 3166000   0.80315091   -3.4123413   -1.9886454  0.014279442   -3.4123413    1.4236959   371531 
 3167000   0.80311886    -3.414132   -1.9896647  0.022672496    -3.414132    1.4244672   371315 
 3168000   0.80304139   -3.4174338    -1.992152  0.020344837   -3.4174338    1.4252818   371067 
 3169000   0.80320747   -3.4194502   -1.9929241  0.017207733   -3.4194502    1.4265261   370820 
 3170000   0.79984752   -3.4165243   -1.9950302  0.022902095   -3.4165243     1.421494   370576 
 3171000   0.80159968    -3.421102   -1.9956631  0.025523304    -3.421102    1.4254388   370360 
 3172000   0.80132615   -3.4240135   -1.9982526  0.019184965   -3.4240135    1.4257609   370150 
 3173000    0.7994026   -3.4233096   -2.0000715  0.020857026   -3.4233096    1.4232381   369916 
 3174000   0.79796087   -3.4224251     -2.00082  0.021414461   -3.4224251    1.4216052   369673 
 3175000   0.79785764   -3.4232779   -2.0008909   0.01985652   -3.4232779     1.422387   369422 
 3176000   0.79703088   -3.4236897   -2.0018221  0.021487103   -3.4236897    1.4218677   369174 
 3177000    0.7958374   -3.4255365   -2.0048436  0.025419586   -3.4255365    1.4206929   368926 
 3178000    0.7952924   -3.4266397   -2.0059531  0.020811239   -3.4266397    1.4206866   368675 
 3179000   0.79356904   -3.4256432   -2.0071272  0.021951034   -3.4256432     1.418516   368439 
 3180000   0.79293944   -3.4271185   -2.0087924  0.026680318   -3.4271185    1.4183261   368196 
 3181000   0.79311894   -3.4285583   -2.0089935  0.023789224   -3.4285583    1.4195647   367958 
 3182000   0.79093257   -3.4259827   -2.0094343  0.022365355   -3.4259827    1.4165484   367725 
 3183000   0.78935359   -3.4234092   -2.0088231  0.028126189   -3.4234092    1.4145861   367500 
 3184000   0.79052787   -3.4283456    -2.010741  0.025189007   -3.4283456    1.4176047   367263 
 3185000   0.78823571    -3.426351   -2.0119247  0.019056937    -3.426351    1.4144263   367021 
 3186000    0.7889962   -3.4276987   -2.0109891  0.025502878   -3.4276987    1.4167096   366783 
 3187000   0.78910109   -3.4294554   -2.0116723  0.027081323   -3.4294554    1.4177831   366554 
 3188000   0.78745348   -3.4298737    -2.014147  0.027344871   -3.4298737    1.4157267   366320 
 3189000   0.78657979   -3.4287221   -2.0137087  0.026896816   -3.4287221    1.4150134   366098 
 3190000   0.78526816   -3.4281856   -2.0145626  0.025498674   -3.4281856    1.4136231   365847 
 3191000   0.78393476   -3.4268924   -2.0148089  0.024379029   -3.4268924    1.4120834   365624 
 3192000   0.78313893    -3.427655   -2.0160785  0.025961185    -3.427655    1.4115765   365384 
 3193000   0.78334183   -3.4298197    -2.017023  0.026105222   -3.4298197    1.4127967   365163 
 3194000   0.78165085   -3.4284477   -2.0176769  0.028393125   -3.4284477    1.4107708   364898 
 3195000   0.78290403   -3.4327804   -2.0188294  0.030425533   -3.4327804    1.4139509   364661 
 3196000   0.78069615   -3.4301993   -2.0194506  0.027501088   -3.4301993    1.4107488   364458 
 3197000   0.77951131   -3.4288934   -2.0194659   0.02854839   -3.4288934    1.4094276   364246 
 3198000   0.77860066   -3.4300629   -2.0212956  0.027148245   -3.4300629    1.4087673   363991 
 3199000   0.77827617   -3.4314223    -2.022344  0.023307184   -3.4314223    1.4090783   363759 
 3200000   0.77576651   -3.4283625   -2.0228311  0.027899808   -3.4283625    1.4055314   363501 
 3201000   0.77648009   -3.4319699   -2.0238829  0.026227135   -3.4319699    1.4080871   363175 
 3202000    0.7735395   -3.4296413   -2.0253982  0.026686694   -3.4296413    1.4042432   362790 
 3203000   0.77466029   -3.4324836   -2.0244321  0.027272293   -3.4324836    1.4080515   362333 
 3204000   0.77172641   -3.4267984   -2.0223664  0.025756089   -3.4267984     1.404432   361891 
 3205000   0.77046295   -3.4248535   -2.0209013  0.028639542   -3.4248535    1.4039521   361422 
 3206000   0.76980281    -3.422636   -2.0182198  0.025920955    -3.422636    1.4044163   360993 
 3207000   0.76924607   -3.4183089   -2.0133438  0.027390455   -3.4183089    1.4049651   360591 
 3208000   0.76841769   -3.4135607   -2.0086047  0.028638801   -3.4135607    1.4049561   360205 
 3209000   0.76698748   -3.4072416   -2.0033688  0.027489077   -3.4072416    1.4038728   359812 
 3210000   0.76692197   -3.4037228   -1.9983255  0.030377069   -3.4037228    1.4053973   359391 
 3211000   0.76730241   -3.4018572   -1.9942392  0.033940774   -3.4018572     1.407618   359002 
 3212000   0.76675034   -3.3954576   -1.9871694  0.030641497   -3.3954576    1.4082881   358573 
 3213000   0.76320123   -3.3848476    -1.981446  0.031398721   -3.3848476    1.4034016   358156 
 3214000   0.76382558   -3.3803777   -1.9740572  0.029137454   -3.3803777    1.4063205   357705 
 3215000   0.76259778   -3.3732667   -1.9675247  0.034910236   -3.3732667     1.405742   357277 
 3216000   0.76387742     -3.37214   -1.9623187  0.034344634     -3.37214    1.4098213   356841 
 3217000   0.76235078   -3.3632903   -1.9544389  0.031967619   -3.3632903    1.4088514   356373 
 3218000   0.76133233   -3.3550955   -1.9463197  0.033736928   -3.3550955    1.4087758   355916 
 3219000   0.76267784   -3.3521518   -1.9389525  0.037387478   -3.3521518    1.4131992   355429 
 3220000   0.76295165   -3.3449495   -1.9292514  0.034460888   -3.3449495    1.4156981   354929 
 3221000   0.76122987   -3.3361189   -1.9217147  0.034284531   -3.3361189    1.4144042   354452 
 3222000   0.76111574   -3.3313145   -1.9151887  0.037229499   -3.3313145    1.4161258   353968 
 3223000   0.76233562   -3.3284389   -1.9081214  0.045182595   -3.3284389    1.4203175   353489 
 3224000   0.76502971   -3.3271619   -1.8998061  0.048038808   -3.3271619    1.4273559   352989 
 3225000   0.76698924   -3.3258522   -1.8927942  0.046951521   -3.3258522     1.433058   352485 
 3226000   0.76908911   -3.3243202   -1.8853425  0.059072546   -3.3243202    1.4389777   351996 
 3227000   0.77128499    -3.322687   -1.8776508  0.064336634    -3.322687    1.4450362   351521 
 3228000   0.77017201   -3.3145147   -1.8696482  0.064767954   -3.3145147    1.4448664   351055 
 3229000   0.76930868   -3.3062528   -1.8609639  0.060244714   -3.3062528    1.4452888   350559 
 3230000   0.77024016    -3.302012    -1.853014  0.054444936    -3.302012     1.448998   350085 
 3231000   0.76947791   -3.2935118   -1.8439479  0.065739228   -3.2935118     1.449564   349602 
 3232000   0.77022178   -3.2889084   -1.8358857   0.06160687   -3.2889084    1.4530226   349107 
 3233000   0.77027466   -3.2837236   -1.8285964   0.05647802   -3.2837236    1.4551272   348626 
 3234000   0.76827949   -3.2744844   -1.8210751  0.057786608   -3.2744844    1.4534093   348134 
 3235000   0.76854821   -3.2690066   -1.8129726  0.055353838   -3.2690066    1.4560339   347628 
 3236000   0.76679942    -3.258894   -1.8040891  0.055247051    -3.258894    1.4548049   347130 
 3237000   0.76480306   -3.2495783   -1.7965853  0.050355561   -3.2495783     1.452993   346658 
 3238000   0.76377486   -3.2433117   -1.7902391  0.053488561   -3.2433117    1.4530726   346173 
 3239000    0.7622032   -3.2348371   -1.7828294  0.050750839   -3.2348371    1.4520077   345714 
 3240000   0.76129488   -3.2295747   -1.7772935  0.051298738   -3.2295747    1.4522812   345237 
 3241000   0.76096579   -3.2225613    -1.768832  0.043707566   -3.2225613    1.4537293   344744 
 3242000   0.76025754   -3.2159589   -1.7615491  0.052581749   -3.2159589    1.4544098   344262 
 3243000    0.7603359    -3.210266   -1.7535822  0.050821028    -3.210266    1.4566838   343760 
 3244000   0.75884802   -3.2025477   -1.7466349  0.051306735   -3.2025477    1.4559128   343269 
 3245000   0.76011423    -3.200267   -1.7399893  0.044592333    -3.200267    1.4602777   342814 
 3246000    0.7577929   -3.1912394   -1.7332395  0.049409509   -3.1912394    1.4579999   342301 
 3247000    0.7571651   -3.1849685   -1.7261436   0.05275056   -3.1849685    1.4588249   341824 
 3248000   0.75817574   -3.1825566   -1.7196018  0.051911235   -3.1825566    1.4629548   341314 
 3249000    0.7572736   -3.1765767   -1.7131802  0.048804081   -3.1765767    1.4633964   340805 
 3250000   0.75604231   -3.1691509   -1.7060517  0.052997445   -3.1691509    1.4630991   340320 
 3251000   0.75487126   -3.1633311   -1.7003961  0.047706853   -3.1633311     1.462935   339831 
 3252000   0.75419979   -3.1581972   -1.6944832  0.046202583   -3.1581972    1.4637141   339348 
 3253000   0.75213535   -3.1517962   -1.6899304  0.051568164   -3.1517962    1.4618657   338847 
 3254000   0.75164337   -3.1466887   -1.6836376   0.04963164   -3.1466887    1.4630511   338351 
 3255000   0.75148735   -3.1430842   -1.6781807  0.046722572   -3.1430842    1.4649035   337853 
 3256000   0.75252099   -3.1417647   -1.6727592  0.048226163   -3.1417647    1.4690055   337373 
 3257000   0.74963345   -3.1332334   -1.6677057  0.050905019   -3.1332334    1.4655276   336876 
 3258000   0.74972074   -3.1300044   -1.6620227  0.050059813   -3.1300044    1.4679817   336352 
 3259000   0.74739299   -3.1223651   -1.6567015   0.04998351   -3.1223651    1.4656636   335838 
 3260000   0.74787346   -3.1204626   -1.6516831  0.049789973   -3.1204626    1.4687795   335341 
 3261000   0.74754405   -3.1171047   -1.6468589   0.05324542   -3.1171047    1.4702458   334859 
 3262000   0.74638314   -3.1127164   -1.6425367  0.054370166   -3.1127164    1.4701797   334354 
 3263000   0.74424631    -3.106164   -1.6380329  0.052811076    -3.106164    1.4681311   333862 
 3264000   0.74408721   -3.1040606   -1.6339889  0.051075849   -3.1040606    1.4700717   333350 
 3265000   0.74400845   -3.1022592   -1.6300952   0.05433161   -3.1022592     1.472164   332841 
 3266000    0.7419686   -3.0972721   -1.6269843  0.052391195   -3.0972721    1.4702878   332352 
 3267000   0.74240663   -3.0954993   -1.6221846  0.050723192   -3.0954993    1.4733147   331865 
 3268000   0.74091514   -3.0902587   -1.6176941  0.055191628   -3.0902587    1.4725646   331367 
 3269000   0.73988972   -3.0847698   -1.6120165  0.056052295   -3.0847698    1.4727532   330866 
 3270000   0.73815693   -3.0789281   -1.6075071  0.051347831   -3.0789281     1.471421   330390 
 3271000   0.73785244   -3.0759675   -1.6030314  0.048820124   -3.0759675    1.4729361   329914 
 3272000   0.73755477   -3.0746287   -1.6000431  0.053222451   -3.0746287    1.4745856   329412 
 3273000   0.73800126   -3.0741701   -1.5963635  0.051699182   -3.0741701    1.4778066   328893 
 3274000   0.73720333   -3.0710006   -1.5926027  0.056072721   -3.0710006    1.4783979   328406 
 3275000   0.73546293   -3.0667461   -1.5895714  0.051553745   -3.0667461    1.4771747   327902 
 3276000   0.73564622   -3.0650187   -1.5853505  0.054861305   -3.0650187    1.4796682   327431 
 3277000   0.73221158   -3.0594791   -1.5845662  0.053487519   -3.0594791     1.474913   326953 
 3278000   0.73190197   -3.0569101   -1.5804215  0.055467444   -3.0569101    1.4764886   326466 
 3279000   0.73140108   -3.0533475   -1.5756424  0.052285785   -3.0533475    1.4777051   325974 
 3280000   0.73088929    -3.051656   -1.5727209  0.057093439    -3.051656     1.478935   325475 
 3281000   0.73001239   -3.0502529   -1.5708696  0.051674619   -3.0502529    1.4793833   324986 
 3282000   0.72921387    -3.048777   -1.5688489  0.053477042    -3.048777    1.4799281   324511 
 3283000   0.72966158   -3.0508062   -1.5677026  0.055361609   -3.0508062    1.4831036   324015 
 3284000   0.72654952   -3.0451324   -1.5659714  0.054353451   -3.0451324    1.4791611   323493 
 3285000   0.72476582    -3.043506   -1.5657333  0.054743193    -3.043506    1.4777726   323002 
 3286000   0.72348875    -3.042326   -1.5648473  0.058275272    -3.042326    1.4774787   322497 
 3287000   0.72232022   -3.0423847   -1.5649926  0.055291877   -3.0423847    1.4773921   321995 
 3288000    0.7205904   -3.0409126   -1.5647067  0.057745404   -3.0409126    1.4762059   321482 
 3289000   0.71969452   -3.0412376   -1.5645473  0.054455773   -3.0412376    1.4766903   320977 
 3290000   0.71727307    -3.038991   -1.5650972  0.054695453    -3.038991    1.4738938   320504 
 3291000   0.71731048   -3.0409125   -1.5646526  0.053350234   -3.0409125    1.4762599   320007 
 3292000    0.7160044   -3.0412643   -1.5652339  0.054575466   -3.0412643    1.4760304   319474 
 3293000    0.7141979   -3.0408103   -1.5662654  0.053727536   -3.0408103    1.4745449   318989 
 3294000   0.71269602   -3.0416456   -1.5678637  0.053074515   -3.0416456    1.4737819   318483 
 3295000   0.71298361   -3.0470178   -1.5703694  0.051584113   -3.0470178    1.4766485   317993 
 3296000   0.71068214   -3.0464911   -1.5722076  0.052969558   -3.0464911    1.4742835   317475 
 3297000   0.71007432   -3.0504808   -1.5751113  0.054459642   -3.0504808    1.4753694   316970 
 3298000    0.7091681   -3.0543827   -1.5786335  0.053915815   -3.0543827    1.4757492   316484 
 3299000   0.70728088   -3.0556342   -1.5815485  0.052841541   -3.0556342    1.4740856   315998 
 3300000   0.70679018   -3.0581666   -1.5828019  0.051074987   -3.0581666    1.4753647   315505 
 3301000   0.70448738   -3.0582317   -1.5854192  0.050417297   -3.0582317    1.4728125   315022 
 3302000   0.70238527   -3.0603681    -1.589686  0.053234694   -3.0603681     1.470682   314537 
 3303000   0.69910089   -3.0587501    -1.592521  0.055227618   -3.0587501    1.4662291   314017 
 3304000   0.69846618   -3.0641836   -1.5970758  0.046986879   -3.0641836    1.4671078   313544 
 3305000   0.69853881   -3.0699835   -1.6005063  0.048482074   -3.0699835    1.4694771   313071 
 3306000   0.69588228    -3.071284   -1.6050348  0.045218958    -3.071284    1.4662492   312567 
 3307000   0.69544053   -3.0761926   -1.6084747  0.045471154   -3.0761926    1.4677179   312056 
 3308000   0.69287898   -3.0772862   -1.6125618  0.046531939   -3.0772862    1.4647244   311542 
 3309000   0.69422256   -3.0856643   -1.6158114   0.05057881   -3.0856643    1.4698529   311057 
 3310000   0.69192687   -3.0886301   -1.6212744  0.049230833   -3.0886301    1.4673557   310556 
 3311000   0.69071758   -3.0913494   -1.6241961  0.048744278   -3.0913494    1.4671533   310056 
 3312000   0.68805825   -3.0919873   -1.6280937  0.045109832   -3.0919873    1.4638937   309550 
 3313000   0.68498687    -3.092428   -1.6326591  0.046099349    -3.092428    1.4597688   309039 
 3314000   0.68473674    -3.098563   -1.6371377  0.042306372    -3.098563    1.4614253   308576 
 3315000   0.68224712   -3.0995069    -1.641013  0.039398111   -3.0995069    1.4584939   308072 
 3316000   0.68057347   -3.1028837   -1.6455836  0.042843716   -3.1028837    1.4573001   307568 
 3317000   0.68011745    -3.109277   -1.6505107   0.04391138    -3.109277    1.4587663   307053 
 3318000   0.67931023   -3.1156951   -1.6562314   0.04313706   -3.1156951    1.4594637   306542 
 3319000   0.67695071   -3.1169683    -1.660093  0.042070448   -3.1169683    1.4568753   306020 
 3320000   0.67499177   -3.1196361   -1.6645898  0.044887277   -3.1196361    1.4550463   305518 
 3321000   0.67385294   -3.1239063   -1.6689099  0.038591397   -3.1239063    1.4549964   305013 
 3322000   0.67171742   -3.1250715   -1.6722856  0.042805071   -3.1250715    1.4527859   304509 
 3323000   0.66922588   -3.1289994   -1.6790357   0.03938202   -3.1289994    1.4499637   303970 
 3324000   0.66746771   -3.1314164   -1.6829604  0.040956065   -3.1314164     1.448456   303487 
 3325000   0.66727425   -3.1369345   -1.6866667  0.042373126   -3.1369345    1.4502678   303020 
 3326000   0.66714164   -3.1458019   -1.6934402   0.03708146   -3.1458019    1.4523617   302523 
 3327000   0.66592066   -3.1493033   -1.6972478   0.04294351   -3.1493033    1.4520555   302033 
 3328000   0.66345979   -3.1519177   -1.7029446  0.038856184   -3.1519177    1.4489731   301557 
 3329000   0.66147999   -3.1538827   -1.7069062  0.037814607   -3.1538827    1.4469765   301072 
 3330000   0.65935299   -3.1548186   -1.7101196  0.033495796   -3.1548186     1.444699   300577 
 3331000   0.65614818   -3.1542438   -1.7141089  0.034198222   -3.1542438    1.4401349   300064 
 3332000    0.6564876   -3.1608373   -1.7175621  0.034840632   -3.1608373    1.4432752   299566 
 3333000   0.65435159   -3.1620114   -1.7211957  0.037256272   -3.1620114    1.4408157   299101 
 3334000   0.65456249   -3.1671454    -1.723539  0.037633402   -3.1671454    1.4436064   298619 
 3335000   0.65363002   -3.1724346   -1.7284379  0.036897424   -3.1724346    1.4439967   298113 
 3336000   0.65092298   -3.1710239   -1.7308384  0.038881399   -3.1710239    1.4401855   297664 
 3337000   0.64815643   -3.1702044   -1.7336835  0.037962883   -3.1702044    1.4365208   297155 
 3338000   0.64676174   -3.1727577   -1.7369943  0.036183937   -3.1727577    1.4357635   296672 
 3339000   0.64576668   -3.1768356   -1.7408707  0.035926657   -3.1768356    1.4359649   296174 
 3340000   0.64256595   -3.1740286   -1.7427599  0.038142211   -3.1740286    1.4312687   295673 
 3341000    0.6423294   -3.1772187   -1.7441893  0.038129783   -3.1772187    1.4330294   295201 
 3342000   0.63897012   -3.1706572   -1.7429217   0.03662917   -3.1706572    1.4277355   294746 
 3343000   0.63878587   -3.1709993   -1.7411869  0.036735629   -3.1709993    1.4298124   294233 
 3344000   0.63823053   -3.1695791   -1.7387485  0.034272144   -3.1695791    1.4308306   293768 
 3345000   0.63853065   -3.1684626   -1.7347043  0.044171573   -3.1684626    1.4337583   293306 
 3346000   0.63803695    -3.166192   -1.7312624  0.041144845    -3.166192    1.4349295   292840 
 3347000   0.63604881   -3.1591144   -1.7265673  0.042626492   -3.1591144    1.4325471   292413 
 3348000   0.63666482   -3.1572388    -1.721227  0.040943704   -3.1572388    1.4360118   291990 
 3349000   0.63482141    -3.150591   -1.7167433  0.040771914    -3.150591    1.4338477   291584 
 3350000   0.63489893    -3.146548   -1.7103976  0.037595007    -3.146548    1.4361505   291152 
 3351000   0.63315967   -3.1389356   -1.7045763  0.037069665   -3.1389356    1.4343593   290717 
 3352000   0.63368327   -3.1355488   -1.6976937   0.04380066   -3.1355488    1.4378552   290250 
 3353000   0.63350637   -3.1318386   -1.6920782  0.044256062   -3.1318386    1.4397604   289785 
 3354000   0.63311869   -3.1255182    -1.684142  0.045106703   -3.1255182    1.4413762   289283 
 3355000   0.63253967   -3.1195599   -1.6771734  0.042832762   -3.1195599    1.4423865   288816 
 3356000   0.63154276   -3.1124134   -1.6699478  0.048943397   -3.1124134    1.4424656   288345 
 3357000   0.63039974   -3.1047285   -1.6623274  0.043179464   -3.1047285    1.4424011   287836 
 3358000   0.62965957   -3.0978652   -1.6547511  0.046727905   -3.0978652    1.4431141   287356 
 3359000   0.63144669   -3.0977116   -1.6481004  0.046636714   -3.0977116    1.4496112   286880 
 3360000   0.63006752   -3.0878694   -1.6389596  0.050959716   -3.0878694    1.4489098   286392 
 3361000    0.6294796   -3.0818757   -1.6319181  0.051241119   -3.0818757    1.4499576   285918 
 3362000   0.62934704   -3.0762975   -1.6242177  0.049795071   -3.0762975    1.4520798   285440 
 3363000   0.62935642   -3.0698178   -1.6151478  0.049286554   -3.0698178      1.45467   284936 
 3364000   0.62956122   -3.0648377   -1.6071928  0.051164357   -3.0648377    1.4576449   284447 
 3365000   0.62939279   -3.0578062   -1.5980469  0.060509766   -3.0578062    1.4597593   283959 
 3366000   0.63106748   -3.0556442   -1.5894811  0.063001505   -3.0556442    1.4661631   283471 
 3367000   0.63317647   -3.0539483   -1.5803172    0.0636943   -3.0539483    1.4736311   282977 
 3368000   0.63551245   -3.0534373   -1.5717935  0.066800626   -3.0534373    1.4816438   282485 
 3369000   0.63570885   -3.0488604   -1.5641887  0.070271314   -3.0488604    1.4846717   281996 
 3370000   0.63634794   -3.0415657   -1.5527457  0.071609885   -3.0415657    1.4888199   281493 
 3371000   0.63478247   -3.0314074   -1.5436656  0.073578526   -3.0314074    1.4877418   281004 
 3372000   0.63415646   -3.0221034    -1.533222   0.07127821   -3.0221034    1.4888814   280512 
 3373000   0.63115725   -3.0093623   -1.5250937  0.065762724   -3.0093623    1.4842685   280053 
 3374000   0.62857827   -2.9980825    -1.517431  0.064066432   -2.9980825    1.4806515   279590 
 3375000   0.62645983   -2.9884618   -1.5103102  0.060057299   -2.9884618    1.4781515   279119 
 3376000   0.62341859   -2.9766229   -1.5028594  0.053093885   -2.9766229    1.4737635   278591 
 3377000   0.62030428   -2.9625458   -1.4936242  0.049238003   -2.9625458    1.4689216   278113 
 3378000   0.61857989   -2.9539915   -1.4865256  0.050539405   -2.9539915    1.4674658   277615 
 3379000   0.61775591   -2.9470321   -1.4789138  0.052764598   -2.9470321    1.4681182   277122 
 3380000   0.61707283   -2.9390321   -1.4701254  0.053788877   -2.9390321    1.4689066   276667 
 3381000   0.61648484   -2.9314041   -1.4611391  0.052532083   -2.9314041     1.470265   276148 
 3382000   0.61625521   -2.9275321   -1.4551381  0.054458237   -2.9275321     1.472394   275646 
 3383000   0.61653808   -2.9238557   -1.4481412  0.049595434   -2.9238557    1.4757146   275152 
 3384000   0.61495738   -2.9150284   -1.4405734  0.052240099   -2.9150284     1.474455   274681 
 3385000    0.6130501   -2.9076983   -1.4351519  0.054762045   -2.9076983    1.4725464   274184 
 3386000   0.61109255     -2.89802   -1.4274242  0.049873057     -2.89802    1.4705959   273671 
 3387000   0.61207534   -2.8970852   -1.4215633   0.04961947   -2.8970852     1.475522   273196 
 3388000   0.61040911   -2.8884943   -1.4142478  0.054690195   -2.8884943    1.4742465   272688 
 3389000   0.61000585   -2.8837873   -1.4078138  0.051513174   -2.8837873    1.4759735   272189 
 3390000   0.61070195   -2.8824407    -1.402118   0.05402958   -2.8824407    1.4803227   271699 
 3391000   0.60988229   -2.8766745   -1.3956567  0.055604491   -2.8766745    1.4810177   271207 
 3392000   0.60731135   -2.8688948   -1.3913417  0.053244313   -2.8688948    1.4775531   270697 
 3393000    0.6056995   -2.8630318   -1.3868317  0.055269388   -2.8630318       1.4762   270226 
 3394000   0.60482579   -2.8589743   -1.3823135  0.055922761   -2.8589743    1.4766608   269752 
 3395000   0.60364822   -2.8558501   -1.3793878  0.050577679   -2.8558501    1.4764624   269263 
 3396000   0.60272732   -2.8528506   -1.3759036  0.055445904   -2.8528506     1.476947   268764 
 3397000   0.60326459   -2.8528105   -1.3720236  0.051058502   -2.8528105     1.480787   268306 
 3398000   0.60104037   -2.8475765   -1.3694451  0.054295238   -2.8475765    1.4781315   267797 
 3399000   0.59959499   -2.8451526   -1.3677842  0.053245766   -2.8451526    1.4773683   267291 
 3400000   0.59896507   -2.8421267   -1.3636222  0.053205437   -2.8421267    1.4785046   266805 
 3401000   0.59774806   -2.8405173   -1.3622743  0.051358251   -2.8405173     1.478243   266310 
 3402000   0.59747454   -2.8403503   -1.3599877  0.052773551   -2.8403503    1.4803626   265807 
 3403000   0.59477517   -2.8364488   -1.3600805  0.056334477   -2.8364488    1.4763682   265322 
 3404000   0.59576428   -2.8415492   -1.3599896  0.057999131   -2.8415492    1.4815596   264832 
 3405000   0.59344015    -2.839457   -1.3608352  0.058430158    -2.839457    1.4786218   264323 
 3406000   0.59146485    -2.838158   -1.3616257  0.058060399    -2.838158    1.4765323   263816 
 3407000   0.59002767    -2.839078   -1.3633478  0.053972003    -2.839078    1.4757302   263318 
 3408000   0.59040644    -2.844084   -1.3645746  0.054283365    -2.844084    1.4795094   262814 
 3409000   0.58801834   -2.8453573   -1.3690349  0.053805619   -2.8453573    1.4763224   262316 
 3410000   0.58692188   -2.8499211   -1.3733907  0.048318027   -2.8499211    1.4765304   261790 
 3411000   0.58596193    -2.852016   -1.3751532  0.052241745    -2.852016    1.4768628   261303 
 3412000   0.58331525   -2.8530701   -1.3799691  0.053926152   -2.8530701     1.473101   260787 
 3413000   0.58342838   -2.8602535   -1.3840648  0.053338317   -2.8602535    1.4761887   260292 
 3414000   0.58049484   -2.8587435   -1.3872411  0.051020651   -2.8587435    1.4715024   259808 
 3415000    0.5801419   -2.8629639   -1.3896001  0.051093373   -2.8629639    1.4733638   259322 
 3416000   0.57838582   -2.8674358    -1.395751  0.045723966   -2.8674358    1.4716848   258832 
 3417000   0.57731477   -2.8717124   -1.3999211  0.047605109   -2.8717124    1.4717913   258334 
 3418000    0.5762296   -2.8789109   -1.4070316  0.051071525   -2.8789109    1.4718793   257833 
 3419000   0.57545685   -2.8845582    -1.411688  0.050161667   -2.8845582    1.4728702   257314 
 3420000     0.571926   -2.8832748   -1.4164718  0.043652062   -2.8832748     1.466803   256793 
 3421000   0.56974903   -2.8870102   -1.4230083  0.047874616   -2.8870102    1.4640019   256305 
 3422000   0.56923683   -2.8930432   -1.4276702  0.045454345   -2.8930432    1.4653729   255835 
 3423000   0.56820989    -2.898599     -1.43308  0.045253153    -2.898599     1.465519   255348 
 3424000   0.56755751   -2.9036592   -1.4370314  0.047572242   -2.9036592    1.4666278   254862 
 3425000   0.56515978   -2.9075923   -1.4441747   0.04839884   -2.9075923    1.4634177   254342 
 3426000   0.56324168   -2.9106998   -1.4494682  0.044560839   -2.9106998    1.4612316   253858 
 3427000   0.56150297    -2.913972   -1.4543821  0.045495881    -2.913972    1.4595899   253359 
 3428000   0.55857934   -2.9155532   -1.4607437  0.045468572   -2.9155532    1.4548095   252868 
 3429000   0.55749591   -2.9221297   -1.4672941  0.044675084   -2.9221297    1.4548356   252373 
 3430000   0.55614025    -2.926178   -1.4720395  0.044027135    -2.926178    1.4541385   251880 
 3431000   0.55535871   -2.9316481   -1.4766706  0.042587108   -2.9316481    1.4549775   251381 
 3432000   0.55352769   -2.9372295   -1.4840547  0.044874316   -2.9372295    1.4531748   250863 
 3433000   0.55219143   -2.9439969   -1.4913886  0.046186158   -2.9439969    1.4526083   250355 
 3434000   0.55048303   -2.9491131   -1.4980546  0.041986576   -2.9491131    1.4510585   249847 
 3435000   0.54798589    -2.952972   -1.5055065  0.042733715    -2.952972    1.4474655   249331 
 3436000   0.54605047   -2.9552111   -1.5098434  0.041906563   -2.9552111    1.4453677   248811 
 3437000   0.54340933   -2.9563827   -1.5151619   0.04148938   -2.9563827    1.4412208   248320 
 3438000   0.54157881   -2.9614399   -1.5221353  0.040823566   -2.9614399    1.4393046   247813 
 3439000   0.54190197    -2.972618   -1.5295196   0.04023288    -2.972618    1.4430984   247309 
 3440000   0.54128844   -2.9805479   -1.5361397  0.043468133   -2.9805479    1.4444082   246805 
 3441000    0.5389992   -2.9839679    -1.542737  0.041223145   -2.9839679    1.4412308   246303 
 3442000   0.53656993   -2.9828605   -1.5453355  0.039952326   -2.9828605     1.437525   245825 
 3443000   0.53473988   -2.9838513   -1.5484205  0.041987931   -2.9838513    1.4354308   245344 
 3444000   0.53190949   -2.9836122   -1.5527698  0.038373944   -2.9836122    1.4308424   244828 
 3445000     0.531963   -2.9903121   -1.5563152   0.03736402   -2.9903121    1.4339969   244314 
 3446000   0.53083004   -2.9938214   -1.5599558  0.044064866   -2.9938214    1.4338655   243816 
 3447000    0.5294563   -2.9956278   -1.5624811  0.038826689   -2.9956278    1.4331467   243307 
 3448000   0.52829341   -2.9977244    -1.564881  0.038308696   -2.9977244    1.4328434   242824 
 3449000   0.52546086   -2.9958163   -1.5677325  0.040065011   -2.9958163    1.4280838   242327 
 3450000    0.5235086   -2.9936801   -1.5682197  0.042910075   -2.9936801    1.4254604   241871 
 3451000   0.52282721   -2.9931433   -1.5666779   0.03691029   -2.9931433    1.4264654   241386 
 3452000   0.52169369   -2.9890331    -1.563067  0.038610938   -2.9890331    1.4259661   240947 
 3453000   0.52063505   -2.9862922   -1.5605807  0.034494442   -2.9862922    1.4257115   240501 
 3454000   0.51969049   -2.9827427   -1.5570213   0.04119671   -2.9827427    1.4257214   240063 
 3455000   0.51910512   -2.9781866   -1.5513906  0.042324282   -2.9781866     1.426796   239612 
 3456000   0.51904271   -2.9746311   -1.5454419  0.042270664   -2.9746311    1.4291892   239182 
 3457000   0.51808261   -2.9673189   -1.5381681  0.042706154   -2.9673189    1.4291508   238746 
 3458000   0.51696323   -2.9585997   -1.5298978  0.038179147   -2.9585997    1.4287019   238305 
 3459000   0.51635177   -2.9523192   -1.5227816  0.040808566   -2.9523192    1.4295376   237884 
 3460000   0.51569716   -2.9459062   -1.5155533  0.043352281   -2.9459062    1.4303528   237447 
 3461000   0.51483449    -2.936581   -1.5056982   0.04788628    -2.936581    1.4308828   236962 
 3462000   0.51521286   -2.9325661   -1.4977798  0.047822401   -2.9325661    1.4347862   236491 
 3463000   0.51309278   -2.9207487   -1.4890576   0.04659944   -2.9207487    1.4316912   236027 
 3464000    0.5129996   -2.9148647   -1.4805531  0.047999836   -2.9148647    1.4343116   235553 
 3465000   0.51210242   -2.9054287   -1.4708117  0.049871406   -2.9054287    1.4346169   235091 
 3466000   0.51273733   -2.8988836    -1.459267  0.048144734   -2.8988836    1.4396166   234565 
 3467000   0.51300041   -2.8916798   -1.4481983  0.050819096   -2.8916798    1.4434815   234057 
 3468000   0.51296424   -2.8859978    -1.439621   0.05074647   -2.8859978    1.4463768   233572 
 3469000   0.51298502   -2.8784884   -1.4288878  0.050706366   -2.8784884    1.4496006   233062 
 3470000   0.51273752   -2.8689431   -1.4169893  0.056270663   -2.8689431    1.4519538   232572 
 3471000   0.51406351   -2.8663634   -1.4075938  0.054238769   -2.8663634    1.4587696   232084 
 3472000   0.51657228   -2.8661888   -1.3971477  0.062909408   -2.8661888    1.4690411   231586 
 3473000   0.51746662    -2.863547   -1.3888552  0.070300949    -2.863547    1.4746919   231098 
 3474000   0.52014186   -2.8632038    -1.377777  0.076451847   -2.8632038    1.4854268   230614 
 3475000   0.51846546   -2.8514098    -1.367592   0.07083044   -2.8514098    1.4838179   230120 
 3476000   0.51498523   -2.8318961   -1.3548227  0.064323626   -2.8318961    1.4770734   229619 
 3477000   0.51151797   -2.8152779   -1.3449091  0.057682535   -2.8152779    1.4703689   229113 
 3478000   0.50814891    -2.796526   -1.3326213  0.052919424    -2.796526    1.4639047   228609 
 3479000   0.50478313   -2.7800443   -1.3225909   0.04735978   -2.7800443    1.4574534   228100 
 3480000   0.50415916   -2.7685062   -1.3096694  0.048320793   -2.7685062    1.4588368   227602 
 3481000   0.50247912   -2.7561618   -1.2990815  0.048496905   -2.7561618    1.4570804   227117 
 3482000   0.50111178   -2.7454057   -1.2892128  0.049578989   -2.7454057     1.456193   226637 
 3483000   0.50167661   -2.7415671   -1.2805547  0.048018116   -2.7415671    1.4610124   226144 
 3484000   0.50001349   -2.7302687   -1.2709765  0.049186673   -2.7302687    1.4592922   225660 
 3485000   0.49916323   -2.7214926   -1.2615052  0.051584335   -2.7214926    1.4599874   225169 
 3486000   0.49744011   -2.7101743    -1.251768   0.04558548   -2.7101743    1.4584062   224635 
 3487000   0.49774885   -2.7021814   -1.2395036  0.048981272   -2.7021814    1.4626778   224118 
 3488000   0.49706505   -2.6931208   -1.2291865  0.046139405   -2.6931208    1.4639343   223618 
 3489000   0.49739786   -2.6882129   -1.2201077   0.04986208   -2.6882129    1.4681052   223132 
 3490000    0.4971157   -2.6800155   -1.2094081  0.051161791   -2.6800155    1.4706073   222626 
 3491000   0.49735236   -2.6763317   -1.2016725  0.051230117   -2.6763317    1.4746592   222120 
 3492000   0.49500013    -2.662411   -1.1915278  0.051886308    -2.662411    1.4708832   221637 
 3493000   0.49385504   -2.6545821   -1.1836305  0.050758443   -2.6545821    1.4709516   221114 
 3494000   0.49194853   -2.6456943    -1.177087  0.052720927   -2.6456943    1.4686073   220612 
 3495000   0.49184514   -2.6427486   -1.1711214  0.053144768   -2.6427486    1.4716273   220113 
 3496000   0.49107071   -2.6361118   -1.1634364   0.05027794   -2.6361118    1.4726755   219610 
 3497000   0.49016066    -2.630484    -1.157264  0.052535479    -2.630484      1.47322   219122 
 3498000   0.48938263   -2.6265458    -1.152334  0.048945272   -2.6265458    1.4742118   218627 
 3499000   0.48843657   -2.6214756   -1.1466666  0.052366437   -2.6214756     1.474809   218116 
 3500000   0.48816147   -2.6198373   -1.1425537  0.054974431   -2.6198373    1.4772835   217628 
 3501000   0.48614587   -2.6127725    -1.138194  0.053919815   -2.6127725    1.4745785   217127 
 3502000   0.48495718   -2.6086954   -1.1344362  0.051466063   -2.6086954    1.4742593   216643 
 3503000   0.48406027   -2.6072412   -1.1322499   0.05022848   -2.6072412    1.4749913   216135 
 3504000   0.48217356   -2.6034477   -1.1309352  0.051795055   -2.6034477    1.4725125   215655 
 3505000   0.48173017   -2.6070546   -1.1326212  0.056310387   -2.6070546    1.4744333   215176 
 3506000   0.48034422   -2.6068342    -1.133301  0.051528861   -2.6068342    1.4735332   214688 
 3507000   0.47861419   -2.6051595   -1.1335335  0.049809182   -2.6051595     1.471626   214192 
 3508000   0.47714363   -2.6031913   -1.1327367  0.051037608   -2.6031913    1.4704546   213704 
 3509000   0.47634983   -2.6040746   -1.1325823  0.048609574   -2.6040746    1.4714924   213198 
 3510000   0.47687284   -2.6106223   -1.1340653  0.053339265   -2.6106223    1.4765571   212700 
 3511000   0.47556701   -2.6111464   -1.1351282  0.051147137   -2.6111464    1.4760182   212195 
 3512000   0.47171408   -2.6053266   -1.1378365  0.048901182   -2.6053266    1.4674901   211699 
 3513000   0.46993966   -2.6060833   -1.1405274   0.05195626   -2.6060833    1.4655559   211181 
 3514000   0.46948057   -2.6128229    -1.145217  0.051474204   -2.6128229    1.4676059   210680 
 3515000   0.46790286   -2.6151768   -1.1488907  0.054551337   -2.6151768    1.4662861   210161 
 3516000   0.46691832   -2.6194772     -1.15271  0.051370201   -2.6194772    1.4667672   209650 
 3517000   0.46611474    -2.627228   -1.1594988  0.051100718    -2.627228    1.4677293   209152 
 3518000   0.46533169    -2.633997   -1.1652152  0.049137421    -2.633997    1.4687818   208651 
 3519000   0.46313544   -2.6364327   -1.1709449  0.048946197   -2.6364327    1.4654878   208133 
 3520000   0.46228862   -2.6410695   -1.1747528  0.047679933   -2.6410695    1.4663167   207635 
 3521000   0.46116719   -2.6460082   -1.1798592  0.049850664   -2.6460082     1.466149   207155 
 3522000   0.45942576   -2.6470381   -1.1828773  0.050988826   -2.6470381    1.4641607   206653 
 3523000   0.45563236   -2.6441586   -1.1885301  0.046924444   -2.6441586    1.4556286   206148 
 3524000   0.45395382    -2.647586   -1.1938434  0.044472219    -2.647586    1.4537427   205655 
 3525000    0.4533734   -2.6545667   -1.1990379  0.049453896   -2.6545667    1.4555288   205140 
 3526000   0.45326024   -2.6649411    -1.206327  0.050326395   -2.6649411    1.4586141   204655 
 3527000   0.45175616   -2.6695837   -1.2121637   0.04434053   -2.6695837      1.45742   204143 
 3528000   0.44902332   -2.6682558   -1.2162809  0.046023132   -2.6682558    1.4519749   203669 
 3529000   0.44792986   -2.6717616   -1.2197937  0.044827258   -2.6717616    1.4519679   203174 
 3530000   0.44643445   -2.6779786   -1.2271663   0.04815045   -2.6779786    1.4508123   202657 
 3531000   0.44484681   -2.6819568   -1.2326496  0.047888482   -2.6819568    1.4493072   202146 
 3532000   0.44406251   -2.6904189    -1.239907  0.045367754   -2.6904189     1.450512   201622 
 3533000   0.44130418   -2.6898783    -1.244886  0.044221973   -2.6898783    1.4449923   201135 
 3534000   0.44013702   -2.6962423   -1.2513001  0.041925658   -2.6962423    1.4449421   200610 
 3535000   0.43931377   -2.7030072   -1.2571136  0.045669668   -2.7030072    1.4458936   200103 
 3536000   0.43704391   -2.7021694   -1.2599988  0.046158707   -2.7021694    1.4421707   199583 
 3537000   0.43560668     -2.70632   -1.2653543  0.041782107     -2.70632    1.4409658   199093 
 3538000   0.43313952   -2.7054752   -1.2691862  0.041045205   -2.7054752     1.436289   198610 
 3539000   0.43193998   -2.7064933   -1.2706612  0.045334584   -2.7064933    1.4358321   198123 
 3540000   0.43044286   -2.7048602   -1.2706169  0.041637547   -2.7048602    1.4342433   197655 
 3541000   0.42972217   -2.7066539   -1.2714209  0.043291357   -2.7066539     1.435233   197188 
 3542000   0.42899978   -2.7047975   -1.2685028  0.044571929   -2.7047975    1.4362947   196711 
 3543000   0.42731545   -2.6994463   -1.2653644  0.041610942   -2.6994463     1.434082   196241 
 3544000   0.42534319   -2.6918969   -1.2611896  0.044419725   -2.6918969    1.4307073   195796 
 3545000   0.42455034   -2.6882266   -1.2568012  0.043427042   -2.6882266    1.4314254   195333 
 3546000   0.42458419   -2.6852439   -1.2502958  0.045711029   -2.6852439    1.4349481   194869 
 3547000   0.42257753   -2.6767858   -1.2452255  0.046175186   -2.6767858    1.4315603   194407 
 3548000   0.42141284   -2.6668228    -1.235859  0.045100875   -2.6668228    1.4309638   193952 
 3549000    0.4202127   -2.6594314   -1.2291728  0.044286301   -2.6594314    1.4302586   193495 
 3550000   0.41983891   -2.6525119   -1.2201352  0.045908846   -2.6525119    1.4323767   193037 
 3551000   0.42110191   -2.6518639   -1.2117239  0.049068098   -2.6518639    1.4401399   192574 
 3552000    0.4183829   -2.6355322    -1.201392  0.048992707   -2.6355322    1.4341402   192131 
 3553000   0.41676419   -2.6281166   -1.1960666   0.04528492   -2.6281166      1.43205   191667 
 3554000   0.41630408   -2.6196108   -1.1858129  0.048247315   -2.6196108    1.4337979   191222 
 3555000   0.41643841   -2.6147202    -1.176692  0.048324986   -2.6147202    1.4380282   190721 
 3556000   0.41487114   -2.6022892   -1.1659073  0.048776727   -2.6022892    1.4363818   190221 
 3557000   0.41489101   -2.5934914   -1.1531564   0.04947817   -2.5934914     1.440335   189708 
 3558000   0.41379108   -2.5825774   -1.1425312  0.046799269   -2.5825774    1.4400462   189243 
 3559000   0.41305464   -2.5709398    -1.129595  0.047896497   -2.5709398    1.4413448   188736 
 3560000   0.41339981   -2.5591527   -1.1129254  0.051813158   -2.5591527    1.4462274   188256 
 3561000   0.41273244   -2.5474347    -1.099643  0.049865679   -2.5474347    1.4477918   187749 
 3562000   0.41301386   -2.5392586   -1.0865335  0.050838943   -2.5392586    1.4527251   187239 
 3563000   0.41246324    -2.526199   -1.0716585  0.051246084    -2.526199    1.4545405   186756 
 3564000   0.41186129   -2.5151049   -1.0588195  0.053713671   -2.5151049    1.4562854   186260 
 3565000   0.41189106    -2.506822   -1.0465741   0.04989808    -2.506822    1.4602479   185768 
 3566000   0.41131541   -2.4938236   -1.0317837  0.052338046   -2.4938236    1.4620399   185281 
 3567000   0.41037978    -2.481117   -1.0186931  0.052879766    -2.481117    1.4624239   184811 
 3568000   0.40998512   -2.4718902   -1.0068933  0.050054377   -2.4718902    1.4649968   184309 
 3569000   0.40836545   -2.4584341  -0.99521565  0.048569358   -2.4584341    1.4632184   183804 
 3570000   0.40688455   -2.4427918  -0.98090279  0.052726949   -2.4427918     1.461889   183304 
 3571000    0.4051367   -2.4281672  -0.96863262  0.049390854   -2.4281672    1.4595346   182811 
 3572000   0.40567497   -2.4204456  -0.95492349  0.048731591   -2.4204456    1.4655221   182306 
 3573000    0.4037183   -2.4033935  -0.94091281   0.04895756   -2.4033935    1.4624807   181804 
 3574000   0.40392163   -2.3953253  -0.92831556  0.049255259   -2.3953253    1.4670098   181334 
 3575000   0.40271102   -2.3808701    -0.914205  0.048626298   -2.3808701    1.4666651   180833 
 3576000    0.4026983   -2.3707543  -0.90015063    0.0466298   -2.3707543    1.4706037   180343 
 3577000   0.40108955   -2.3541205  -0.88549104  0.051815618   -2.3541205    1.4686294   179864 
 3578000   0.40105945   -2.3439401  -0.87137645  0.051978498   -2.3439401    1.4725637   179370 
 3579000   0.40073751    -2.331487   -0.8558934  0.049700979    -2.331487    1.4755936   178858 
 3580000   0.39968373   -2.3207365  -0.84498017  0.049760487   -2.3207365    1.4757564   178368 
 3581000   0.39975102    -2.311596  -0.83149199  0.051802466    -2.311596     1.480104   177874 
 3582000   0.39840374   -2.2969849  -0.81774444  0.053948206   -2.2969849    1.4792405   177378 
 3583000   0.39730765   -2.2865277  -0.80725382  0.055236674   -2.2865277    1.4792739   176886 
 3584000   0.39708516   -2.2796852  -0.79696469  0.054282909   -2.2796852    1.4827205   176376 
 3585000    0.3957003   -2.2677244  -0.78597437  0.052631782   -2.2677244      1.48175   175876 
 3586000   0.39466377   -2.2571104  -0.77489317  0.052248574   -2.2571104    1.4822172   175360 
 3587000   0.39488051   -2.2532203  -0.76589743  0.056324832   -2.2532203    1.4873229   174854 
 3588000   0.39293565   -2.2400639  -0.75587319  0.052995508   -2.2400639    1.4841907   174360 
 3589000   0.39142832   -2.2292108  -0.74650427  0.052148965   -2.2292108    1.4827066   173865 
 3590000   0.39030192   -2.2169145  -0.73417651  0.051782628   -2.2169145     1.482738   173361 
 3591000   0.39069395   -2.2157006  -0.72713708   0.05414633   -2.2157006    1.4885635   172856 
 3592000   0.39006187   -2.2098831  -0.71965873  0.056193866   -2.2098831    1.4902244   172384 
 3593000    0.3875021   -2.1976907  -0.71291338  0.052560226   -2.1976907    1.4847773   171881 
 3594000   0.38563046   -2.1914419  -0.70930032  0.053682482   -2.1914419    1.4821416   171355 
 3595000   0.38452709   -2.1858341  -0.70390316  0.057021391   -2.1858341     1.481931   170889 
 3596000   0.38662514   -2.1911077  -0.69685904  0.055246559   -2.1911077    1.4942487   170405 
 3597000    0.3829983   -2.1820439  -0.69750872  0.055674852   -2.1820439    1.4845352   169911 
 3598000    0.3813253    -2.177679  -0.69558987  0.051831058    -2.177679    1.4820891   169448 
 3599000   0.38146903   -2.1815675  -0.69476073  0.055883634   -2.1815675    1.4868068   168974 
 3600000   0.37851296   -2.1775933  -0.69783305  0.055466718   -2.1775933    1.4797602   168463 
 3601000   0.37807005   -2.1808682  -0.69865144  0.054275794   -2.1808682    1.4822168   167987 
 3602000   0.37828636   -2.1884192  -0.70123777  0.054352033   -2.1884192    1.4871815   167522 
 3603000   0.37703174   -2.1868478   -0.7001258   0.05421956   -2.1868478     1.486722   167018 
 3604000   0.37526553   -2.1846314  -0.70049315  0.055718098   -2.1846314    1.4841383   166525 
 3605000     0.373553   -2.1864141  -0.70440314  0.053368974   -2.1864141     1.482011   166003 
 3606000   0.37306898   -2.1896812  -0.70541492  0.057182415   -2.1896812    1.4842663   165536 
 3607000   0.37147188   -2.1895881  -0.70701879  0.054658624   -2.1895881    1.4825694   165016 
 3608000   0.36957638   -2.1892004  -0.70991103  0.051534071   -2.1892004    1.4792893   164538 
 3609000     0.368568   -2.1933828   -0.7137502  0.053459572   -2.1933828    1.4796326   164051 
 3610000    0.3682267   -2.1989301  -0.71619378   0.05360615   -2.1989301    1.4827363   163556 
 3611000    0.3658556   -2.1984188  -0.72100269  0.052544479   -2.1984188    1.4774161   163088 
 3612000   0.36457057   -2.2037875   -0.7271785  0.053834858   -2.2037875     1.476609   162604 
 3613000    0.3624913   -2.2046239  -0.73179896  0.048891832   -2.2046239     1.472825   162092 
 3614000   0.36214244   -2.2110678  -0.73506181  0.053340505   -2.2110678     1.476006   161587 
 3615000   0.35964624   -2.2089675  -0.73896878  0.051965978   -2.2089675    1.4699987   161129 
 3616000   0.35910595   -2.2151599  -0.74294735  0.050477669   -2.2151599    1.4722126   160645 
 3617000   0.35632474   -2.2148794  -0.74950791  0.048829516   -2.2148794    1.4653715   160145 
 3618000   0.35616615   -2.2249943  -0.75567844  0.052217267   -2.2249943    1.4693159   159644 
 3619000   0.35473991   -2.2279471  -0.75978802  0.051244363   -2.2279471    1.4681591   159130 
 3620000   0.35224747   -2.2291502  -0.76652702  0.048332834   -2.2291502    1.4626232   158610 
 3621000   0.35161793   -2.2374144  -0.77254724  0.050387074   -2.2374144    1.4648671   158084 
 3622000   0.34984787   -2.2394305  -0.77751715  0.051359892   -2.2394305    1.4619133   157606 
 3623000   0.34839581   -2.2448975   -0.7844186  0.046044156   -2.2448975    1.4604789   157106 
 3624000   0.34668527   -2.2488334  -0.79098751    0.0476886   -2.2488334    1.4578459   156617 
 3625000   0.34531499   -2.2497772  -0.79341599  0.049432694   -2.2497772    1.4563612   156157 
 3626000   0.34349766   -2.2525381  -0.79931867  0.050162091   -2.2525381    1.4532194   155671 
 3627000   0.34189335   -2.2563229  -0.80508968  0.044816179   -2.2563229    1.4512332   155156 
 3628000   0.34066181   -2.2594917  -0.80872665  0.051426525   -2.2594917     1.450765   154647 
 3629000   0.33775166   -2.2549956  -0.81228596  0.045739323   -2.2549956    1.4427097   154182 
 3630000   0.33826866   -2.2612443  -0.81183274  0.048403305   -2.2612443    1.4494116   153704 
 3631000   0.33586903   -2.2547304  -0.81126195  0.048171201   -2.2547304    1.4434684   153242 
 3632000   0.33430245   -2.2499425  -0.80899421  0.048330978   -2.2499425    1.4409483   152794 
 3633000   0.33400737   -2.2482617  -0.80407674  0.046824767   -2.2482617    1.4441849   152317 
 3634000      0.33236   -2.2393833  -0.79793973  0.047784442   -2.2393833    1.4414436   151854 
 3635000   0.33133947   -2.2342827   -0.7928608  0.047238997   -2.2342827    1.4414219   151390 
 3636000   0.33111907   -2.2293564  -0.78438824  0.047735915   -2.2293564    1.4449682   150918 
 3637000   0.32902013   -2.2142933  -0.77384598  0.047248043   -2.2142933    1.4404473   150432 
 3638000   0.32844027   -2.2020763  -0.75969949  0.045074475   -2.2020763    1.4423768   149966 
 3639000   0.32731286    -2.190138  -0.74813531  0.046940484    -2.190138    1.4420027   149490 
 3640000   0.32715296   -2.1791627  -0.73328958  0.047361634   -2.1791627    1.4458731   149017 
 3641000   0.32578612   -2.1635867  -0.71891685  0.048870936   -2.1635867    1.4446699   148518 
 3642000   0.32425948    -2.151459  -0.70884783   0.04729226    -2.151459    1.4426111   148033 
 3643000   0.32407649    -2.140781  -0.69410751  0.047483331    -2.140781    1.4466735   147534 
 3644000   0.32325511   -2.1264434  -0.67886424   0.04821275   -2.1264434    1.4475792   147068 
 3645000   0.32173737   -2.1103835  -0.66474496  0.046687852   -2.1103835    1.4456385   146574 
 3646000   0.32038897   -2.0916497  -0.64708294   0.04904963   -2.0916497    1.4445667   146068 
 3647000   0.32003482   -2.0788094  -0.63109197  0.048649708   -2.0788094    1.4477174   145589 
 3648000   0.31932122   -2.0632145  -0.61386711  0.050441772   -2.0632145    1.4493474   145101 
 3649000   0.31821254   -2.0493852  -0.60015594  0.051251627   -2.0493852    1.4492293   144609 
 3650000   0.31698163   -2.0340507  -0.58546886  0.050010241   -2.0340507    1.4485819   144114 
 3651000   0.31712579   -2.0215279  -0.56742386  0.049160494   -2.0215279    1.4541041   143632 
 3652000   0.31663157   -2.0085367  -0.55148455  0.049820372   -2.0085367    1.4570521   143118 
 3653000   0.31588383   -1.9918075  -0.53322286  0.050788896   -1.9918075    1.4585847   142630 
 3654000   0.31549526   -1.9761803  -0.51445013  0.050724245   -1.9761803    1.4617302   142148 
 3655000   0.31559186   -1.9636559  -0.49681392  0.049688434   -1.9636559     1.466842   141696 
 3656000   0.31401153   -1.9466759  -0.48184484  0.047388254   -1.9466759    1.4648311   141180 
 3657000   0.31254931   -1.9244872  -0.46137836  0.050093091   -1.9244872    1.4631088   140688 
 3658000   0.31307442   -1.9133004  -0.44274758  0.051288944   -1.9133004    1.4705528   140211 
 3659000   0.31103996    -1.892834  -0.42675558  0.047213314    -1.892834    1.4660784   139725 
 3660000   0.31119368   -1.8791089   -0.4071545  0.049968524   -1.8791089    1.4719544   139236 
 3661000   0.30941639   -1.8578829   -0.3890711  0.051113108   -1.8578829    1.4688118   138737 
 3662000   0.30944244   -1.8446542  -0.37045892  0.049681946   -1.8446542    1.4741952   138242 
 3663000   0.30789437    -1.825203  -0.35337884  0.048816265    -1.825203    1.4718241   137772 
 3664000   0.30678883   -1.8039837  -0.33213485  0.049938708   -1.8039837    1.4718489   137275 
 3665000   0.30629395   -1.7901999  -0.31559059   0.05210705   -1.7901999    1.4746093   136797 
 3666000   0.30712788   -1.7810095   -0.2973203  0.051711087   -1.7810095    1.4836892   136330 
 3667000   0.30631559   -1.7634077  -0.27832661  0.053424256   -1.7634077    1.4850811   135842 
 3668000   0.30469803   -1.7491332  -0.26650268  0.053965341   -1.7491332    1.4826305   135348 
 3669000   0.30373328   -1.7330759   -0.2499457    0.0527563   -1.7330759    1.4831302   134874 
 3670000   0.30220462   -1.7141222  -0.23281126  0.051197494   -1.7141222    1.4813109   134360 
 3671000   0.30287181   -1.7067018  -0.21683122  0.055355758   -1.7067018    1.4898706   133883 
 3672000   0.30084408   -1.6887356  -0.20367071    0.0532004   -1.6887356    1.4850649   133417 
 3673000    0.3008799   -1.6810644  -0.19061688  0.055601367   -1.6810644    1.4904475   132951 
 3674000    0.2995575   -1.6688018   -0.1790671  0.055748833   -1.6688018    1.4897347   132430 
 3675000   0.29850806   -1.6542167  -0.16379235  0.055837428   -1.6542167    1.4904243   131905 
 3676000   0.29776619   -1.6440045  -0.15175212   0.05385911   -1.6440045    1.4922524   131416 
 3677000   0.29671317   -1.6356364  -0.14343807   0.05604746   -1.6356364    1.4921983   130956 
 3678000   0.29560677   -1.6255935  -0.13310137  0.055835276   -1.6255935    1.4924922   130442 
 3679000   0.29453225    -1.615641  -0.12328836  0.054732788    -1.615641    1.4923526   129980 
 3680000   0.29379188   -1.6095196   -0.1153546  0.057553797   -1.6095196     1.494165   129496 
 3681000   0.29183728   -1.5921047  -0.10198875   0.05542669   -1.5921047    1.4901159   128984 
 3682000   0.29132729   -1.5890413 -0.096077614  0.055531045   -1.5890413    1.4929637   128513 
 3683000   0.29112467    -1.582952 -0.085409986  0.057509488    -1.582952     1.497542   128031 
 3684000   0.28879527   -1.5725137 -0.081340235  0.056346132   -1.5725137    1.4911734   127549 
 3685000   0.28821191   -1.5677768 -0.074017536  0.055327396   -1.5677768    1.4937593   127071 
 3686000   0.28666297   -1.5592566 -0.067821116  0.054516472   -1.5592566    1.4914355   126585 
 3687000   0.28650914   -1.5565448 -0.060152727  0.058062472   -1.5565448    1.4963921   126098 
 3688000   0.28481487   -1.5502827 -0.057091118  0.056739383   -1.5502827    1.4931916   125621 
 3689000   0.28244714   -1.5438787 -0.057301732  0.054863089   -1.5438787     1.486577   125131 
 3690000   0.28083638   -1.5382699 -0.054478891  0.057141217   -1.5382699     1.483791   124651 
 3691000      0.27973   -1.5373269 -0.053680163  0.055735631   -1.5373269    1.4836467   124172 
 3692000   0.27873031   -1.5411323 -0.056666884  0.054861466   -1.5411323    1.4844654   123660 
 3693000   0.27785061   -1.5378615 -0.052170107   0.05494018   -1.5378615    1.4856914   123168 
 3694000   0.27637763    -1.537431 -0.053761531  0.054926203    -1.537431    1.4836695   122682 
 3695000   0.27479404   -1.5317249  -0.05083488  0.054905191   -1.5317249      1.48089   122208 
 3696000   0.27389587   -1.5335386 -0.051205814  0.054455179   -1.5335386    1.4823328   121690 
 3697000   0.27214915   -1.5324566 -0.053378285  0.053788832   -1.5324566    1.4790783   121180 
 3698000   0.27137015   -1.5370675 -0.055977397  0.055637215   -1.5370675    1.4810901   120669 
 3699000   0.27047992   -1.5388894 -0.056651384  0.055485405   -1.5388894    1.4822381   120180 
 3700000   0.26836011   -1.5371376 -0.060507882  0.054777086   -1.5371376    1.4766297   119691 
 3701000   0.26643076   -1.5398552 -0.067728819  0.053414475   -1.5398552    1.4721264   119194 
 3702000   0.26614296   -1.5443836 -0.067690063   0.05270208   -1.5443836    1.4766935   118697 
 3703000   0.26357601   -1.5402594 -0.071435677  0.052570275   -1.5402594    1.4688237   118182 
 3704000   0.26261722   -1.5444289 -0.074705227  0.053738251   -1.5444289    1.4697236   117680 
 3705000   0.26151805   -1.5488082 -0.078765209  0.052702419   -1.5488082     1.470043   117162 
 3706000   0.26043196   -1.5528348 -0.082698326  0.052176919   -1.5528348    1.4701365   116668 
 3707000   0.25845294   -1.5479024 -0.082796588  0.051831587   -1.5479024    1.4651058   116179 
 3708000   0.25760169   -1.5537659 -0.087300612  0.053147897   -1.5537659    1.4664653   115689 
 3709000   0.25649819   -1.5565766 -0.090080612  0.052176425   -1.5565766     1.466496   115191 
 3710000   0.25517785   -1.5537572 -0.088232553  0.050398946   -1.5537572    1.4655247   114674 
 3711000   0.25325031   -1.5487995 -0.088116244  0.050785147   -1.5487995    1.4606833   114185 
 3712000   0.25195334   -1.5456408 -0.086059619  0.050843356   -1.5456408    1.4595812   113686 
 3713000   0.25050354   -1.5420739 -0.084686868  0.049948156   -1.5420739     1.457387   113202 
 3714000   0.24797416   -1.5293385 -0.080356553  0.049466689   -1.5293385    1.4489819   112709 
 3715000    0.2477579   -1.5274726 -0.073627254  0.050216766   -1.5274726    1.4538453   112234 
 3716000   0.24693637   -1.5171239 -0.061966716  0.050986004   -1.5171239    1.4551572   111761 
 3717000   0.24530157   -1.5060085 -0.054432351  0.050967484   -1.5060085    1.4515761   111295 
 3718000   0.24460417   -1.4982427 -0.044615661  0.049659243   -1.4982427    1.4536271   110822 
 3719000   0.24271358   -1.4878144 -0.039344984  0.049747568   -1.4878144    1.4484694   110357 
 3720000   0.24216557   -1.4819884  -0.03064777  0.049058745   -1.4819884    1.4513406   109890 
 3721000   0.24137427   -1.4753448 -0.022373567  0.049871108   -1.4753448    1.4529712   109408 
 3722000   0.23974178   -1.4588443 -0.008981282  0.048660802   -1.4588443    1.4498631   108901 
 3723000   0.23847252   -1.4450608  0.003778394  0.050533934   -1.4450608    1.4488392   108401 
 3724000   0.23771083   -1.4310163  0.019309614  0.049638542   -1.4310163    1.4503259   107944 
 3725000   0.23665309   -1.4197465   0.03045363  0.050078574   -1.4197465    1.4502001   107473 
 3726000   0.23550421   -1.4079698  0.042030337  0.049803528   -1.4079698    1.4500001   106966 
 3727000   0.23397809    -1.392964   0.05418792  0.050669594    -1.392964    1.4471519   106482 
 3728000   0.23295625   -1.3792893  0.068080636  0.050321148   -1.3792893    1.4473699   106001 
 3729000   0.23254743   -1.3672071  0.084195041  0.050151214   -1.3672071    1.4514022   105521 
 3730000   0.23125961   -1.3534192  0.096540991  0.050706367   -1.3534192    1.4499602   105041 
 3731000   0.23149501   -1.3469296   0.11082092  0.050987403   -1.3469296    1.4577505   104586 
 3732000   0.22993375    -1.329859   0.12459623  0.050526388    -1.329859    1.4544553   104116 
 3733000   0.22916635   -1.3148844   0.14161335  0.051313462   -1.3148844    1.4564978   103623 
 3734000   0.22808905   -1.2998589   0.15690546  0.050247079   -1.2998589    1.4567644   103117 
 3735000   0.22671931   -1.2828634   0.17176865  0.050920555   -1.2828634     1.454632   102648 
 3736000   0.22626281   -1.2723856   0.18610932  0.051258804   -1.2723856    1.4584949   102170 
 3737000   0.22511146   -1.2545816   0.20405828  0.051868111   -1.2545816    1.4586399   101640 
 3738000   0.22433118   -1.2413856   0.21954326  0.051777284   -1.2413856    1.4609289   101129 
 3739000   0.22282646   -1.2253349   0.23329488  0.050881727   -1.2253349    1.4586297   100609 
 3740000   0.22244912   -1.2148739   0.24879255  0.052740225   -1.2148739    1.4636664   100093 
 3741000   0.22138332   -1.2036856   0.26038404  0.053118807   -1.2036856    1.4640697    99586 
 3742000   0.21949289   -1.1854976   0.27295331  0.052403905   -1.1854976    1.4584509    99116 
 3743000   0.21930033   -1.1815483   0.28247673  0.053024589   -1.1815483    1.4640251    98652 
 3744000   0.21794184   -1.1694202   0.29233697  0.051648645   -1.1694202    1.4617571    98193 
 3745000    0.2165369   -1.1579925   0.30167011  0.051636633   -1.1579925    1.4596626    97700 
 3746000   0.21558325   -1.1466619   0.31376228  0.050314806   -1.1466619    1.4604241    97219 
 3747000   0.21469796   -1.1406756   0.32116432  0.050500936   -1.1406756      1.46184    96726 
 3748000   0.21384469   -1.1306109   0.33280245  0.051690509   -1.1306109    1.4634134    96238 
 3749000   0.21291871   -1.1221205    0.3425657  0.052089612   -1.1221205    1.4646862    95738 
 3750000   0.21135011   -1.1127605   0.34858408   0.05207383   -1.1127605    1.4613446    95250 
 3751000   0.21055953   -1.1036591   0.35984009  0.052258867   -1.1036591    1.4634992    94754 
 3752000    0.2097985   -1.0971105   0.36867919  0.052925841   -1.0971105    1.4657897    94264 
 3753000   0.20823622   -1.0864272   0.37653313  0.053898253   -1.0864272    1.4629603    93743 
 3754000     0.206788    -1.080388   0.38031349  0.051937013    -1.080388    1.4607015    93235 
 3755000    0.2061497   -1.0821361   0.38167127  0.049867061   -1.0821361    1.4638073    92750 
 3756000     0.205069   -1.0775215   0.38655201  0.051013583   -1.0775215    1.4640735    92247 
 3757000   0.20321049   -1.0633012   0.39537841    0.0510936   -1.0633012    1.4586796    91749 
 3758000   0.20224387   -1.0620111   0.39765278  0.050986078   -1.0620111    1.4596639    91251 
 3759000   0.20056162   -1.0550067   0.40023451  0.051432694   -1.0550067    1.4552412    90767 
 3760000   0.19926328   -1.0485705   0.40538762  0.049910319   -1.0485705    1.4539581    90259 
 3761000   0.19792249   -1.0455568   0.40656568  0.050524135   -1.0455568    1.4521224    89765 
 3762000   0.19713055   -1.0504754   0.40411715  0.050036108   -1.0504754    1.4545926    89254 
 3763000   0.19578904   -1.0430636   0.40975263  0.049325007   -1.0430636    1.4528162    88755 
 3764000   0.19465168   -1.0398196   0.41249322  0.050158549   -1.0398196    1.4523128    88270 
 3765000   0.19386441   -1.0401637   0.41458141   0.05009882   -1.0401637    1.4547451    87766 
 3766000   0.19265899   -1.0363876   0.41741219  0.050039554   -1.0363876    1.4537998    87277 
 3767000   0.19164133   -1.0335593   0.42060877  0.049734251   -1.0335593     1.454168    86794 
 3768000   0.18984299   -1.0285884   0.42007908  0.047874855   -1.0285884    1.4486675    86306 
 3769000   0.18797615   -1.0206893   0.42212467  0.047589501   -1.0206893     1.442814    85804 
 3770000    0.1867551   -1.0233591   0.41878893  0.047099584   -1.0233591    1.4421481    85286 
 3771000   0.18513367   -1.0183272   0.41954423  0.047202549   -1.0183272    1.4378714    84797 
 3772000    0.1849116    -1.023837   0.42079375  0.048317167    -1.023837    1.4446308    84299 
 3773000      0.18348    -1.029751   0.41224825  0.046219913    -1.029751    1.4419992    83799 
 3774000   0.18160962   -1.0241944   0.41218983  0.047363894   -1.0241944    1.4363843    83269 
 3775000   0.18043594   -1.0288372   0.40691994  0.046195879   -1.0288372    1.4357571    82767 
 3776000   0.17890599   -1.0276148   0.40442893  0.045752699   -1.0276148    1.4320438    82278 
 3777000   0.17773442   -1.0269848   0.40418704  0.044395035   -1.0269848    1.4311718    81789 
 3778000   0.17595314   -1.0210848   0.40472146   0.04528262   -1.0210848    1.4258062    81274 
 3779000   0.17546617   -1.0236694    0.4067797  0.045063583   -1.0236694    1.4304491    80786 
 3780000   0.17460014   -1.0217285   0.41023971   0.04401721   -1.0217285    1.4319682    80302 
 3781000   0.17278334   -1.0157564   0.41074414   0.04420868   -1.0157564    1.4265006    79771 
 3782000   0.17091649   -1.0117911   0.40832259  0.043173926   -1.0117911    1.4201137    79264 
 3783000   0.16929432   -1.0083102   0.40720071  0.044056045   -1.0083102    1.4155109    78767 
 3784000   0.16841835   -1.0075784   0.40942329   0.04351937   -1.0075784    1.4170017    78277 
 3785000   0.16721961   -1.0100167   0.40559805  0.042405057   -1.0100167    1.4156147    77796 
 3786000   0.16656474   -1.0108927   0.40829946  0.043013256   -1.0108927    1.4191921    77296 
 3787000   0.16459146   -1.0085283   0.40294452  0.040261051   -1.0085283    1.4114728    76798 
 3788000   0.16369163   -1.0106858   0.40199192  0.042357614   -1.0106858    1.4126777    76313 
 3789000   0.16212361   -1.0054964   0.40309967   0.04024375   -1.0054964     1.408596    75801 
 3790000   0.16124513   -1.0087633   0.40204597  0.041299498   -1.0087633    1.4108092    75272 
 3791000   0.15939755   -1.0007701   0.40319979  0.041330289   -1.0007701    1.4039699    74772 
 3792000   0.15795775  -0.99435638   0.40639223  0.040446286  -0.99435638    1.4007486    74267 
 3793000   0.15710269   -0.9906689   0.41148396  0.040748045   -0.9906689    1.4021529    73791 
 3794000   0.15558215  -0.98748264   0.41055324  0.039875109  -0.98748264    1.3980359    73292 
 3795000   0.15498783  -0.98656698   0.41559842  0.040158297  -0.98656698    1.4021654    72797 
 3796000   0.15278847  -0.97445208   0.41706751  0.038996894  -0.97445208    1.3915196    72313 
 3797000   0.15137297  -0.96887064   0.41968478  0.039949294  -0.96887064    1.3885554    71796 
 3798000   0.15084756  -0.97333069   0.42016789  0.038955172  -0.97333069    1.3934986    71293 
 3799000   0.14887281  -0.96767148   0.41761104  0.037947192  -0.96767148    1.3852825    70777 
 3800000   0.14794927  -0.96466487   0.42116799  0.038540387  -0.96466487    1.3858329    70310 
 3801000   0.14664502  -0.96172347   0.42173085  0.037697889  -0.96172347    1.3834543    69810 
 3802000   0.14518029  -0.96010564   0.41911235  0.037841622  -0.96010564     1.379218    69325 
 3803000   0.14402944  -0.95339378   0.42485143  0.037438146  -0.95339378    1.3782452    68824 
 3804000   0.14333585  -0.95331439   0.42806839  0.036957381  -0.95331439    1.3813828    68337 
 3805000   0.14110556  -0.93864618   0.43130607  0.036845978  -0.93864618    1.3699523    67835 
 3806000   0.14072827  -0.94325519   0.43319996  0.037565981  -0.94325519    1.3764551    67334 
 3807000   0.13914163  -0.93223125   0.43870194  0.036559565  -0.93223125    1.3709332    66843 
 3808000   0.13833042  -0.92988467   0.44330705  0.036591499  -0.92988467    1.3731917    66344 
 3809000   0.13701444  -0.92007562   0.45031843  0.036271304  -0.92007562     1.370394    65847 
 3810000   0.13608937  -0.91440185   0.45677694  0.036577791  -0.91440185    1.3711788    65365 
 3811000   0.13455492  -0.90663391   0.45966107  0.035195777  -0.90663391     1.366295    64859 
 3812000   0.13339831  -0.90003055   0.46502218  0.036041684  -0.90003055    1.3650527    64360 
 3813000   0.13254956  -0.89138647   0.47575075  0.035142844  -0.89138647    1.3671372    63853 
 3814000   0.13107025  -0.88821625   0.47428954  0.034817649  -0.88821625    1.3625058    63355 
 3815000    0.1300947  -0.88193396   0.48071168  0.035621797  -0.88193396    1.3626456    62877 
 3816000   0.12906244  -0.87709426   0.48572813   0.03485744  -0.87709426    1.3628224    62370 
 3817000   0.12765479  -0.86914328   0.49010409  0.034638829  -0.86914328    1.3592474    61852 
 3818000   0.12604183  -0.86160749   0.49120433  0.035011193  -0.86160749    1.3528118    61361 
 3819000   0.12552439  -0.85719232   0.50158067  0.034130282  -0.85719232     1.358773    60841 
 3820000   0.12376352  -0.85164142   0.49991085  0.033897105  -0.85164142    1.3515523    60308 
 3821000   0.12229959  -0.83722165   0.50971202   0.03390746  -0.83722165    1.3469337    59799 
 3822000   0.12171194  -0.83479238   0.51683504  0.032404617  -0.83479238    1.3516274    59305 
 3823000   0.11968461   -0.8242098   0.51677498   0.03333697   -0.8242098    1.3409848    58780 
 3824000   0.11947387  -0.82160009   0.52850797  0.032738391  -0.82160009    1.3501081    58280 
 3825000   0.11822839  -0.81539534   0.53224628  0.031716572  -0.81539534    1.3476416    57778 
 3826000   0.11682171  -0.80851413    0.5341313  0.032556209  -0.80851413    1.3426454    57303 
 3827000   0.11589365  -0.80420756   0.53942518  0.032199312  -0.80420756    1.3436327    56806 
 3828000   0.11399082  -0.78838745    0.5455124  0.030721945  -0.78838745    1.3338998    56281 
 3829000   0.11331698  -0.78340504   0.55423166  0.032794689  -0.78340504    1.3376367    55792 
 3830000   0.11216327  -0.78536038   0.55116225  0.031488079  -0.78536038    1.3365226    55270 
 3831000   0.11070005  -0.76970405    0.5614009  0.030697401  -0.76970405    1.3311049    54771 
 3832000    0.1099201  -0.76465084   0.56954773  0.030884217  -0.76465084    1.3341986    54259 
 3833000   0.10820464  -0.75091115   0.57448355   0.03031503  -0.75091115    1.3253947    53767 
 3834000   0.10762112  -0.75408352   0.57583848  0.031224613  -0.75408352     1.329922    53295 
 3835000   0.10640758   -0.7446395   0.58281481  0.030116085   -0.7446395    1.3274543    52792 
 3836000   0.10479537  -0.73110616   0.58893794  0.030181555  -0.73110616    1.3200441    52284 
 3837000   0.10420708  -0.73103263   0.59345667  0.029653218  -0.73103263    1.3244893    51816 
 3838000       0.1031  -0.72338736   0.60000521  0.030252097  -0.72338736    1.3233926    51308 
 3839000   0.10137097  -0.71317502   0.60108752  0.029483222  -0.71317502    1.3142625    50798 
 3840000   0.10064555   -0.7073028   0.61044734  0.029622263   -0.7073028    1.3177501    50301 
 3841000  0.099227383  -0.69860574   0.61417373  0.028830103  -0.69860574    1.3127795    49780 
 3842000  0.097999279  -0.68525237   0.62462008  0.029179003  -0.68525237    1.3098725    49273 
 3843000  0.096831777  -0.67710177   0.63067528  0.028450117  -0.67710177    1.3077771    48764 
 3844000  0.095938842  -0.67029114   0.63882234  0.028568938  -0.67029114    1.3091135    48265 
 3845000  0.094885743  -0.66145112   0.64750347  0.028122599  -0.66145112    1.3089546    47741 
 3846000  0.093974951  -0.65090471   0.65829195  0.026965737  -0.65090471    1.3091967    47274 
 3847000  0.093027895   -0.6391966   0.66979264   0.02745529   -0.6391966    1.3089892    46805 
 3848000  0.092076045  -0.63240363   0.67695579  0.028196691  -0.63240363    1.3093594    46313 
 3849000  0.090636824  -0.62268337   0.68004914  0.026810037  -0.62268337    1.3027325    45821 
 3850000  0.089738831   -0.6235677   0.67974006  0.026802193   -0.6235677    1.3033078    45347 
 3851000  0.087888968  -0.60597149   0.68472991  0.026620904  -0.60597149    1.2907014    44846 
 3852000  0.087242326  -0.60040116   0.69510341  0.027078018  -0.60040116    1.2955046    44351 
 3853000  0.086283115  -0.58977447   0.70577057  0.026778442  -0.58977447     1.295545    43862 
 3854000  0.085212511  -0.58520949   0.71002933  0.026420981  -0.58520949    1.2952388    43328 
 3855000  0.084263711  -0.57111315   0.72353837  0.025761399  -0.57111315    1.2946515    42865 
 3856000  0.083210961  -0.56389166   0.72967394  0.025837831  -0.56389166    1.2935656    42365 
 3857000  0.081985088  -0.55134826   0.73733546  0.025607115  -0.55134826    1.2886837    41899 
 3858000  0.081052766   -0.5456154   0.74339603  0.024737527   -0.5456154    1.2890114    41412 
 3859000   0.07989238  -0.54015259   0.74574414  0.025435187  -0.54015259    1.2858967    40918 
 3860000  0.079233838  -0.53433938    0.7571816  0.024811981  -0.53433938     1.291521    40404 
 3861000  0.078096911  -0.52744174   0.76149782  0.024943448  -0.52744174    1.2889396    39904 
 3862000  0.077172699  -0.51687342   0.77232017  0.024621602  -0.51687342    1.2891936    39424 
 3863000  0.075877655  -0.50845422   0.77525583   0.02385781  -0.50845422      1.28371    38928 
 3864000  0.074509828   -0.4983206   0.77874974  0.024239332   -0.4983206    1.2770703    38425 
 3865000   0.07374342  -0.48689691   0.79329601  0.023445214  -0.48689691    1.2801929    37937 
 3866000  0.072871264  -0.48003049   0.80191748   0.02338179  -0.48003049     1.281948    37437 
 3867000  0.071717521  -0.47116118   0.80694577  0.023560344  -0.47116118     1.278107    36955 
 3868000  0.070700854  -0.46524895   0.81205601  0.022986259  -0.46524895     1.277305    36454 
 3869000  0.069554315  -0.45509969   0.81921462   0.02275328  -0.45509969    1.2743143    35947 
 3870000  0.068331544   -0.4448837    0.8244363  0.022357289   -0.4448837      1.26932    35454 
 3871000  0.067623916  -0.43669198    0.8377074  0.022146506  -0.43669198    1.2743994    34947 
 3872000  0.066631922  -0.42735459   0.84683582  0.021873257  -0.42735459    1.2741904    34440 
 3873000  0.065532218  -0.41806908   0.85422805  0.022102938  -0.41806908    1.2722971    33922 
 3874000  0.064338342  -0.41263492   0.85479115  0.021294569  -0.41263492    1.2674261    33432 
 3875000  0.063180517    -0.401025   0.86137774  0.021324957    -0.401025    1.2624027    32961 
 3876000  0.062327354  -0.39254251   0.87203457  0.020532124  -0.39254251    1.2645771    32460 
 3877000  0.061477365  -0.38309001   0.88284433  0.021116628  -0.38309001    1.2659343    31983 
 3878000   0.06042999  -0.38000255   0.88404658  0.020853334  -0.38000255    1.2640491    31485 
 3879000  0.059708185  -0.37772412   0.89117596  0.020441232  -0.37772412    1.2689001    30990 
 3880000  0.058688155  -0.37371128   0.89438032   0.01960622  -0.37371128    1.2680916    30480 
 3881000  0.057306814  -0.36108161    0.8976462  0.019622149  -0.36108161    1.2587278    29984 
 3882000  0.056018847  -0.35144882   0.89977049  0.019433359  -0.35144882    1.2512193    29486 
 3883000  0.055016828  -0.34616937   0.90214363  0.018679496  -0.34616937     1.248313    29026 
 3884000   0.05423871  -0.33964509   0.91179382   0.01872683  -0.33964509    1.2514389    28544 
 3885000  0.053270844  -0.33590028   0.91583531  0.018448134  -0.33590028    1.2517356    28028 
 3886000  0.052196262  -0.32640477   0.92167772  0.017981703  -0.32640477    1.2480825    27543 
 3887000  0.051115631  -0.32316442   0.92163087   0.01776773  -0.32316442    1.2447953    27044 
 3888000  0.050378619   -0.3156895   0.93351437  0.017879377   -0.3156895    1.2492039    26560 
 3889000  0.048779126  -0.30632799   0.92769978  0.017181685  -0.30632799    1.2340278    26033 
 3890000  0.048078565  -0.30325615   0.93647848   0.01729047  -0.30325615    1.2397346    25541 
 3891000  0.047053214  -0.29508179   0.94268688  0.016770059  -0.29508179    1.2377687    25036 
 3892000  0.046156765   -0.2889105   0.95052454  0.016582688   -0.2889105     1.239435    24526 
 3893000  0.045139611  -0.28768699   0.94909364  0.016251422  -0.28768699    1.2367806    24037 
 3894000  0.044072805  -0.28066074   0.95301441  0.015551067  -0.28066074    1.2336751    23528 
 3895000  0.043245063  -0.28135815   0.95548408  0.015401501  -0.28135815    1.2368422    23027 
 3896000  0.041854259  -0.27607381   0.94794025  0.014903122  -0.27607381    1.2240141    22520 
 3897000  0.040997104  -0.26956929   0.95626758  0.014793044  -0.26956929    1.2258369    22026 
 3898000  0.039917224   -0.2679827   0.95226817  0.014365369   -0.2679827    1.2202509    21544 
 3899000  0.038647425  -0.25828455   0.95196736   0.01423768  -0.25828455    1.2102519    21031 
 3900000  0.037765094  -0.25208003   0.95892948  0.013955753  -0.25208003    1.2110095    20538 
 3901000  0.036924326  -0.25197782   0.95962061  0.013328061  -0.25197782    1.2115984    20071 
 3902000  0.036017412  -0.24739773   0.96432617   0.01320579  -0.24739773    1.2117239    19576 
 3903000  0.034596397  -0.23544058    0.9578579  0.012470871  -0.23544058    1.1932985    19094 
 3904000  0.033721628   -0.2375289   0.95687396     0.012145   -0.2375289    1.1944029    18594 
 3905000  0.032934712  -0.23617362   0.95784114  0.011975146  -0.23617362    1.1940148    18166 
 3906000  0.032051769  -0.23411436   0.95371832  0.011669716  -0.23411436    1.1878327    17771 
 3907000  0.031294814  -0.22652489   0.96173983   0.01149077  -0.22652489    1.1882647    17345 
 3908000  0.030615254   -0.2259068   0.96413628   0.01123222   -0.2259068    1.1900431    16943 
 3909000  0.029804702  -0.22040721   0.96427976  0.010800081  -0.22040721     1.184687    16569 
 3910000  0.028992572   -0.2145448   0.96345617  0.010705017   -0.2145448     1.178001    16209 
 3911000  0.028305689  -0.20963716   0.96665283  0.010499613  -0.20963716      1.17629    15848 
 3912000  0.027549557  -0.20767447    0.9630484  0.010488003  -0.20767447    1.1707229    15498 
 3913000  0.026662058   -0.1974788   0.96347095 0.0099702862   -0.1974788    1.1609497    15125 
 3914000  0.026031949  -0.19396925   0.96521813 0.0098814412  -0.19396925    1.1591874    14790 
 3915000  0.025582128  -0.19524601   0.97168389 0.0095904692  -0.19524601    1.1669299    14438 
 3916000   0.02491286  -0.19145174   0.96947377 0.0093730917  -0.19145174    1.1609255    14133 
 3917000  0.024210115  -0.18409366   0.97382498 0.0091053829  -0.18409366    1.1579186    13770 
 3918000  0.023745671  -0.18430713   0.97885103 0.0090195585  -0.18430713    1.1631582    13445 
 3919000  0.022804664  -0.18387609   0.96007421 0.0084316337  -0.18387609    1.1439503    13129 
 3920000  0.022192643  -0.17917159   0.96011073 0.0084102366  -0.17917159    1.1392823    12829 
 3921000  0.021420529  -0.17070503   0.95652998 0.0082422763  -0.17070503     1.127235    12515 
 3922000  0.021093849  -0.17322343   0.96454871 0.0079978354  -0.17322343    1.1377721    12210 
 3923000  0.020363761  -0.16920142   0.96027216 0.0078215443  -0.16920142    1.1294736    11874 
 3924000  0.019742885  -0.16326499   0.96132132 0.0074746035  -0.16326499    1.1245863    11562 
 3925000  0.019176492  -0.15675587   0.96277658 0.0075436312  -0.15675587    1.1195325    11281 
 3926000   0.01849992  -0.15453308   0.95440135 0.0070152512  -0.15453308    1.1089344    10987 
 3927000  0.018171439  -0.14581842   0.97003501  0.006868652  -0.14581842    1.1158534    10725 
 3928000  0.017756974  -0.14824397    0.9690356 0.0068601162  -0.14824397    1.1172796    10467 
 3929000  0.017231031  -0.14706178   0.96594181 0.0067938043  -0.14706178    1.1130036    10196 
 3930000  0.016641503  -0.13861095   0.96322148 0.0065177485  -0.13861095    1.1018324     9947 
 3931000  0.016161619  -0.13532944   0.96243053 0.0062729584  -0.13532944      1.09776     9696 
 3932000  0.015877665  -0.13993297   0.96731731 0.0060724742  -0.13993297    1.1072503     9444 
 3933000  0.015489749  -0.13180133   0.97356153 0.0059038186  -0.13180133    1.1053629     9229 
 3934000  0.014993294  -0.13185723   0.96640028  0.005791296  -0.13185723    1.0982575     8991 
 3935000  0.014663956  -0.12511004   0.97546375 0.0058359829  -0.12511004    1.1005738     8775 
 3936000  0.014104106  -0.12287341   0.96506557 0.0055583138  -0.12287341     1.087939     8538 
 3937000  0.013572262  -0.11732845   0.96012525 0.0053019453  -0.11732845    1.0774537     8296 
 3938000  0.013345963  -0.12087382   0.96855574 0.0051859521  -0.12087382    1.0894296     8068 
 3939000  0.013112397  -0.11131487   0.98264173 0.0052932144  -0.11131487    1.0939566     7894 
 3940000  0.012696568  -0.11403058   0.97192171 0.0050310067  -0.11403058    1.0859523     7700 
 3941000  0.012335224  -0.11156792   0.96959462 0.0048788402  -0.11156792    1.0811625     7514 
 3942000   0.01203841  -0.11039874   0.97374959 0.0048031776  -0.11039874    1.0841483     7313 
 3943000  0.011761301  -0.10982924   0.97654878 0.0046950159  -0.10982924     1.086378     7130 
 3944000  0.011523127   -0.1119089   0.98176692 0.0045629935   -0.1119089    1.0936758     6939 
 3945000  0.011210851  -0.10094839    0.9880419 0.0044474415  -0.10094839    1.0889903     6780 
 3946000  0.010924452 -0.097355879   0.99044801  0.004434591 -0.097355879    1.0878039     6614 
 3947000  0.010596814 -0.093930641   0.99144351  0.004274726 -0.093930641    1.0853742     6430 
 3948000  0.010307701 -0.088986004   0.99182104 0.0041489805 -0.088986004     1.080807     6281 
 3949000  0.009988983 -0.087875153   0.98776976 0.0040134261 -0.087875153    1.0756449     6116 
 3950000 0.0098764157 -0.091608015    1.0023221 0.0039916916 -0.091608015    1.0939301     5946 
 3951000 0.0095159109 -0.086330338   0.99382887 0.0038083234 -0.086330338    1.0801592     5802 
 3952000 0.0092314092 -0.086815222   0.99038425 0.0037623012 -0.086815222    1.0771995     5644 
 3953000 0.0089630607 -0.079306812    0.9957218 0.0036033691 -0.079306812    1.0750286     5491 
 3954000 0.0086520684 -0.079072887   0.98799935 0.0034956133 -0.079072887    1.0670722     5340 
 3955000 0.0085246054 -0.076790534     1.002452 0.0034665498 -0.076790534    1.0792426     5202 
 3956000 0.0082603427  -0.07522866   0.99398893  0.003371801  -0.07522866    1.0692176     5088 
 3957000   0.00805871 -0.073922806   0.99936047  0.003281356 -0.073922806    1.0732833     4945 
 3958000 0.0078639609 -0.072561384    1.0006102 0.0031901695 -0.072561384    1.0731716     4826 
 3959000 0.0074920868 -0.067943878   0.98412722   0.00303845 -0.067943878    1.0520711     4690 
 3960000   0.00729358 -0.073912865   0.97971268 0.0029409918 -0.073912865    1.0536255     4559 
 3961000 0.0070573344 -0.066331016   0.98332794 0.0028476925 -0.066331016     1.049659     4428 
 3962000 0.0068710406 -0.066656107   0.98181438 0.0027683113 -0.066656107    1.0484705     4316 
 3963000 0.0067394024 -0.067963913   0.98706413  0.002743779 -0.067963913     1.055028     4207 
 3964000 0.0065590329 -0.065446151   0.98762881 0.0026820591 -0.065446151     1.053075     4102 
 3965000 0.0063537431 -0.066411668   0.97632735 0.0026269303 -0.066411668     1.042739     4013 
 3966000 0.0061432268 -0.064964599   0.96767138 0.0024879209 -0.064964599     1.032636     3918 
 3967000 0.0060050148 -0.061241442   0.97378675 0.0024523558 -0.061241442    1.0350282     3821 
 3968000 0.0058620291 -0.060842338   0.97725225 0.0024673104 -0.060842338    1.0380946     3719 
 3969000 0.0057677195 -0.058708313   0.98715138 0.0023864401 -0.058708313    1.0458597     3632 
 3970000 0.0055549461 -0.055650278   0.98485937 0.0022878857 -0.055650278    1.0405097     3516 
 3971000 0.0054469593 -0.056479461   0.98725429 0.0022583928 -0.056479461    1.0437337     3437 
 3972000 0.0051842003 -0.051974361   0.97302187 0.0021509372 -0.051974361    1.0249962     3331 
 3973000 0.0051189721 -0.052167521   0.98451878 0.0020835172 -0.052167521    1.0366863     3252 
 3974000 0.0048978107 -0.048741992   0.96913404 0.0020247436 -0.048741992     1.017876     3169 
 3975000 0.0047985377 -0.046662411   0.98073322 0.0020191348 -0.046662411    1.0273956     3076 
 3976000 0.0047418033 -0.043967745   0.99804234 0.0019666531 -0.043967745    1.0420101     2997 
 3977000  0.004585737 -0.046884432   0.98775775 0.0019228976 -0.046884432    1.0346422     2919 
 3978000 0.0045282914  -0.04722287   0.99335194 0.0018725341  -0.04722287    1.0405748     2866 
 3979000 0.0044105478  -0.04476098   0.99079792 0.0018244471  -0.04476098    1.0355589     2805 
 3980000 0.0043303681 -0.046161367   0.99241735 0.0017799323 -0.046161367    1.0385787     2746 
 3981000 0.0042398158 -0.046508871   0.99851369  0.001762577 -0.046508871    1.0450226     2672 
 3982000 0.0041148648  -0.04775282    0.9937571 0.0017038049  -0.04775282    1.0415099     2602 
 3983000 0.0040179483 -0.046771468   0.99708675 0.0016894816 -0.046771468    1.0438582     2535 
 3984000 0.0038964037 -0.044093908    1.0003231 0.0016068136 -0.044093908     1.044417     2457 
 3985000 0.0037297604 -0.040557503   0.98807856  0.001530483 -0.040557503    1.0286361     2388 
 3986000    0.0037229 -0.045544291     1.005405 0.0015338147 -0.045544291    1.0509493     2333 
 3987000  0.003628225 -0.037349756    1.0194891 0.0015231283 -0.037349756    1.0568389     2261 
 3988000 0.0035071493 -0.035838232    1.0121533 0.0014629013 -0.035838232    1.0479916     2204 
 3989000 0.0034101538 -0.035745766    1.0049832  0.001430879 -0.035745766     1.040729     2158 
 3990000 0.0033754391 -0.033834249     1.014765 0.0014145883 -0.033834249    1.0485993     2120 
 3991000  0.003219013 -0.032736747   0.99789513 0.0013674206 -0.032736747    1.0306319     2057 
 3992000 0.0031874628 -0.033532263    1.0139883 0.0013308377 -0.033532263    1.0475205     2004 
 3993000 0.0030882348 -0.031930128    1.0094834 0.0012778088 -0.031930128    1.0414135     1953 
 3994000 0.0029722783 -0.030668024   0.99743743 0.0012612835 -0.030668024    1.0281055     1904 
 3995000 0.0029228259 -0.031980625    1.0040495 0.0012339482 -0.031980625    1.0360301     1858 
 3996000 0.0028110156 -0.028939226   0.99162679 0.0011931803 -0.028939226     1.020566     1814 
 3997000 0.0027225676 -0.028955964   0.98866936 0.0011417348 -0.028955964    1.0176253     1762 
 3998000 0.0026625944 -0.028569573   0.98446222 0.0011254236 -0.028569573    1.0130318     1731 
 3999000 0.0025627127  -0.02519163    0.9806349 0.0010675122  -0.02519163    1.0058265     1678 
 4000000 0.0024798874 -0.024595899    0.9652399 0.0010652714 -0.024595899    0.9898358     1650 
 4001000 0.0024087061 -0.024283471   0.95919437 0.0010143972 -0.024283471   0.98347784     1613 
 4002000 0.0024038884 -0.029056523   0.97613515  0.001013543 -0.029056523    1.0051917     1575 
 4003000 0.0023641745 -0.025551935   0.99277489 0.0010037985 -0.025551935    1.0183268     1529 
 4004000 0.0022739981 -0.020373453   0.98407484 0.00095143649 -0.020373453    1.0044483     1491 
 4005000 0.0022194841 -0.022311085   0.98369718 0.00093828337 -0.022311085    1.0060083     1453 
 4006000 0.0021806541 -0.022733589   0.98864455 0.00091809692 -0.022733589    1.0113781     1420 
 4007000 0.0021195377 -0.016530668   0.98916554 0.00089267892 -0.016530668    1.0056962     1388 
 4008000 0.0021022466  -0.01999251    1.0033028 0.00089687506  -0.01999251    1.0232953     1353 
 4009000 0.0020759452 -0.021281868    1.0059133 0.00088303972 -0.021281868    1.0271951     1331 
 4010000 0.0019365702 -0.018662497   0.96696791 0.00081139135 -0.018662497   0.98563041     1294 
 4011000  0.001949117 -0.016267841   0.99849025 0.00084741601 -0.016267841    1.0147581     1265 
 4012000 0.0019449337 -0.013775916     1.016726 0.00084099846 -0.013775916    1.0305019     1243 
 4013000 0.0018965756 -0.014261201    1.0205903 0.00080313435 -0.014261201    1.0348515     1207 
 4014000 0.0017920512 -0.012566837   0.99188169 0.00076153894 -0.012566837    1.0044485     1175 
 4015000 0.0017796897 -0.013540232    1.0003748 0.00077363232 -0.013540232    1.0139151     1156 
 4016000 0.0017170961 -0.013343827   0.98653443 0.00073569328 -0.013343827   0.99987826     1131 
 4017000 0.0016761598 -0.013501959   0.98550442 0.00071898985 -0.013501959   0.99900638     1105 
 4018000 0.0016734769 -0.013173727    1.0044949 0.00070814613 -0.013173727    1.0176687     1083 
 4019000 0.0016850218 -0.017129152    1.0278223 0.00071299791 -0.017129152    1.0449515     1062 
 4020000 0.0016551699 -0.015402509    1.0347693 0.00069800076 -0.015402509    1.0501718     1038 
 4021000 0.0015741308 -0.011743535    1.0157162 0.00066882146 -0.011743535    1.0274597     1009 
 4022000 0.0015126068 -0.012625567   0.99976034 0.00064277135 -0.012625567    1.0123859      984 
 4023000 0.0014922205 -0.010074695    1.0157724 0.00063263168 -0.010074695    1.0258471      958 
 4024000 0.0014609494 -0.011424295    1.0143397 0.00061670757 -0.011424295     1.025764      938 
 4025000 0.0013417437 -0.015959899   0.95190314 0.00057644934 -0.015959899   0.96786304      913 
 4026000 0.0013234047 -0.015364575   0.96394003 0.00055494083 -0.015364575   0.97930461      890 
 4027000 0.0013203029 -0.013183615   0.97492811 0.00055120906 -0.013183615   0.98811172      880 
 4028000 0.0013004905 -0.011373558   0.97650425 0.00055197665 -0.011373558   0.98787781      867 
 4029000 0.0012694431 -0.014037141   0.98362701 0.00053687984 -0.014037141   0.99766415      838 
 4030000 0.0012239759 -0.0083434778   0.97350585 0.00052643936 -0.0083434778   0.98184933      821 
 4031000 0.0012001487 -0.0086671113   0.97934029 0.00050905186 -0.0086671113   0.98800741      800 
 4032000 0.0011750881 -0.008753385   0.97710811 0.00049568235 -0.008753385    0.9858615      785 
 4033000 0.0011360329 -0.011214525   0.95793047 0.00048409733 -0.011214525     0.969145      772 
 4034000 0.0010760869 -0.010785486   0.93540957 0.00045173467 -0.010785486   0.94619505      749 
 4035000  0.001097648 -0.0095573622   0.96470138 0.00046530203 -0.0095573622   0.97425875      742 
 4036000 0.0010875419  -0.01200815   0.97319712 0.00045939248  -0.01200815   0.98520527      727 
 4037000 0.0010526483 -0.0076880413   0.95517813 0.00045392499 -0.0076880413   0.96286617      720 
 4038000 0.0010366882 -0.0091336328   0.96344824 0.00044291976 -0.0091336328   0.97258187      702 
 4039000 0.0010620095 -0.011888353   0.98444906 0.00045524792 -0.011888353   0.99633741      702 
 4040000 0.0010187087 -0.0096003054   0.97126426 0.00043089142 -0.0096003054   0.98086457      684 
 4041000 0.0010223733  -0.01451544   0.98596726 0.00043622633  -0.01451544    1.0004827      673 
 4042000 0.00097379184 -0.013251575   0.95845989 0.00040887642 -0.013251575   0.97171146      660 
 4043000 0.00097636829 -0.0095729478   0.98122272 0.0004103459 -0.0095729478   0.99079567      649 
 4044000 0.0009662318 -0.011822225   0.99030471 0.0004088324 -0.011822225    1.0021269      635 
 4045000 0.00094194168 -0.013206053   0.98094999 0.00039547956 -0.013206053   0.99415605      624 
 4046000 0.00093341185 -0.016745121   0.98936897 0.00039212559 -0.016745121    1.0061141      611 
 4047000 0.00092133607 -0.015530439     1.000856 0.00039269103 -0.015530439    1.0163865      597 
 4048000 0.00089795847 -0.011176904    1.0032081 0.00038712564 -0.011176904     1.014385      583 
 4049000 0.0008567916 -0.013287643   0.98366356 0.00036461994 -0.013287643    0.9969512      566 
 4050000 0.0008604554 -0.016687488   0.99525416 0.00036346687 -0.016687488    1.0119416      560 
 4051000 0.00082699732 -0.012272588   0.98343521 0.00034855397 -0.012272588    0.9957078      547 
 4052000 0.00083697699 -0.012107819    1.0124734 0.00036151658 -0.012107819    1.0245812      538 
 4053000 0.00081683139 -0.015915066    1.0048762 0.00034686266 -0.015915066    1.0207912      527 
 4054000 0.0007801426 -0.011787012   0.98587147 0.00033088876 -0.011787012   0.99765848      515 
 4055000 0.0007681864 -0.011877429   0.98796423 0.0003249005 -0.011877429   0.99984166      506 
 4056000 0.00077366493 -0.010771131    1.0185783 0.0003260761 -0.010771131    1.0293495      495 
 4057000 0.00073363368 -0.012913367   0.98535896 0.00031495476 -0.012913367   0.99827233      484 
 4058000 0.00069122345 -0.014134623   0.95444592 0.00029741279 -0.014134623   0.96858054      470 
 4059000 0.00070084929 -0.0076923911   0.99354912 0.00030014056 -0.0076923911    1.0012415      461 
 4060000 0.0006883248 -0.014907782   0.99697577 0.00029023954 -0.014907782    1.0118836      448 
 4061000 0.00066643452 -0.0087452124   0.98877095 0.00028077022 -0.0087452124   0.99751616      440 
 4062000 0.00065382172 -0.011788376   0.98266993 0.00027617223 -0.011788376   0.99445831      433 
 4063000 0.00063824294 -0.010317856   0.97639674 0.00027458803 -0.010317856   0.98671459      426 
 4064000 0.00063480092 -0.010372359   0.98741651 0.0002695154 -0.010372359   0.99778887      419 
 4065000 0.00059077569 -0.0094895089   0.93031475 0.00025610411 -0.0094895089   0.93980426      414 
 4066000 0.00058851856 -0.0097442759    0.9379145 0.00024814542 -0.0097442759   0.94765878      409 
 4067000 0.00058497393 -0.010677114   0.94293175 0.00024950962 -0.010677114   0.95360887      404 
 4068000 0.00056408208 -0.012436762   0.92569157 0.00023540543 -0.012436762   0.93812833      396 
 4069000 0.00053658705 -0.0055276921   0.92200738 0.0002262926 -0.0055276921   0.92753507      381 
 4070000 0.00053640599 -0.0057515833   0.93130842 0.00022773418 -0.0057515833   0.93706001      377 
 4071000 0.00051349309 -0.0043737579   0.91210704 0.00021857541 -0.0043737579    0.9164808      369 
 4072000 0.00050920341 -0.010682416   0.90810189 0.00021474055 -0.010682416   0.91878431      365 
 4073000 0.00049861154 -0.0041901674    0.9079781 0.00021162789 -0.0041901674   0.91216827      360 
 4074000 0.00049308662  -0.00260337   0.91995889 0.0002099694  -0.00260337   0.92256226      352 
 4075000 0.00048349871 -0.0049605533   0.91269771 0.00020596742 -0.0049605533   0.91765826      347 
 4076000 0.00047522668 -0.001923566    0.9213199 0.00020730384 -0.001923566   0.92324347      339 
 4077000 0.00045557151 -0.0027900547   0.91195031 0.00019458024 -0.0027900547   0.91474037      328 
 4078000 0.00042459724 -0.003447539   0.87590938 0.00018024537 -0.003447539   0.87935692      318 
 4079000 0.00042928345 -0.0030934787   0.88596875 0.0001822096 -0.0030934787   0.88906222      318 
 4080000 0.0004453447 -0.0015730144   0.91498813 0.0001899775 -0.0015730144   0.91656114      320 
 4081000 0.00042412435 -0.0030746696   0.90974903 0.00018013386 -0.0030746696    0.9128237      306 
 4082000 0.00043165149 -0.0036602979   0.95351598 0.00018336558 -0.0036602979   0.95717628      297 
 4083000 0.00042986399 -0.0014126529   0.94860118 0.00018358043 -0.0014126529   0.95001383      298 
 4084000 0.00044938867 -0.0018362857   0.97817327 0.00019176487 -0.0018362857   0.98000956      302 
 4085000 0.00042480596 -0.0034088303   0.94177007 0.00018068862 -0.0034088303    0.9451789      296 
 4086000  0.000446228 -0.0041249627    1.0023178 0.00019209621 -0.0041249627    1.0064428      292 
 4087000 0.00045262375 -0.0062963706    1.0216122 0.00019639006 -0.0062963706    1.0279085      290 
 4088000 0.00042388603 -0.0031798379   0.99029739 0.00018066037 -0.0031798379   0.99347723      281 
 4089000 0.00043662154 -0.0022263214    1.0284353 0.0001860849 -0.0022263214    1.0306616      279 
 4090000 0.00040249145 -0.0015716878   0.96940576 0.00017183345 -0.0015716878   0.97097745      273 
 4091000 0.00039217218 -0.0016385566   0.95495655 0.00016725307 -0.0016385566    0.9565951      270 
 4092000 0.00040757987 -0.0056288603   0.98854901 0.00017396151 -0.0056288603   0.99417787      270 
 4093000 0.00037819215 -0.0038411881   0.93605908 0.00016196042 -0.0038411881   0.93990027      265 
 4094000 0.00036849363 -0.0012567638    0.9393875 0.00015736883 -0.0012567638   0.94064426      258 
 4095000 0.00038687412 -0.0039381873   0.99134082 0.00016492896 -0.0039381873   0.99527901      256 
 4096000 0.00038005973 -0.0016468313   0.99557842 0.00016213007 -0.0016468313   0.99722525      251 
 4097000 0.00036961492 -0.0053825887   0.98414867 0.00015668426 -0.0053825887   0.98953125      246 
 4098000 0.00039793007 -0.0014153772    1.0639211 0.0001699551 -0.0014153772    1.0653365      246 
 4099000 0.00038067665 -0.0050313047    1.0266964 0.0001612259 -0.0050313047    1.0317277      243 
 4100000 0.00037505835 -0.0015543285    1.0450969 0.00016012144 -0.0015543285    1.0466512      236 
 4101000  0.000346236 -0.0027176958   0.99303586 0.00014747693 -0.0027176958   0.99575356      229 
 4102000 0.00035417687 -0.0017108976    1.0304013 0.00015117412 -0.0017108976    1.0321122      226 
 4103000 0.00037176104 -0.0036098656    1.0702415 0.00015794722 -0.0036098656    1.0738513      228 
 4104000 0.00033940927 -0.0018956465   0.98282485 0.00014474389 -0.0018956465    0.9847205      227 
 4105000 0.00035253372  -0.00238487    1.0295048 0.00015008833  -0.00238487    1.0318897      225 
 4106000 0.00035477993 -0.0064850921    1.0507751 0.00015214106 -0.0064850921    1.0572602      221 
 4107000 0.00033840252 -0.0021180604    1.0202146 0.00014423591 -0.0021180604    1.0223326      218 
 4108000 0.00033724582 -0.0038075641    1.0244643 0.00014310172 -0.0038075641    1.0282719      216 
 4109000 0.00033770167 -0.0038800033    1.0210368 0.00014333237 -0.0038800033    1.0249168      217 
 4110000 0.0003257303 -0.0029020044    1.0089976 0.00013864264 -0.0029020044    1.0118996      212 
 4111000 0.00033766899 -0.002404276    1.0465836 0.00014376569 -0.002404276    1.0489878      212 
 4112000 0.00032201444 -0.0079524069    1.0116413 0.00013620267 -0.0079524069    1.0195937      208 
 4113000 0.00032580938 -0.001839724    1.0297699 0.00013893948 -0.001839724    1.0316096      208 
 4114000 0.00034050748 -0.0058067016    1.0934816 0.00014398019 -0.0058067016    1.0992883      204 
 4115000 0.00031590698 -0.010235918    1.0096326 0.00013256026 -0.010235918    1.0198685      204 
 4116000 0.00028455085            0    0.9561344 0.00012200673            0    0.9561344      196 
 4117000 0.00030478051 -1.6591328e-06    1.0400263 0.00013064824 -1.6591328e-06     1.040028      193 
 4118000 0.00028945295 -0.00015566833   0.98756879 0.0001239872 -0.00015566833   0.98772446      193 
 4119000 0.00027603771 -0.00060816418   0.96127372 0.00011794505 -0.00060816418   0.96188188      189 
 4120000 0.00025216664 -6.0373522e-05    0.9174779 0.00010803676 -6.0373522e-05   0.91753827      181 
 4121000 0.00027360022            0   0.97400198 0.00011731144            0   0.97400198      185 
 4122000 0.00028611935            0    1.0241051 0.00012267926            0    1.0241051      184 
 4123000 0.00027161447            0    0.9721879 0.00011646001            0    0.9721879      184 
 4124000 0.0002582445 -0.0021510998   0.95333904 0.00011004645 -0.0021510998   0.95549014      178 
 4125000 0.00026573707 -0.0045532744   0.97865896 0.00011294356 -0.0045532744   0.98321224      178 
 4126000 0.00025616758 -0.0021003635   0.96749391 0.0001091033 -0.0021003635   0.96959428      174 
 4127000 0.00025440407 -0.00017988386   0.99712952 0.00010899091 -0.00017988386    0.9973094      168 
 4128000 0.00023523284            0   0.96224843 0.00010086067            0   0.96224843      161 
 4129000 0.00023675615 -0.0012409215   0.97329179 0.00010111952 -0.0012409215   0.97453271      160 
 4130000 0.00024316801 -0.00055219031    1.0066681 0.00010406527 -0.00055219031    1.0072203      159 
 4131000 0.00022391037 -0.00012640861   0.95126151 9.5872843e-05 -0.00012640861   0.95138792      155 
 4132000 0.00022707282            0   0.97743717 9.7361906e-05            0   0.97743717      153 
 4133000 0.00024132044            0    1.0187899 0.00010347085            0    1.0187899      156 
 4134000 0.00022501886            0   0.96859588 9.6481231e-05            0   0.96859588      153 
 4135000 0.00022359463            0   0.98171459 9.5870566e-05            0   0.98171459      150 
 4136000 0.00020982888 -0.00083666246   0.93288766 8.970484e-05 -0.00083666246   0.93372433      148 
 4137000 0.0002193505            0   0.99628995 9.4050809e-05            0   0.99628995      145 
 4138000 0.00020930755 -0.00038794804   0.95688884 8.960636e-05 -0.00038794804   0.95727679      144 
 4139000 0.00020341146            0   0.93681644 8.7216634e-05            0   0.93681644      143 
 4140000 0.00021437392 -0.0047663549   0.98253797 9.0950064e-05 -0.0047663549   0.98730433      143 
 4141000 0.0002076857  -0.00063793   0.95586364 8.8779455e-05  -0.00063793   0.95650157      143 
 4142000 0.00019668745 -4.5904231e-06   0.95246887 8.4300641e-05 -4.5904231e-06   0.95247346      136 
 4143000 0.00020029082 -0.0011902511   0.96873276 8.5547632e-05 -0.0011902511   0.96992301      136 
 4144000 0.0001713351            0   0.87472543 7.3463269e-05            0   0.87472543      129 
 4145000 0.00018190275 -0.0069512667   0.90754743 7.7223878e-05 -0.0069512667    0.9144987      131 
 4146000 0.00019138108            0    0.9847005 8.2058375e-05            0    0.9847005      128 
 4147000 0.00018828448 -0.00027632209   0.96849146 8.0599174e-05 -0.00027632209   0.96876778      128 
 4148000 0.00019828481            0   0.99685798 8.5018487e-05            0   0.99685798      131 
 4149000 0.00019450204            0    1.0166436 8.3396548e-05            0    1.0166436      126 
 4150000 0.00018748358            0    1.0038602 8.0387246e-05            0    1.0038602      123 
 4151000 0.00018278869 -0.0017744705   0.96128794 7.7897286e-05 -0.0017744705   0.96306241      125 
 4152000 0.00017769909            0   0.99178684 7.6191958e-05            0   0.99178684      118 
 4153000 0.00017989407            0   0.99560028 7.7133095e-05            0   0.99560028      119 
 4154000 0.00018691933            0      1.02586 8.0145312e-05            0      1.02586      120 
 4155000 0.00020573857            0    1.1580971 8.8214428e-05            0    1.1580971      117 
 4156000 0.00018153387 -0.00024531022    1.0577758 7.775115e-05 -0.00024531022    1.0580212      113 
 4157000 0.00018802446 -0.0077443621    1.0881055 7.9368303e-05 -0.0077443621    1.0958498      113 
 4158000 0.00020337097            0      1.14477 8.7199276e-05            0      1.14477      117 
 4159000 0.00019026696            0    1.1391629 8.1580674e-05            0    1.1391629      110 
 4160000 0.00018429206            0    1.0934496 7.9018818e-05            0    1.0934496      111 
 4161000 0.00018276822 -0.0019270987    1.0824812 7.7901227e-05 -0.0019270987    1.0844083      111 
 4162000 0.00019464022            0    1.1445366 8.3455797e-05            0    1.1445366      112 
 4163000 0.00018899789 -0.00011688161    1.1212536 8.0979753e-05 -0.00011688161    1.1213705      111 
 4164000 0.00018707103            0    1.1407695 8.0210358e-05            0    1.1407695      108 
 4165000 0.00018021502            0    1.1092319 7.7270711e-05            0    1.1092319      107 
 4166000 0.00017231961 -0.00032828875    1.0805096 7.3787498e-05 -0.00032828875    1.0808378      105 
 4167000 0.00018611997            0    1.1563844 7.9802571e-05            0    1.1563844      106 
 4168000 0.00017776513            0    1.1257148 7.6220273e-05            0    1.1257148      104 
 4169000 0.00018638461            0    1.1365837 7.991604e-05            0    1.1365837      108 
 4170000 0.00017547913            0    1.1442456 7.5240105e-05            0    1.1442456      101 
 4171000 0.00017161247            0    1.1190322 7.3582197e-05            0    1.1190322      101 
 4172000 0.0001872646            0    1.2091235 8.0293354e-05            0    1.2091235      102 
 4173000 0.00016549984            0    1.0791736 7.0961287e-05            0    1.0791736      101 
 4174000 0.00016193321 -1.9868888e-06    1.1226042 6.9399922e-05 -1.9868888e-06    1.1226062       95 
 4175000 0.00015786699            0    1.1060598 6.7688555e-05            0    1.1060598       94 
 4176000 0.00015429151 -9.6815426e-05    1.0809122 6.6106174e-05 -9.6815426e-05     1.081009       94 
 4177000 0.00015268881            0    1.0585192 6.546831e-05            0    1.0585192       95 
 4178000 0.0001583837            0      1.10968 6.7910105e-05            0      1.10968       94 
 4179000 0.00017180589            0    1.0985402 7.366513e-05            0    1.0985402      103 
 4180000 0.00015999045            0    1.1209373 6.8599028e-05            0    1.1209373       94 
 4181000 0.00015501026 -0.00091455799    1.0625042 6.6233627e-05 -0.00091455799    1.0634188       96 
 4182000 0.00015523649            0    1.0761811 6.6560679e-05            0    1.0761811       95 
 4183000 0.00016131912            0     1.118349 6.9168722e-05            0     1.118349       95 
 4184000 0.00013915374            0     1.029722 5.9664882e-05            0     1.029722       89 
 4185000 0.00015256898            0    1.0689404 6.5416928e-05            0    1.0689404       94 
 4186000 0.00015779868            0    1.1296156 6.7659268e-05            0    1.1296156       92 
 4187000 0.0001507324 -0.0001572029    1.1152456 6.457072e-05 -0.0001572029    1.1154028       89 
 4188000 0.00014111158            0    1.1063652 6.0504348e-05            0    1.1063652       84 
 4189000 0.00014663357 -0.0084399467    1.1412196 6.1751966e-05 -0.0084399467    1.1496595       84 
 4190000 0.00014986243            0    1.0845923 6.4256445e-05            0    1.0845923       91 
 4191000 0.00013934418            0    1.0311313 5.974654e-05            0    1.0311313       89 
 4192000 0.00013982874            0    1.1230465 5.9954304e-05            0    1.1230465       82 
 4193000 0.00016248966            0    1.2160689 6.9670617e-05            0    1.2160689       88 
 4194000 0.00014927759            0    1.1300314 6.4005684e-05            0    1.1300314       87 
 4195000 0.00016834542 -0.0068252688    1.2389119 7.6047063e-05 -0.0068252688    1.2457372       89 
 4196000 0.0001661664            0    1.1895166 7.124709e-05            0    1.1895166       92 
 4197000 0.00016763268            0    1.2689794 7.1875785e-05            0    1.2689794       87 
 4198000 0.00014821613 -0.0015501259    1.1605173 6.3275705e-05 -0.0015501259    1.1620674       84 
 4199000 0.00016611839 -0.00027820804    1.2019625 7.1146051e-05 -0.00027820804    1.2022407       91 
 4200000 0.00017258106            0    1.2628907  7.39975e-05            0    1.2628907       90 
 4201000 0.00015997508            0    1.2250929 6.8592439e-05            0    1.2250929       86 
 4202000 0.00016826859            0    1.2313335 7.2148445e-05            0    1.2313335       90 
 4203000 0.00017717642            0    1.2683328 7.5967849e-05            0    1.2683328       92 
 4204000 0.00015673178            0    1.2143763 6.7201811e-05            0    1.2143763       85 
 4205000 0.00014797543 -0.0004630781    1.1460679 6.3340164e-05 -0.0004630781     1.146531       85 
 4206000 0.00014610403            0    1.1734469 6.2644954e-05            0    1.1734469       82 
 4207000 0.00013517484            0    1.0725879 5.7958853e-05            0    1.0725879       83 
 4208000 0.00014362749            0    1.1260908 6.158309e-05            0    1.1260908       84 
 4209000 0.00013373853            0    1.0873933 5.7343006e-05            0    1.0873933       81 
 4210000 0.00014532805 -0.00039333827    1.1812314 6.2219307e-05 -0.00039333827    1.1816247       81 
 4211000 0.00013159025            0    1.1255068 5.6421892e-05            0    1.1255068       77 
 4212000 0.00012914473            0    1.1191241 5.5373327e-05            0    1.1191241       76 
 4213000 0.00014057055            0    1.1572295 6.0272371e-05            0    1.1572295       80 
 4214000 0.00013526699            0    1.1276644 5.7998365e-05            0    1.1276644       79 
 4215000 0.00015335534 -0.00087675982    1.2308097 6.5585787e-05 -0.00087675982    1.2316865       82 
 4216000  0.000145294 -0.00026017196     1.166681 6.2224807e-05 -0.00026017196    1.1669411       82 
 4217000 0.00014419026            0    1.2174649 6.182439e-05            0    1.2174649       78 
 4218000 0.00013184783 -0.00019735157    1.0852234 5.6470137e-05 -0.00019735157    1.0854207       80 
 4219000 0.00013542918            0    1.1149038 5.8067908e-05            0    1.1149038       80 
 4220000 0.00013909511            0    1.1896967 5.9639745e-05            0    1.1896967       77 
 4221000 0.0001327303 -0.00064347338    1.1346143 5.6784258e-05 -0.00064347338    1.1352578       77 
 4222000 0.00011925395            0     1.075883 5.1132458e-05            0     1.075883       73 
 4223000 0.00011436384            0    1.0178227 4.9035731e-05            0    1.0178227       74 
 4224000 0.00011913781            0    1.0748352 5.1082661e-05            0    1.0748352       73 
 4225000 0.00011515903            0   0.99792876 4.9376683e-05            0   0.99792876       76 
 4226000 0.0001160706            0    1.0617074 4.9767536e-05            0    1.0617074       72 
 4227000 0.0001206684            0    1.0739324 5.1738932e-05            0    1.0739324       74 
 4228000 0.00011429534            0    1.0311475 4.9006361e-05            0    1.0311475       73 
 4229000 0.00011948568            0    1.0219749 5.1231817e-05            0    1.0219749       77 
 4230000 0.00011527271 -0.0065336227    1.0478754 5.4228883e-05 -0.0065336227     1.054409       72 
 4231000 0.00011629886            0    1.0941895 4.9865409e-05            0    1.0941895       70 
 4232000 0.00011571082            0    1.1374028 4.9613274e-05            0    1.1374028       67 
 4233000 0.00011146499            0    1.0956675 4.779279e-05            0    1.0956675       67 
 4234000 0.00010028632 -0.00045833961    1.0315349 4.2911597e-05 -0.00045833961    1.0319932       64 
 4235000 0.00011752289            0    1.0602657 5.0390234e-05            0    1.0602657       73 
 4236000 0.00010537175            0    1.0205409 4.5180195e-05            0    1.0205409       68 
 4237000 0.00011446072            0    1.0469818 4.9077271e-05            0    1.0469818       72 
 4238000 0.00012074819 -0.00027373719    1.1197763 5.1703952e-05 -0.00027373719      1.12005       71 
 4239000 0.00011252129            0     1.043738  4.82457e-05            0     1.043738       71 
 4240000 0.00010679052            0    1.0656237 4.5788519e-05            0    1.0656237       66 
 4241000 0.00011031138            0    1.0843279 4.7298159e-05            0    1.0843279       67 
 4242000 0.00010399788            0    1.0537225 4.4591123e-05            0    1.0537225       65 
 4243000 0.00010079022            0    1.0371786 4.3215774e-05            0    1.0371786       64 
 4244000  0.000100434            0    1.0499179 4.306304e-05            0    1.0499179       63 
 4245000 0.00012158988            0    1.2319674 5.2134038e-05            0    1.2319674       65 
 4246000 0.00011302194            0    1.1630488 4.8460366e-05            0    1.1630488       64 
 4247000 0.0001196871            0    1.2511862 5.1318183e-05            0    1.2511862       63 
 4248000 0.00011957708            0    1.2305042 5.127101e-05            0    1.2305042       64 
 4249000 0.00011705287            0    1.2236484 5.0188704e-05            0    1.2236484       63 
 4250000 0.00012446758            0    1.3438214 5.3367906e-05            0    1.3438214       61 
 4251000 0.00012839583            0    1.2620926 5.5052218e-05            0    1.2620926       67 
 4252000 0.00012503491            0     1.266873 5.361116e-05            0     1.266873       65 
 4253000 0.00012278101            0    1.2835293 5.2644757e-05            0    1.2835293       63 
 4254000 0.00012548936            0    1.3330006 5.3806015e-05            0    1.3330006       62 
 4255000 0.00012003448            0    1.2548176 5.1467127e-05            0    1.2548176       63 
 4256000 0.00012282901            0    1.2445224 5.2665338e-05            0    1.2445224       65 
 4257000 0.00012600662            0    1.2573742 5.4027799e-05            0    1.2573742       66 
 4258000 0.00013792628            0    1.3164763 5.9138585e-05            0    1.3164763       69 
 4259000 0.00013785509 -0.00012237564     1.354952 5.9060475e-05 -0.00012237564    1.3550744       67 
 4260000 0.00012492689            0    1.2657785 5.3564844e-05            0    1.2657785       65 
 4261000 0.00012918456            0    1.2698456 5.5390402e-05            0    1.2698456       67 
 4262000 0.00013372407            0    1.2404131 5.7336805e-05            0    1.2404131       71 
 4263000 0.0001295001 -0.00060252292    1.2916319 5.5385644e-05 -0.00060252292    1.2922344       66 
 4264000 0.00013532412            0    1.3503502 5.8022861e-05            0    1.3503502       66 
 4265000 0.00012636624            0    1.3003679 5.4181995e-05            0    1.3003679       64 
 4266000 0.00014052475            0    1.3034957 6.0252731e-05            0    1.3034957       71 
 4267000 0.00012643589            0     1.189563 5.4211857e-05            0     1.189563       70 
 4268000 0.00012728684            0     1.180702 5.4576719e-05            0     1.180702       71 
 4269000 0.00011050914            0    1.1196956 4.7382954e-05            0    1.1196956       65 
 4270000 0.00012602922            0    1.2575998 5.4037491e-05            0    1.2575998       66 
 4271000 0.00011579597            0    1.1732626 4.9649785e-05            0    1.1732626       65 
 4272000 0.00014556782            0    1.3695644 6.2415045e-05            0    1.3695644       70 
 4273000 0.00013224254            0    1.2807885 5.6701573e-05            0    1.2807885       68 
 4274000 0.00012187009            0    1.1979466 5.2254181e-05            0    1.1979466       67 
 4275000 0.00012967917            0    1.2200772 5.5602477e-05            0    1.2200772       70 
 4276000 0.00011669889            0    1.0979531 5.0036926e-05            0    1.0979531       70 
 4277000 0.00012835903            0     1.142378 5.5036439e-05            0     1.142378       74 
 4278000 0.00015674376            0    1.4141078 6.7206947e-05            0    1.4141078       73 
 4279000 0.00015543376  -0.01344979    1.3888396 6.648454e-05  -0.01344979    1.4022893       73 
 4280000 0.00013748934            0    1.3316045 5.8951239e-05            0    1.3316045       68 
 4281000 0.00015502787            0    1.2924026 6.6471226e-05            0    1.2924026       79 
 4282000 0.0001433138            0    1.2929457 6.1448591e-05            0    1.2929457       73 
 4283000 0.00015003212 -0.0059176129    1.3664387 6.3590448e-05 -0.0059176129    1.3723563       72 
 4284000 0.00016750547            0    1.4907761 7.1821242e-05            0    1.4907761       74 
 4285000 0.00014039393            0    1.3400296 6.0196642e-05            0    1.3400296       69 
 4286000 0.00014133917            0    1.3297794 6.0601928e-05            0    1.3297794       70 
 4287000 0.0001510212            0    1.3814035 6.475329e-05            0    1.3814035       72 
 4288000 0.00013545818            0    1.3724831 5.8080341e-05            0    1.3724831       65 
 4289000 0.00015280969 -0.00016510257     1.437534 6.5466083e-05 -0.00016510257    1.4376991       70 
 4290000 0.00014002061            0    1.2988194 6.0036573e-05            0    1.2988194       71 
 4291000 0.00014306503            0    1.3086278 6.1341926e-05            0    1.3086278       72 
 4292000 0.00012624674            0    1.1710541 5.4130757e-05            0    1.1710541       71 
 4293000 0.00013221719            0    1.2264354 5.6690701e-05            0    1.2264354       71 
 4294000 0.00012963823            0    1.2373688 5.5584925e-05            0    1.2373688       69 
 4295000 0.0001326611            0    1.2848423 5.6881039e-05            0    1.2848423       68 
 4296000 0.00011871209 -0.00065258924    1.2209504 5.078838e-05 -0.00065258924     1.221603       64 
 4297000 0.00011855533 -0.0013477164    1.2186422 5.0637996e-05 -0.0013477164    1.2199899       64 
 4298000 0.00011773199            0    1.1928786 5.047989e-05            0    1.1928786       65 
 4299000 0.00012040835            0    1.1835781 5.1627431e-05            0    1.1835781       67 
 4300000 0.00010603212            0    1.0743337 4.5463341e-05            0    1.0743337       65 
 4301000 0.00010572199 -0.013013569    1.0581779 4.7318716e-05 -0.013013569    1.0711915       65 
 4302000 0.00011249813            0    1.1058231 4.8235772e-05            0    1.1058231       67 
 4303000 0.00012230255            0    1.1506749 5.2439609e-05            0    1.1506749       70 
 4304000 0.00011913885            0    1.1710993 5.1083107e-05            0    1.1710993       67 
 4305000 0.00011978771            0    1.1433477 5.1361322e-05            0    1.1433477       69 
 4306000 0.00012403769            0    1.1669998 5.3183582e-05            0    1.1669998       70 
 4307000 0.0001393015            0    1.3491555 5.9728237e-05            0    1.3491555       68 
 4308000 0.00013020572            0    1.2427853 5.5828245e-05            0    1.2427853       69 
 4309000 0.00012682069            0    1.2104759 5.4376847e-05            0    1.2104759       69 
 4310000 0.00014374928            0    1.2968745 6.163531e-05            0    1.2968745       73 
 4311000 0.00013897975            0    1.3075811 5.9590283e-05            0    1.3075811       70 
 4312000 0.00015324352            0    1.3825295 6.5706153e-05            0    1.3825295       73 
 4313000 0.00014448746            0    1.3216389 6.1951822e-05            0    1.3216389       72 
 4314000 0.00014647131            0    1.3780649 6.2802436e-05            0    1.3780649       70 
 4315000 0.00016524353            0    1.5772136 7.0851391e-05            0    1.5772136       69 
 4316000 0.00015526641            0    1.4819841 6.6573505e-05            0    1.4819841       69 
 4317000 0.00014107247            0    1.3085763 6.0487578e-05            0    1.3085763       71 
 4318000 0.00014295044            0    1.3259962 6.1292793e-05            0    1.3259962       71 
 4319000 0.00015002263 -0.00012879186    1.4113484 6.4275974e-05 -0.00012879186    1.4114772       70 
 4320000 0.00013225577            0    1.3400358 5.6707245e-05            0    1.3400358       65 
 4321000 0.00014099396            0    1.3859285 6.0453914e-05            0    1.3859285       67 
 4322000 0.00014677635            0    1.4009484 6.2933227e-05            0    1.4009484       69 
 4323000 0.00011363503            0    1.1693578 4.872324e-05            0    1.1693578       64 
 4324000 0.00012198126            0    1.1990394 5.230185e-05            0    1.1990394       67 
 4325000 0.0001124827 -0.0038791623    1.1909593 4.7764698e-05 -0.0038791623    1.1948384       62 
 4326000 0.0001157454            0    1.2099804 4.9628101e-05            0    1.2099804       63 
 4327000 0.00011749116            0     1.154903 5.0376628e-05            0     1.154903       67 
 4328000 0.00012368243            0    1.2531694 5.3031259e-05            0    1.2531694       65 
 4329000 0.00011252836            0    1.1579696 4.8248732e-05            0    1.1579696       64 
 4330000 0.00010176077            0    1.1359089 4.3631919e-05            0    1.1359089       59 
 4331000 0.00012863531            0    1.2277961 5.5154903e-05            0    1.2277961       69 
 4332000 0.00010657949            0    1.0798797 4.5698036e-05            0    1.0798797       65 
 4333000 0.00011055523            0    1.2135094 4.7402712e-05            0    1.2135094       60 
 4334000 0.00010352997            0    1.1177672 4.4390495e-05            0    1.1177672       61 
 4335000 0.00011965924            0    1.2313497 5.1306236e-05            0    1.2313497       64 
 4336000 0.00010372335            0    1.1385193 4.4473412e-05            0    1.1385193       60 
 4337000 0.00011829026            0    1.2365839 5.0719259e-05            0    1.2365839       63 
 4338000 0.00010704141            0    1.1189905 4.5896094e-05            0    1.1189905       63 
 4339000 0.00010808025            0    1.0950857 4.6341519e-05            0    1.0950857       65 
 4340000 9.2051756e-05            0    1.0452477 3.9468988e-05            0    1.0452477       58 
 4341000 0.00010065811            0    1.0522607 4.3159131e-05            0    1.0522607       63 
 4342000 0.00010604123            0    1.1836897 4.5467248e-05            0    1.1836897       59 
 4343000 9.9701254e-05            0    1.0943708 4.274886e-05            0    1.0943708       60 
 4344000 0.00011625595            0    1.1963282 4.9847008e-05            0    1.1963282       64 
 4345000 0.00010608182 -0.0019185536     1.124927 4.5230052e-05 -0.0019185536    1.1268455       62 
 4346000  0.000117295            0    1.2261796 5.0292524e-05            0    1.2261796       63 
 4347000 0.00011055906            0    1.2135516 4.7404358e-05            0    1.2135516       60 
 4348000 9.9560101e-05            0    1.1708801 4.2688338e-05            0    1.1708801       56 
 4349000 0.00010452537 -0.00045559271    1.1864299 4.4734725e-05 -0.00045559271    1.1868855       58 
 4350000 0.00010962983            0    1.2666861 4.7005929e-05            0    1.2666861       57 
 4351000 9.9841725e-05            0    1.2176808 4.280909e-05            0    1.2176808       54 
 4352000 0.00013141744            0    1.5184248 5.6347794e-05            0    1.5184248       57 
 4353000 0.00011590856            0    1.3631468 4.969806e-05            0    1.3631468       56 
 4354000 0.00010998023            0    1.3413311 4.7156172e-05            0    1.3413311       54 
 4355000 0.00012262913            0    1.4955984 5.2579633e-05            0    1.4955984       54 
 4356000 0.00011265769            0    1.3739858 4.8304187e-05            0    1.3739858       54 
 4357000 0.00011350407            0    1.3348687 4.8667089e-05            0    1.3348687       56 
 4358000 0.00010645566            0     1.298345 4.5644943e-05            0     1.298345       54 
 4359000 0.00011947029            0    1.3335922 5.1225221e-05            0    1.3335922       59 
 4360000 0.00012298744            0    1.3965224 5.2733266e-05            0    1.3965224       58 
 4361000 0.00013712307            0    1.4110606 5.8794193e-05            0    1.4110606       64 
 4362000 0.00012444745            0    1.4131008 5.3359274e-05            0    1.4131008       58 
 4363000 0.00013910994            0    1.3674092 5.9646103e-05            0    1.3674092       67 
 4364000 0.00012127794            0    1.3312073 5.2000286e-05            0    1.3312073       60 
 4365000 0.00012118872            0    1.3527742 5.1962031e-05            0    1.3527742       59 
 4366000 0.0001085012            0    1.2760323 4.652201e-05            0    1.2760323       56 
 4367000 0.00011636389            0    1.2989169 4.9893292e-05            0    1.2989169       59 
 4368000 0.00010948148            0    1.2649721 4.6942322e-05            0    1.2649721       57 
 4369000 0.00010684466            0    1.2132212 4.5811737e-05            0    1.2132212       58 
 4370000 0.00010090648            0    1.2538867 4.3265624e-05            0    1.2538867       53 
 4371000 0.0001067883            0    1.2338545 4.5787568e-05            0    1.2338545       57 
 4372000 9.8409445e-05            0    1.2463745 4.2194972e-05            0    1.2463745       52 
 4373000 0.00010167923            0    1.2175441 4.3596955e-05            0    1.2175441       55 
 4374000 0.00012529288            0    1.3752773 5.3721771e-05            0    1.3752773       60 
 4375000 0.00011812615            0    1.1787379 5.0648892e-05            0    1.1787379       66 
 4376000 0.00012368936            0     1.293025 5.3034228e-05            0     1.293025       63 
 4377000 0.00012087458            0    1.3050293 5.1827336e-05            0    1.3050293       61 
 4378000 0.00010816119            0    1.1872312 4.6376221e-05            0    1.1872312       60 
 4379000 0.00011091558            0    1.1594904 4.7557222e-05            0    1.1594904       63 
 4380000 0.00011139418            0    1.1832757 4.7762429e-05            0    1.1832757       62 
 4381000 0.0001052103            0     1.135909 4.5110971e-05            0     1.135909       61 
 4382000 0.00011170501            0    1.2261301 4.7895706e-05            0    1.2261301       60 
 4383000 0.00011524043            0    1.2863761 4.9411584e-05            0    1.2863761       59 
 4384000 0.00011699126            0    1.2841546 5.0162288e-05            0    1.2841546       60 
 4385000 0.00010071109            0    1.0873331 4.3181848e-05            0    1.0873331       61 
 4386000 9.7114022e-05            0    1.1628786 4.1639534e-05            0    1.1628786       55 
 4387000 8.6175773e-05            0    1.0134733 3.6949546e-05            0    1.0134733       56 
 4388000 0.00011030817            0    1.1007251 4.7296784e-05            0    1.1007251       66 
 4389000 9.0635501e-05            0    1.0117226 3.8861741e-05            0    1.0117226       59 
 4390000 0.00010329154            0    1.1337796 4.4288266e-05            0    1.1337796       60 
 4391000 9.7893995e-05            0    1.0745334 4.1973962e-05            0    1.0745334       60 
 4392000 0.00013025907            0    1.2432945 5.5851118e-05            0    1.2432945       69 
 4393000 0.00010888928            0    1.1383078 4.6688408e-05            0    1.1383078       63 
 4394000 0.00014070448 -0.0001245328    1.2692804 6.0280488e-05 -0.0001245328     1.269405       73 
 4395000 0.00012438161            0    1.2602536 5.3331043e-05            0    1.2602536       65 
 4396000 0.00013387318            0    1.3358718 5.740074e-05            0    1.3358718       66 
 4397000 0.00011525367            0    1.1677679 4.9417262e-05            0    1.1677679       65 
 4398000 0.00011348256            0     1.225221 4.8657864e-05            0     1.225221       61 
 4399000 0.00011218598            0    1.1916865 4.810193e-05            0    1.1916865       62 
 4400000 0.00010644754            0    1.1882252 4.5641463e-05            0    1.1882252       59 
 4401000 0.00012243277            0    1.3218525 5.2495443e-05            0    1.3218525       61 
 4402000 0.00011644177            0      1.21726 4.9926681e-05            0      1.21726       63 
 4403000 0.00012479216            0    1.3045534 5.3507075e-05            0    1.3045534       63 
 4404000 0.00010458371            0    1.1479631 4.484231e-05            0    1.1479631       60 
 4405000 0.00012584857            0    1.2950408 5.3960032e-05            0    1.2950408       64 
 4406000 0.00011630888 -0.00016764935     1.235314 4.9817885e-05 -0.00016764935    1.2354817       62 
 4407000 0.00010869885            0    1.2133555 4.6606755e-05            0    1.2133555       59 
 4408000 0.00011022849            0    1.2736032 4.7262619e-05            0    1.2736032       57 
 4409000 0.00010825549            0    1.2292411 4.6416657e-05            0    1.2292411       58 
 4410000 0.00013162564            0    1.3544896 5.6437065e-05            0    1.3544896       64 
 4411000 0.00012387192            0    1.4065656 5.3112505e-05            0    1.4065656       58 
 4412000 0.00010653706            0    1.2757135 4.5679845e-05            0    1.2757135       55 
 4413000 0.00011899558            0    1.3282932 5.1021678e-05            0    1.3282932       59 
 4414000 0.00012145358            0    1.4033002 5.2075592e-05            0    1.4033002       57 
 4415000 0.00010525591            0    1.3079337 4.5130526e-05            0    1.3079337       53 
 4416000 0.00010929835            0    1.2854072 4.6863804e-05            0    1.2854072       56 
 4417000 8.2037624e-05            0    1.0390223 3.5175233e-05            0    1.0390223       52 
 4418000 9.961374e-05            0    1.1509581 4.2711337e-05            0    1.1509581       57 
 4419000 8.2804795e-05            0    1.1129471 3.5504173e-05            0    1.1129471       49 
 4420000 7.897425e-05            0     1.040233 3.3861752e-05            0     1.040233       50 
 4421000 8.2376749e-05            0    1.0637746 3.532064e-05            0    1.0637746       51 
 4422000 7.9307996e-05            0   0.98549911 3.4004852e-05            0   0.98549911       53 
 4423000 7.1925535e-05            0    1.0078604 3.0839478e-05            0    1.0078604       47 
 4424000 8.421045e-05            0      1.02704 3.6106875e-05            0      1.02704       54 
 4425000 8.4657706e-05            0    1.0932298 3.6298645e-05            0    1.0932298       51 
 4426000 9.0033157e-05            0    1.1858987 3.8603474e-05            0    1.1858987       50 
 4427000 9.5422363e-05            0    1.1222181 4.0914202e-05            0    1.1222181       56 
 4428000 7.8286051e-05            0    1.0109492 3.3566673e-05            0    1.0109492       51 
 4429000 7.8402229e-05            0    1.0986154 3.3616487e-05            0    1.0986154       47 
 4430000 8.8726766e-05            0    1.1925421 3.8043334e-05            0    1.1925421       49 
 4431000 9.1164434e-05            0    1.1118516 3.9088532e-05            0    1.1118516       54 
 4432000 7.9839086e-05            0    1.0310044 3.4232567e-05            0    1.0310044       51 
 4433000 9.0050155e-05            0    1.0982617 3.8610763e-05            0    1.0982617       54 
 4434000 9.0158254e-05            0    1.0795877 3.8657112e-05            0    1.0795877       55 
 4435000 8.8171646e-05            0    1.0753512 3.7805315e-05            0    1.0753512       54 
 4436000 9.5362283e-05            0    1.1215115 4.0888441e-05            0    1.1215115       56 
 4437000 8.3166574e-05            0    1.0533207 3.5659293e-05            0    1.0533207       52 
 4438000 8.4057482e-05            0    1.0646042 3.6041287e-05            0    1.0646042       52 
 4439000 9.6876443e-05            0    1.1193308 4.1537667e-05            0    1.1193308       57 
 4440000 0.00010431125 -0.00045788236    1.2717337 5.2296662e-05 -0.00045788236    1.2721916       54 
 4441000 9.7527368e-05            0    1.2352029 4.1816764e-05            0    1.2352029       52 
 4442000 9.9540607e-05            0    1.1501131 4.2679979e-05            0    1.1501131       57 
 4443000 0.00010386193            0    1.2214719 4.453283e-05            0    1.2214719       56 
 4444000 0.00011290431            0    1.1993169 4.8409927e-05            0    1.1993169       62 
 4445000 0.00010833182            0    1.1891043 4.6449386e-05            0    1.1891043       60 
 4446000 0.00011475154            0    1.2809189 4.9201962e-05            0    1.2809189       59 
 4447000 0.00013173933            0    1.4223312 5.648581e-05            0    1.4223312       61 
 4448000 0.00011953075            0    1.2905206 5.1251143e-05            0    1.2905206       61 
 4449000 0.00012217205            0    1.2977627 5.2383651e-05            0    1.2977627       62 
 4450000 0.00011504755 -0.00075827729    1.1831349 4.9204352e-05 -0.00075827729    1.1838932       64 
 4451000 0.00011736576 -0.00012234575     1.226797 5.0276225e-05 -0.00012234575    1.2269193       63 
 4452000 0.00011970824            0    1.2715911 5.1327245e-05            0    1.2715911       62 
 4453000 0.00012311693            0    1.3077997 5.2788789e-05            0    1.3077997       62 
 4454000 0.00012666831            0    1.3675817 5.4311512e-05            0    1.3675817       61 
 4455000 0.0001272085            0    1.3090351 5.454313e-05            0    1.3090351       64 
 4456000 0.00013656243            0    1.3627068 5.8553809e-05            0    1.3627068       66 
 4457000 0.00014026975            0    1.4434415 6.0143396e-05            0    1.4434415       64 
 4458000 0.00013382383            0    1.4448366 5.7379579e-05            0    1.4448366       61 
 4459000 0.00014871455            0    1.5797083 6.3764266e-05            0    1.5797083       62 
 4460000 0.00014816486            0    1.3743647 6.3528578e-05            0    1.3743647       71 
 4461000 0.00014330925            0    1.4300309 6.1446641e-05            0    1.4300309       66 
 4462000 0.00014584694            0    1.4777436 6.2534722e-05            0    1.4777436       65 
 4463000 0.00012695922            0    1.3935679 5.4436245e-05            0    1.3935679       60 
 4464000 0.00013548886            0    1.3942439 5.8093496e-05            0    1.3942439       64 
 4465000 0.00012462921            0    1.4151647 5.3437209e-05            0    1.4151647       58 
 4466000 0.00011600632            0    1.3403614 4.9739974e-05            0    1.3403614       57 
 4467000 0.00012144967            0    1.2900893 5.2073916e-05            0    1.2900893       62 
 4468000 0.00012860976            0     1.411685 5.5143947e-05            0     1.411685       60 
 4469000 0.00011522705            0    1.3797706 4.9405849e-05            0    1.3797706       55 
 4470000 0.00013299134            0    1.4358486 5.7022634e-05            0    1.4358486       61 
 4471000 0.00013703191            0    1.4325055 5.875511e-05            0    1.4325055       63 
 4472000 0.00013535442            0    1.4377914 5.8035851e-05            0    1.4377914       62 
 4473000 0.00012924137 -0.0059633519    1.3893985 5.4760735e-05 -0.0059633519    1.3953618       61 
 4474000 0.00013572217            0    1.3966448 5.8193533e-05            0    1.3966448       64 
 4475000 0.00015651241 -0.000273181    1.4936038 6.7039684e-05 -0.000273181    1.4938769       69 
 4476000 0.00016202159            0    1.6416277 6.9469921e-05            0    1.6416277       65 
 4477000 0.00016206663            0    1.5930666 6.9489232e-05            0    1.5930666       67 
 4478000 0.00014816334            0    1.4141869 6.3527927e-05            0    1.4141869       69 
 4479000 0.00015104291            0    1.5072023 6.4762598e-05            0    1.5072023       66 
 4480000 0.00014936875  -0.01242753    1.3928977 6.5806619e-05  -0.01242753    1.4053252       70 
 4481000 0.00013914621            0    1.4318797 5.9661656e-05            0    1.4318797       64 
 4482000 0.00013965171            0    1.4149726  5.98784e-05            0    1.4149726       65 
 4483000 0.00014021468 -0.00020365783    1.3780648 6.0061708e-05 -0.00020365783    1.3782684       67 
 4484000 0.00014298808            0    1.4714143 6.1308931e-05            0    1.4714143       64 
 4485000 0.00014837743            0    1.5268733 6.361972e-05            0    1.5268733       64 
 4486000 0.00013040291            0    1.4313676 5.5912797e-05            0    1.4313676       60 
 4487000 0.00013966166 -0.00031224003    1.4368717 5.981242e-05 -0.00031224003    1.4371839       64 
 4488000 0.00012921808            0    1.4183622 5.5404774e-05            0    1.4183622       60 
 4489000 0.00012005888            0    1.3401623 5.1477589e-05            0    1.3401623       59 
 4490000 0.00013097132 -0.0026612395    1.3885711 5.5820081e-05 -0.0026612395    1.3912323       62 
 4491000 0.0001256548 -0.0015218726    1.3551174 5.3669921e-05 -0.0015218726    1.3566392       61 
 4492000 0.00012116154            0    1.3299297 5.1950377e-05            0    1.3299297       60 
 4493000 0.00012646664            0    1.3433817 5.4225041e-05            0    1.3433817       62 
 4494000 0.00013130811            0     1.351222 5.6300915e-05            0     1.351222       64 
 4495000 0.00011344032            0     1.224765 4.8639754e-05            0     1.224765       61 
 4496000 0.00010941383            0    1.1622396 4.6913316e-05            0    1.1622396       62 
 4497000 9.352463e-05            0    1.0806033 4.0100512e-05            0    1.0806033       57 
 4498000 9.1805758e-05            0    1.1196732 3.9363512e-05            0    1.1196732       54 
 4499000 0.00010866785            0    1.2339235 4.6593464e-05            0    1.2339235       58 
 4500000 0.00011700953            0    1.2429243 5.0170121e-05            0    1.2429243       62 
 4501000 9.1165816e-05            0    1.0721588 3.9089124e-05            0    1.0721588       56 
 4502000 0.0001075178            0    1.2208646 4.6100357e-05            0    1.2208646       58 
 4503000 9.5398039e-05            0    1.1854376 4.0903773e-05            0    1.1854376       53 
 4504000 9.9532372e-05            0     1.170554 4.2676449e-05            0     1.170554       56 
 4505000 0.00010714969            0    1.2166847 4.5942522e-05            0    1.2166847       58 
 4506000 9.9830803e-05            0    1.1534661 4.2804407e-05            0    1.1534661       57 
 4507000 0.00011984056            0     1.214243 5.1383983e-05            0     1.214243       65 
 4508000 0.00011153106 -0.00025417155     1.244716 4.7760449e-05 -0.00025417155    1.2449702       59 
 4509000 0.00011047559            0    1.2331885 4.7368569e-05            0    1.2331885       59 
 4510000 0.00011116277            0    1.2408591 4.7663209e-05            0    1.2408591       59 
 4511000 0.00010598366            0    1.1633296 4.5442563e-05            0    1.1633296       60 
 4512000 0.00011069228            0    1.1950956 4.7461479e-05            0    1.1950956       61 
 4513000 0.00012198898            0    1.2553238 5.2305157e-05            0    1.2553238       64 
 4514000 0.00013426791 -0.00033179043    1.3000726 5.7494805e-05 -0.00033179043    1.3004044       68 
 4515000 0.00013046112            0    1.3638157 5.5937755e-05            0    1.3638157       63 
 4516000 0.00014049402            0    1.4019388 6.0239556e-05            0    1.4019388       66 
 4517000 0.00012311316            0    1.3513516 5.2787173e-05            0    1.3513516       60 
 4518000 0.00015062856 -2.732011e-05    1.4171507 6.4549496e-05 -2.732011e-05     1.417178       70 
 4519000 0.0001362013 -0.00029786347    1.4235246 5.8331061e-05 -0.00029786347    1.4238225       63 
 4520000 0.00013676878            0    1.4297547 5.8642284e-05            0    1.4297547       63 
 4521000 0.0001458248            0    1.4334142 6.2525231e-05            0    1.4334142       67 
 4522000 0.00014973236            0    1.3889047 6.4200674e-05            0    1.3889047       71 
 4523000 0.00013882899            0    1.3646475 5.952564e-05            0    1.3646475       67 
 4524000 0.00014131579            0    1.4101389 6.0591907e-05            0    1.4101389       66 
 4525000 0.00013800723 -7.6837967e-05    1.4426244 5.9132191e-05 -7.6837967e-05    1.4427013       63 
 4526000 0.00014003988            0    1.4639502 6.0044834e-05            0    1.4639502       63 
 4527000 0.00013700053            0    1.3881104 5.8741653e-05            0    1.3881104       65 
 4528000 0.00013469984            0    1.4081265 5.7755187e-05            0    1.4081265       63 
 4529000 0.00015370302            0    1.4257362 6.5903172e-05            0    1.4257362       71 
 4530000 0.00014125744 -0.00055459817    1.4999412 6.0469148e-05 -0.00055459817    1.5004958       62 
 4531000 0.00012870086            0    1.3671145 5.5183008e-05            0    1.3671145       62 
 4532000 0.00012445655            0    1.3892515 5.3363175e-05            0    1.3892515       59 
 4533000 0.00012931689            0    1.4194468 5.5447141e-05            0    1.4194468       60 
 4534000 0.00012405627            0    1.3617036 5.3191547e-05            0    1.3617036       60 
 4535000 0.00011761132            0    1.3831722 5.0428152e-05            0    1.3831722       56 
 4536000 0.00011475671            0    1.2809766 4.920418e-05            0    1.2809766       59 
 4537000 0.00012315222            0      1.32962 5.2803918e-05            0      1.32962       61 
 4538000 0.00011173066            0    1.2909595 4.7906701e-05            0    1.2909595       57 
 4539000 0.0001265346            0    1.4620074 5.425418e-05            0    1.4620074       57 
 4540000 0.00012531731            0     1.422978 5.3732242e-05            0     1.422978       58 
 4541000 0.00012575814 -0.00092896222    1.3794552 5.3783157e-05 -0.00092896222    1.3803842       60 
 4542000 0.00010971876            0    1.3138123 4.7044059e-05            0    1.3138123       55 
 4543000 0.00011435332            0    1.3212623 4.903122e-05            0    1.3212623       57 
 4544000 0.00013420217            0    1.4255518 5.7541803e-05            0    1.4255518       62 
 4545000 0.00013214504            0    1.5540965 5.6659767e-05            0    1.5540965       56 
 4546000 0.00013223758            0    1.4515058 5.6699444e-05            0    1.4515058       60 
 4547000 0.0001278568 -0.00041820917    1.3799951 5.4740278e-05 -0.00041820917    1.3804133       61 
 4548000 0.00012380574            0    1.2740191 5.3084131e-05            0    1.2740191       64 
 4549000 0.00011573131 -0.00017065046    1.1907588 4.9569226e-05 -0.00017065046    1.1909294       64 
 4550000 0.00012229889            0    1.2784893 5.2438036e-05            0    1.2784893       63 
 4551000  0.000138779            0     1.428101 5.9504207e-05            0     1.428101       64 
 4552000 0.00013583867            0    1.4200316 5.8243483e-05            0    1.4200316       63 
 4553000 0.00011344799            0    1.1859637 4.8643041e-05            0    1.1859637       63 
 4554000 0.00011303308            0     1.306008 4.846514e-05            0     1.306008       57 
 4555000 0.00012264194 -0.00043349572    1.3921657 5.2505009e-05 -0.00043349572    1.3925992       58 
 4556000 0.0001127079 -0.00031172645    1.2794864 4.8259118e-05 -0.00031172645    1.2797982       58 
 4557000 0.00011228542            0    1.2533907 4.8144565e-05            0    1.2533907       59 
 4558000 0.00011901265            0    1.3063424   5.1029e-05            0    1.3063424       60 
 4559000 0.00013318174            0    1.4618694 5.7104272e-05            0    1.4618694       60 
 4560000 0.00013023242            0    1.4060618 5.5839692e-05            0    1.4060618       61 
 4561000 0.0001256247 -0.0004985635    1.2922385 5.3771019e-05 -0.0004985635    1.2927371       64 
 4562000 0.00013029236            0    1.3407695 5.5865395e-05            0    1.3407695       64 
 4563000 0.00012545325            0    1.4245216 5.3790531e-05            0    1.4245216       58 
 4564000 0.00011247322            0    1.2995392 4.8225088e-05            0    1.2995392       57 
 4565000 0.00011221286            0    1.3196833 4.8113455e-05            0    1.3196833       56 
 4566000 0.00010682986            0    1.2563764 4.5805388e-05            0    1.2563764       56 
 4567000 0.00011038007            0    1.3462076 4.7327611e-05            0    1.3462076       54 
 4568000 0.00012318166            0    1.4486823 5.2816543e-05            0    1.4486823       56 
 4569000 0.00011401024            0     1.416717 4.8884115e-05            0     1.416717       53 
 4570000 0.0001198166            0    1.5175003 5.1373706e-05            0    1.5175003       52 
 4571000 0.00013665884            0    1.6071811 5.8595146e-05            0    1.6071811       56 
 4572000 0.00010892153            0    1.4639721 4.6702235e-05            0    1.4639721       49 
 4573000 0.00012836207            0    1.6257303 5.5037744e-05            0    1.6257303       52 
 4574000 0.00010232969            0    1.3478662 4.3875853e-05            0    1.3478662       50 
 4575000 0.00010499693            0    1.3558809 4.5019484e-05            0    1.3558809       51 
 4576000 0.00011337579            0    1.4088332 4.8612083e-05            0    1.4088332       53 
 4577000 0.00013426813            0    1.4262524 5.7570084e-05            0    1.4262524       62 
 4578000 0.00010309943            0    1.2811369 4.4205896e-05            0    1.2811369       53 
 4579000 0.00010568675            0    1.2655316 4.5315258e-05            0    1.2655316       55 
 4580000 0.00011012094            0    1.2504232 4.7216502e-05            0    1.2504232       58 
 4581000 0.00010492275 -0.018476103    1.2853177 4.474449e-05 -0.018476103    1.3037938       53 
 4582000 0.00010648216            0    1.2750561 4.5656307e-05            0    1.2750561       55 
 4583000 0.00010977802            0    1.1661082 4.706947e-05            0    1.1661082       62 
 4584000 0.00010945619            0    1.2646799 4.693148e-05            0    1.2646799       57 
 4585000 0.00011462968            0    1.3726175 4.9149716e-05            0    1.3726175       55 
 4586000 0.00012559898            0    1.4261764 5.3853017e-05            0    1.4261764       58 
 4587000 0.00011788196            0    1.3385496 5.0544192e-05            0    1.3385496       58 
 4588000 9.9190792e-05            0    1.2325672 4.2529989e-05            0    1.2325672       53 
 4589000 0.00013272203            0     1.432941 5.6907162e-05            0     1.432941       61 
 4590000 0.00012300102            0    1.3730041 5.2739089e-05            0    1.3730041       59 
 4591000 0.00012280833            0    1.4189533 5.2656469e-05            0    1.4189533       57 
 4592000 0.0001103268            0    1.3210933 4.7304772e-05            0    1.3210933       55 
 4593000 0.00011544579            0    1.3338849 4.9499635e-05            0    1.3338849       57 
 4594000 0.00012102838            0    1.3742772 5.189328e-05            0    1.3742772       58 
 4595000 0.0001445115            0    1.4420277 6.196213e-05            0    1.4420277       66 
 4596000 0.00012535313            0    1.4233848 5.3747604e-05            0    1.4233848       58 
 4597000 0.00014416086            0      1.46066 6.1811784e-05            0      1.46066       65 
 4598000 0.00012964076            0    1.4471204 5.5586006e-05            0    1.4471204       59 
 4599000 0.00012830124            0    1.4082985 5.5011662e-05            0    1.4082985       60 
 4600000 0.00012261962            0    1.3687467 5.2575556e-05            0    1.3687467       59 
 4601000 0.00012678866 -0.0054076644    1.4098762 5.3774764e-05 -0.0054076644    1.4152838       59 
 4602000 0.00013915652            0    1.4547158 5.9666078e-05            0    1.4547158       63 
 4603000 0.00013154975            0    1.5470956 5.6404527e-05            0    1.5470956       56 
 4604000 0.0001301067            0    1.4773616 5.5785789e-05            0    1.4773616       58 
 4605000 0.00013303037            0    1.5370609 5.703937e-05            0    1.5370609       57 
 4606000 0.00011589284            0    1.4134419 4.9691318e-05            0    1.4134419       54 
 4607000 0.00011459207            0    1.3476641 4.9133587e-05            0    1.3476641       56 
 4608000 0.00012963033            0    1.4719524 5.5581536e-05            0    1.4719524       58 
 4609000 0.00011824186            0    1.4975559 5.0698506e-05            0    1.4975559       52 
 4610000 0.00012447613            0    1.4134264 5.3371572e-05            0    1.4134264       58 
 4611000 0.00011846286            0    1.5003549 5.0793265e-05            0    1.5003549       52 
 4612000 0.00014354441            0    1.5247889 6.1547469e-05            0    1.5247889       62 
 4613000 0.00013192681 -1.7332863e-05    1.4980116 5.6532512e-05 -1.7332863e-05    1.4980289       58 
 4614000 0.00011964151 -0.00091240921    1.3576169 5.1165832e-05 -0.00091240921    1.3585293       58 
 4615000 0.00013269248            0    1.5605347 5.6894493e-05            0    1.5605347       56 
 4616000 0.00013646137            0    1.5232558 5.8510478e-05            0    1.5232558       59 
 4617000 0.00013102474            0    1.4877859 5.6179415e-05            0    1.4877859       58 
 4618000 0.00014483101 -0.015840664     1.522615 6.2259606e-05 -0.015840664    1.5384557       62 
 4619000 0.00015798338 -0.00018759101    1.6255354 6.7683537e-05 -0.00018759101     1.625723       64 
 4620000 0.00014175929            0    1.5560208 6.0782064e-05            0    1.5560208       60 
 4621000 0.0001502752            0    1.6494957 6.4433427e-05            0    1.6494957       60 
 4622000 0.0001565062            0    1.6624745 6.710509e-05            0    1.6624745       62 
 4623000 0.00013541538            0    1.4863869 5.8061989e-05            0    1.4863869       60 
 4624000 0.00011993789            0    1.3164983 5.1425713e-05            0    1.3164983       60 
 4625000 0.00012409702            0    1.2770165 5.320902e-05            0    1.2770165       64 
 4626000 0.00013528716            0    1.3298324 5.8007012e-05            0    1.3298324       67 
 4627000 0.00013047298            0     1.408659 5.5942839e-05            0     1.408659       61 
 4628000 0.00012713191            0    1.3504485 5.4510291e-05            0    1.3504485       62 
 4629000 0.0001264154            0    1.3875986 5.420307e-05            0    1.3875986       60 
 4630000 0.00012346736 -0.0056120237    1.3725976 5.2332611e-05 -0.0056120237    1.3782097       59 
 4631000 0.00014387537 -0.00058315943    1.5034626 6.1587163e-05 -0.00058315943    1.5040457       63 
 4632000 0.00014141745            0    1.3696488 6.0635495e-05            0    1.3696488       68 
 4633000  0.000151894 -0.014515252    1.5011797 6.4601885e-05 -0.014515252     1.515695       66 
 4634000 0.0001491753            0     1.488566 6.3961822e-05            0     1.488566       66 
 4635000 0.00013920711            0    1.5539052 5.9687767e-05            0    1.5539052       59 
 4636000 0.00013605537            0     1.378534 5.8336399e-05            0     1.378534       65 
 4637000 0.00013287864 -5.8203576e-05    1.4345736 5.6935701e-05 -5.8203576e-05    1.4346318       61 
 4638000 0.00014940005            0    1.5373965 6.4058188e-05            0    1.5373965       64 
 4639000 0.00014446421            0      1.42004 6.194185e-05            0      1.42004       67 
 4640000 0.00013838102            0    1.3602441 5.9333564e-05            0    1.3602441       67 
 4641000 0.00015300683            0    1.4604169 6.5604666e-05            0    1.4604169       69 
 4642000 0.00012244805            0    1.4147905 5.2501993e-05            0    1.4147905       57 
 4643000 0.00014419893            0    1.5827996 6.1828109e-05            0    1.5827996       60 
 4644000 0.0001481875 -5.0394157e-05    1.5248685 6.3500307e-05 -5.0394157e-05    1.5249189       64 
 4645000 0.00012052498            0    1.3229424 5.1677439e-05            0    1.3229424       60 
 4646000 0.00011393998            0    1.2718598 4.885399e-05            0    1.2718598       59 
 4647000 0.00012371085            0    1.3579122 5.3043445e-05            0    1.3579122       60 
 4648000 0.00013158766            0    1.4443719 5.6420778e-05            0    1.4443719       60 
 4649000 0.00013869828            0    1.4499254 5.9469598e-05            0    1.4499254       63 
 4650000 0.00014073269            0    1.4043204 6.0341891e-05            0    1.4043204       66 
 4651000 0.00014467731            0     1.536823 6.203322e-05            0     1.536823       62 
 4652000 0.00012382046            0    1.2943955 5.3090439e-05            0    1.2943955       63 
 4653000 0.00013570841            0    1.4415517 5.8187633e-05            0    1.4415517       62 
 4654000 0.00013520978            0     1.436255 5.7973834e-05            0     1.436255       62 
 4655000 0.00013900422            0    1.4765611 5.9600773e-05            0    1.4765611       62 
 4656000 0.00015122485            0    1.5808758 6.4840609e-05            0    1.5808758       63 
 4657000 0.00013698238            0    1.4319877 5.873387e-05            0    1.4319877       63 
 4658000 0.00014723322 -0.00011249341    1.4690743 6.3083028e-05 -0.00011249341    1.4691868       66 
 4659000 0.0001556129            0    1.5296284 6.6722072e-05            0    1.5296284       67 
 4660000 0.00014651568            0     1.531647 6.2821459e-05            0     1.531647       63 
 4661000 0.00014560933            0    1.4983883 6.2432845e-05            0    1.4983883       64 
 4662000 0.00016623535 -0.00034214746    1.5636713 7.1198815e-05 -0.00034214746    1.5640134       70 
 4663000 0.00016920611            0    1.5477424 7.2550426e-05            0    1.5477424       72 
 4664000 0.00015830722            0    1.5332287 6.7877311e-05            0    1.5332287       68 
 4665000 0.00016262905            0    1.4875815 6.9730383e-05            0    1.4875815       72 
 4666000 0.00016153342            0    1.4775597 6.9260611e-05            0    1.4775597       72 
 4667000 0.00017096367            0     1.563819 7.3304014e-05            0     1.563819       72 
 4668000 0.00017121717            0    1.5034922 7.3412707e-05            0    1.5034922       75 
 4669000 0.00016721336            0    1.5085623 7.1695994e-05            0    1.5085623       73 
 4670000 0.00017197332            0    1.5305393 7.3736921e-05            0    1.5305393       74 
 4671000 0.00017357773            0    1.5041653 7.4424844e-05            0    1.5041653       76 
 4672000 0.00017646946 -0.011534512    1.5380791 7.4782769e-05 -0.011534512    1.5496136       75 
 4673000 0.00017025446 -4.400919e-05    1.5151976 7.2961883e-05 -4.400919e-05    1.5152417       74 
 4674000 0.00018488141            0    1.4848908 7.9271516e-05            0    1.4848908       82 
 4675000 0.00016806989            0    1.5373493 7.2063248e-05            0    1.5373493       72 
 4676000 0.00017080709            0    1.5409842 7.3236877e-05            0    1.5409842       73 
 4677000 0.00016958895 -0.011310463    1.5186838 7.4884634e-05 -0.011310463    1.5299943       73 
 4678000 0.00017345079            0    1.5030652 7.4370413e-05            0    1.5030652       76 
 4679000 0.00017389771 -0.00049281736    1.4678058 7.4424487e-05 -0.00049281736    1.4682986       78 
 4680000 0.00016059948            0    1.4293137 6.8860163e-05            0    1.4293137       74 
 4681000 0.00017338167            0    1.4829537 7.4340777e-05            0    1.4829537       77 
 4682000 0.00017339903            0     1.464088 7.434822e-05            0     1.464088       78 
 4683000 0.00017788947 -0.00025326448    1.5212562 7.6204267e-05 -0.00025326448    1.5215095       77 
 4684000 0.00017791125 -0.0024791109    1.5597952 7.5875331e-05 -0.0024791109    1.5622743       75 
 4685000 0.00017697634            0    1.4569356 7.5882061e-05            0    1.4569356       80 
 4686000 0.00017115064            0    1.4638715 7.3384181e-05            0    1.4638715       77 
 4687000 0.00018331097            0    1.6314428 7.8598157e-05            0    1.6314428       74 
 4688000 0.00019437002 -0.00025055251    1.6409052 8.3270542e-05 -0.00025055251    1.6411558       78 
 4689000 0.00017621223            0    1.5473549 7.5554437e-05            0    1.5473549       75 
 4690000 0.00017293576            0    1.4986021 7.4149585e-05            0    1.4986021       76 
 4691000 0.0001629344            0    1.4500942 6.9861307e-05            0    1.4500942       74 
 4692000 0.0001702672            0    1.5574482 7.3005386e-05            0    1.5574482       72 
 4693000 0.00017602237            0    1.5456877 7.5473031e-05            0    1.5456877       75 
 4694000 0.00017605627            0    1.5459853 7.5487563e-05            0    1.5459853       75 
 4695000 0.00018447129 -0.00056593926    1.5372941 7.8978352e-05 -0.00056593926    1.5378601       79 
 4696000 0.00018116872            0    1.5103279 7.7679627e-05            0    1.5103279       79 
 4697000 0.0001801225 -0.00095110786    1.6021148 7.7065545e-05 -0.00095110786    1.6030659       74 
 4698000 0.00018332069 -0.0045126614     1.605263 7.7985019e-05 -0.0045126614    1.6097757       75 
 4699000 0.00017626042            0     1.547778 7.5575096e-05            0     1.547778       75 
 4700000 0.00018821219            0    1.6098009 8.0699654e-05            0    1.6098009       77 
 4701000 0.00016159713            0    1.4781424 6.9287925e-05            0    1.4781424       72 
 4702000 0.00018073281 -0.0022475496    1.5848034 7.7117839e-05 -0.0022475496    1.5870509       75 
 4703000 0.00017757924            0    1.5388409 7.6140566e-05            0    1.5388409       76 
 4704000 0.00018170329            0    1.5342048 7.7908837e-05            0    1.5342048       78 
 4705000 0.00020287581            0    1.6294144 8.6986968e-05            0    1.6294144       82 
 4706000 0.0001807199            0    1.6083827 7.7487187e-05            0    1.6083827       74 
 4707000 0.0001792531 -0.00022928936    1.4941289 7.679161e-05 -0.00022928936    1.4943582       79 
 4708000 0.00017552808            0    1.5621762 7.5261091e-05            0    1.5621762       74 
 4709000 0.00016947858            0    1.5289986 7.2667251e-05            0    1.5289986       73 
 4710000 0.00016117726 -0.0024296455    1.5359723 6.8728067e-05 -0.0024296455    1.5384019       69 
 4711000 0.00015017554            0    1.4761807 6.4390696e-05            0    1.4761807       67 
 4712000 0.00014367148            0    1.3914795 6.1601955e-05            0    1.3914795       68 
 4713000 0.00014258754            0    1.3809812 6.1137191e-05            0    1.3809812       68 
 4714000 0.0001574441            0    1.5027697 6.7507234e-05            0    1.5027697       69 
 4715000 0.00015358786 -0.0048625645    1.4401579 6.5233645e-05 -0.0048625645    1.4450204       70 
 4716000 0.00013506135 -0.00074598799    1.2883853 5.7780114e-05 -0.00074598799    1.2891313       69 
 4717000 0.0001261091            0    1.2213852 5.407174e-05            0    1.2213852       68 
 4718000 0.00015237585            0    1.3032884 6.5334121e-05            0    1.3032884       77 
 4719000 0.00012636432            0    1.3209886 5.4181172e-05            0    1.3209886       63 
 4720000 0.00014321035            0    1.4737017 6.1404236e-05            0    1.4737017       64 
 4721000 0.00015658617            0    1.4945809 6.7139377e-05            0    1.4945809       69 
 4722000 0.00015707321            0    1.5439828 6.7348207e-05            0    1.5439828       67 
 4723000 0.00015976507            0    1.5942375 6.8502393e-05            0    1.5942375       66 
 4724000 0.00018540414            0    1.5857833 7.9495646e-05            0    1.5857833       77 
 4725000 0.00016755314            0    1.5992583 7.184168e-05            0    1.5992583       69 
 4726000 0.00018004691 -6.4343242e-05    1.6700356 7.7158053e-05 -6.4343242e-05    1.6700999       71 
 4727000 0.00015220158            0    1.5421298 6.5259399e-05            0    1.5421298       65 
 4728000 0.00016004156            0    1.5731608 6.8620944e-05            0    1.5731608       67 
 4729000 0.00015041397            0     1.572399 6.4492929e-05            0     1.572399       63 
 4730000 0.00016328635            0    1.6802931 7.0012213e-05            0    1.6802931       64 
 4731000 0.00015401897            0     1.610085 6.6038641e-05            0     1.610085       63 
 4732000 0.00014298004            0    1.5436922 6.1305483e-05            0    1.5436922       61 
 4733000 0.0001661992            0    1.6839559 7.1261154e-05            0    1.6839559       65 
 4734000 0.00015075551            0    1.4600893 6.4639369e-05            0    1.4600893       68 
 4735000 0.00013989294 -0.00081471547    1.4615994  5.98198e-05 -0.00081471547    1.4624141       63 
 4736000 0.00015216888 -0.021974652    1.6483071 6.3952821e-05 -0.021974652    1.6702817       60 
 4737000 0.0001436863            0    1.4785994 6.1608309e-05            0    1.4785994       64 
 4738000 0.00017143909            0    1.6363489 7.350786e-05            0    1.6363489       69 
 4739000 0.00015052453            0    1.5735548 6.4540334e-05            0    1.5735548       63 
 4740000 0.00016118874            0    1.6331891 6.9112819e-05            0    1.6331891       65 
 4741000 0.00013584281            0    1.4910786 5.8245258e-05            0    1.4910786       60 
 4742000 0.00014282292            0     1.517125 6.1238118e-05            0     1.517125       62 
 4743000 0.00014819501            0    1.5741896 6.3541507e-05            0    1.5741896       62 
 4744000 0.00013763495 -0.0026142235    1.5602306 5.8700726e-05 -0.0026142235    1.5628448       58 
 4745000 0.00012459851            0    1.4653453 5.3424047e-05            0    1.4653453       56 
 4746000 0.00014466321            0    1.5366733 6.2027178e-05            0    1.5366733       62 
 4747000 0.00015045795            0    1.5982275 6.4511786e-05            0    1.5982275       62 
 4748000  0.000145526 -0.0001757738    1.5710041 6.2344667e-05 -0.0001757738    1.5711798       61 
 4749000 0.0001251213 -0.00054764597    1.5254456 5.3559625e-05 -0.00054764597    1.5259933       54 
 4750000 0.0001404568            0     1.491991 6.0223596e-05            0     1.491991       62 
 4751000 0.00014150825            0    1.5278019 6.0674426e-05            0    1.5278019       61 
 4752000 0.00014603686            0    1.5766953 6.2616156e-05            0    1.5766953       61 
 4753000 0.00015340378            0    1.5785968 6.5774866e-05            0    1.5785968       64 
 4754000 0.00014420736            0    1.6097208 6.1831723e-05            0    1.6097208       59 
 4755000  0.000140757            0    1.4714469 6.0352314e-05            0    1.4714469       63 
 4756000 0.0001341076            0    1.4720321 5.7501255e-05            0    1.4720321       60 
 4757000 0.00013931281            0    1.5040987 5.9733087e-05            0    1.5040987       61 
 4758000 0.00015125722            0    1.6330572 6.4854486e-05            0    1.6330572       61 
 4759000 0.00016147688            0    1.6616728 6.9236367e-05            0    1.6616728       64 
 4760000 0.00015829906            0    1.6548283 6.7873815e-05            0    1.6548283       63 
 4761000 0.00015917305            0    1.6639648 6.8248556e-05            0    1.6639648       63 
 4762000 0.00016734055            0    1.7493463 7.1750531e-05            0    1.7493463       63 
 4763000 0.00015465538            0    1.7263472 6.6311515e-05            0    1.7263472       59 
 4764000 0.00014350024            0    1.6580319 6.1528529e-05            0    1.6580319       57 
 4765000 0.00015141238            0    1.6901471 6.4921014e-05            0    1.6901471       59 
 4766000 0.00014227379            0    1.6438613 6.1002666e-05            0    1.6438613       57 
 4767000 0.00013678628 -4.5184234e-05     1.553163 5.8612979e-05 -4.5184234e-05    1.5532082       58 
 4768000 0.00013617916 -9.8454624e-05    1.4464537 5.8345931e-05 -9.8454624e-05    1.4465521       62 
 4769000 0.00012658946            0    1.4374234 5.4277705e-05            0    1.4374234       58 
 4770000 0.00012769126            0    1.5573367 5.475012e-05            0    1.5573367       54 
 4771000 0.00011426474            0    1.3202388 4.8993238e-05            0    1.3202388       57 
 4772000 0.00011729848 -0.0011984501    1.3782945 5.0134612e-05 -0.0011984501    1.3794929       56 
 4773000 0.00011604018            0    1.4984883 4.9754494e-05            0    1.4984883       51 
 4774000 0.00011259392            0     1.373208 4.8276842e-05            0     1.373208       54 
 4775000 0.00011558694            0    1.4639308 4.9560158e-05            0    1.4639308       52 
 4776000 0.00012401654            0    1.4850191 5.3174513e-05            0    1.4850191       55 
 4777000 0.00011128888            0    1.3572915 4.7717279e-05            0    1.3572915       54 
 4778000 0.00012753531            0    1.5554349 5.4683257e-05            0    1.5554349       54 
 4779000 0.00012325179 -1.110363e-05     1.424066 5.2813648e-05 -1.110363e-05    1.4240771       57 
 4780000 0.0001230935 -0.0047243645     1.469242 5.2282857e-05 -0.0047243645    1.4739663       55 
 4781000 0.00011592147            0    1.4137911 4.9703593e-05            0    1.4137911       54 
 4782000 0.00012954844            0    1.4710225 5.5546424e-05            0    1.4710225       58 
 4783000 0.00012654137            0    1.3889814 5.4257086e-05            0    1.3889814       60 
 4784000 0.00010605228            0    1.3431725 4.5471987e-05            0    1.3431725       52 
 4785000 0.00011514059            0    1.4868715 4.9368779e-05            0    1.4868715       51 
 4786000 0.00011520882            0    1.4316109 4.9398031e-05            0    1.4316109       53 
 4787000 0.0001220879            0    1.4619249 5.234757e-05            0    1.4619249       55 
 4788000 0.00012869934            0    1.5696314 5.5182355e-05            0    1.5696314       54 
 4789000 0.00012132216            0    1.5075766 5.2019246e-05            0    1.5075766       53 
 4790000 0.00013626187            0    1.5743983 5.8424937e-05            0    1.5743983       57 
 4791000 0.0001311409            0    1.5152295 5.6229221e-05            0    1.5152295       57 
 4792000 0.00013641153 -0.00055476545    1.5755728 5.8396629e-05 -0.00055476545    1.5761276       57 
 4793000 0.00013093689            0     1.539888 5.614175e-05            0     1.539888       56 
 4794000 0.00012428942            0    1.5444485 5.3291516e-05            0    1.5444485       53 
 4795000 0.00013846477 -0.0039184513    1.5417004 5.8920372e-05 -0.0039184513    1.5456188       59 
 4796000 0.00012783712            0     1.503433 5.4812662e-05            0     1.503433       56 
 4797000 0.00014061573            0     1.569629 6.0291739e-05            0     1.569629       59 
 4798000 0.00011931997            0     1.482697 5.1160768e-05            0     1.482697       53 
 4799000 0.0001238147            0    1.4826022 5.3087971e-05            0    1.4826022       55 
 4800000 0.00011173401 -0.0073840542    1.4077486 4.7225721e-05 -0.0073840542    1.4151327       52 
 4801000 0.00011714756            0    1.4027675 5.0229303e-05            0    1.4027675       55 
 4802000 0.00013854153            0    1.5207011 5.9402386e-05            0    1.5207011       60 
 4803000 0.00012315071 -0.00022879774    1.4226804 5.2746359e-05 -0.00022879774    1.4229092       57 
 4804000 0.00011237357            0    1.3705206 4.8182365e-05            0    1.3705206       54 
 4805000 0.00010704384 -0.00085514124    1.4091049 4.5783513e-05 -0.00085514124      1.40996       50 
 4806000 0.00010727279            0    1.2394524 4.5995304e-05            0    1.2394524       57 
 4807000 0.00010963775            0    1.3371542 4.7009327e-05            0    1.3371542       54 
 4808000 0.0001231135            0    1.4478807 5.2787317e-05            0    1.4478807       56 
 4809000 0.00010676001            0    1.2555549 4.5775438e-05            0    1.2555549       56 
 4810000 0.00010254793            0    1.3507408 4.3969426e-05            0    1.3507408       50 
 4811000 9.9591735e-05            0    1.3385739 4.2701901e-05            0    1.3385739       49 
 4812000 0.00011513357            0    1.5165163 4.9365765e-05            0    1.5165163       50 
 4813000 0.00011135049            0    1.4102754 4.7743698e-05            0    1.4102754       52 
 4814000 9.2338448e-05            0    1.2938974 3.9591913e-05            0    1.2938974       47 
 4815000 0.00010711615            0    1.3832475 4.592814e-05            0    1.3832475       51 
 4816000 0.00011396188 -0.0046102619    1.3356425 4.8370181e-05 -0.0046102619    1.3402527       56 
 4817000 0.00010996034 -0.024245636    1.3168428 4.8598521e-05 -0.024245636    1.3410885       54 
 4818000 0.00012230413 -0.000909833    1.5480956 5.2318055e-05 -0.000909833    1.5490054       52 
 4819000 0.00011623536            0    1.5010087 4.9838181e-05            0    1.5010087       51 
 4820000 9.6059229e-05            0    1.2404637 4.118727e-05            0    1.2404637       51 
 4821000 0.00010224083            0    1.2948998 4.3837754e-05            0    1.2948998       52 
 4822000 0.00011686757            0    1.3744253 5.0109255e-05            0    1.3744253       56 
 4823000 9.9844987e-05            0     1.264556 4.2810488e-05            0     1.264556       52 
 4824000 0.00010799208            0    1.3677404 4.6303712e-05            0    1.3677404       52 
 4825000 0.00010767495            0     1.363724 4.6167739e-05            0     1.363724       52 
 4826000 9.778662e-05            0    1.3702402 4.1927923e-05            0    1.3702402       47 
 4827000 7.9916141e-05            0    1.1198292 3.4265606e-05            0    1.1198292       47 
 4828000 8.8420582e-05 -0.00037465297     1.212811 3.7845643e-05 -0.00037465297    1.2131856       48 
 4829000 0.00010158454            0    1.3653585 4.3556358e-05            0    1.3653585       49 
 4830000 8.7156197e-05            0      1.27556 3.7369922e-05            0      1.27556       45 
 4831000 9.8330487e-05            0    1.3216219 4.2161117e-05            0    1.3216219       49 
 4832000 0.00010756287            0    1.3366006 4.6119681e-05            0    1.3366006       53 
 4833000 9.4091383e-05            0    1.2909926 4.0343518e-05            0    1.2909926       48 
 4834000 0.00010426109            0    1.4013329 4.470398e-05            0    1.4013329       49 
 4835000 0.00010370313            0    1.3659569 4.4464742e-05            0    1.3659569       50 
 4836000 0.00010356291            0    1.4209478 4.4404618e-05            0    1.4209478       48 
 4837000 0.00010806598            0    1.5471994 4.6335398e-05            0    1.5471994       46 
 4838000 0.00011093125            0      1.55443 4.7563939e-05            0      1.55443       47 
 4839000 0.00011237771            0    1.4802168 4.8184139e-05            0    1.4802168       50 
 4840000 0.00010951241            0    1.5345485 4.6955586e-05            0    1.5345485       47 
 4841000 0.00010192983            0     1.398541 4.3704406e-05            0     1.398541       48 
 4842000 0.00011969477 -0.0021048283    1.6401822 5.1099423e-05 -0.0021048283     1.642287       48 
 4843000 0.0001158434            0     1.387151 4.967012e-05            0     1.387151       55 
 4844000 9.2419202e-05            0    1.3231818 3.9626538e-05            0    1.3231818       46 
 4845000 0.00012089606            0    1.5311718 5.1836545e-05            0    1.5311718       52 
 4846000 9.757027e-05            0    1.3969305 4.1835159e-05            0    1.3969305       46 
 4847000 9.9261777e-05            0    1.4857458 4.2560426e-05            0    1.4857458       44 
 4848000 9.3060732e-05            0    1.4592588 3.9901607e-05            0    1.4592588       42 
 4849000 0.00011288548            0    1.5488594 4.8401855e-05            0    1.5488594       48 
 4850000 0.00010940391            0    1.7155315 4.6909064e-05            0    1.7155315       42 
 4851000 0.00011931273            0    1.7082211 5.1157663e-05            0    1.7082211       46 
 4852000 0.00010897284            0    1.5948538 4.6724233e-05            0    1.5948538       45 
 4853000 9.6782893e-05            0    1.5176249 4.1497556e-05            0    1.5176249       42 
 4854000 9.9520902e-05            0    1.6385868 4.2671531e-05            0    1.6385868       40 
 4855000 9.8757493e-05            0    1.5125744 4.2344204e-05            0    1.5125744       43 
 4856000 0.00011567885            0    1.5871862 4.9599568e-05            0    1.5871862       48 
 4857000 0.00010020825            0    1.5347942 4.2966243e-05            0    1.5347942       43 
 4858000 0.00010616912            0    1.5891345 4.5522083e-05            0    1.5891345       44 
 4859000 0.0001111746            0    1.7858167 4.7668283e-05            0    1.7858167       41 
 4860000 0.00010885001            0    1.5584246 4.6671569e-05            0    1.5584246       46 
 4861000 0.00010441834            0    1.5992761 4.4771402e-05            0    1.5992761       43 
 4862000 0.00012243753            0    1.7919141 5.2497483e-05            0    1.7919141       45 
 4863000 9.2325427e-05            0    1.4830391 3.958633e-05            0    1.4830391       41 
 4864000 0.00011977012            0    1.8344047 5.1353776e-05            0    1.8344047       43 
 4865000 0.00010209472            0    1.6009182 4.3775106e-05            0    1.6009182       42 
 4866000 0.00010884269            0    1.6670397 4.666843e-05            0    1.6670397       43 
 4867000 0.00010392171            0    1.5209289 4.4558465e-05            0    1.5209289       45 
 4868000 0.00011137906            0    1.5281903 4.7755948e-05            0    1.5281903       48 
 4869000 0.00012496019            0    1.7510114 5.3579124e-05            0    1.7510114       47 
 4870000 0.00011465587            0    1.5731502 4.9160943e-05            0    1.5731502       48 
 4871000 0.00012410271            0     1.634656 5.3211459e-05            0     1.634656       50 
 4872000 0.00010463768            0     1.566212 4.4865449e-05            0     1.566212       44 
 4873000 0.00011717283 -0.0019296629    1.6756541 5.0040597e-05 -0.0019296629    1.6775838       46 
 4874000 9.5384337e-05            0    1.5321749 4.0897898e-05            0    1.5321749       41 
 4875000 9.7573701e-05            0    1.4944433 4.183663e-05            0    1.4944433       43 
 4876000 0.00010486861            0    1.5696686 4.4964466e-05            0    1.5696686       44 
 4877000 0.00011441499            0    1.6380993 4.905766e-05            0    1.6380993       46 
 4878000 0.00010383523            0    1.7096211 4.4521384e-05            0    1.7096211       40 
 4879000 0.00010556423            0    1.6168266 4.5262724e-05            0    1.6168266       43 
 4880000 0.00010368095            0    1.6654448 4.4455233e-05            0    1.6654448       41 
 4881000 9.7113655e-05            0    1.5228115 4.1639376e-05            0    1.5228115       42 
 4882000 9.7377445e-05            0    1.5269479 4.1752482e-05            0    1.5269479       42 
 4883000 9.6673606e-05            0    1.5159112 4.1450697e-05            0    1.5159112       42 
 4884000 9.2580554e-05            0    1.3857415 3.9695721e-05            0    1.3857415       44 
 4885000 8.5090303e-05            0    1.3668201 3.6484129e-05            0    1.3668201       41 
 4886000 8.4694843e-05            0    1.4302353 3.6314568e-05            0    1.4302353       39 
 4887000 8.5948977e-05            0    1.3806131 3.6852302e-05            0    1.3806131       41 
 4888000 8.9197997e-05            0    1.3986883 3.8245383e-05            0    1.3986883       42 
 4889000 8.5645374e-05 -0.018747562    1.3242331 3.5758237e-05 -0.018747562    1.3429806       42 
 4890000 8.3328458e-05            0    1.2762625 3.5728704e-05            0    1.2762625       43 
 4891000 8.5440252e-05            0    1.2504466 3.6634177e-05            0    1.2504466       45 
 4892000 8.9994402e-05            0    1.3470321 3.8586857e-05            0    1.3470321       44 
 4893000 0.00010443869            0     1.528495 4.4780128e-05            0     1.528495       45 
 4894000 7.7556336e-05            0    1.1103875 3.3253794e-05            0    1.1103875       46 
 4895000 8.8319336e-05            0    1.3527031 3.786864e-05            0    1.3527031       43 
 4896000 8.0948081e-05            0    1.3327899 3.4708071e-05            0    1.3327899       40 
 4897000 8.311805e-05            0    1.3685179 3.5638487e-05            0    1.3685179       40 
 4898000 9.3787045e-05            0    1.4364467 4.0213027e-05            0    1.4364467       43 
 4899000 9.0780607e-05            0    1.4582244 3.8923958e-05            0    1.4582244       41 
 4900000 8.7691057e-05            0    1.4438113 3.7599254e-05            0    1.4438113       40 
 4901000 9.9252902e-05            0    1.4210211 4.255662e-05            0    1.4210211       46 
 4902000 0.00010029635            0    1.4678705 4.3004018e-05            0    1.4678705       45 
 4903000 9.9149342e-05            0    1.4195384 4.2512217e-05            0    1.4195384       46 
 4904000 0.00011290425            0    1.5820769 4.8409904e-05            0    1.5820769       47 
 4905000 0.00010675727            0    1.7148603 4.5774266e-05            0    1.7148603       41 
 4906000 0.00013550956            0    1.7499067 5.8102372e-05            0    1.7499067       51 
 4907000 0.00012037202            0    1.7233871 5.1611854e-05            0    1.7233871       46 
 4908000 0.00013718871            0    1.8823149 5.8822341e-05            0    1.8823149       48 
 4909000 0.00013921279            0    1.9507266 5.9690202e-05            0    1.9507266       47 
 4910000 0.00010748808            0    1.6088766 4.6087612e-05            0    1.6088766       44 
 4911000 0.00011741725            0    1.6453155 5.0344941e-05            0    1.6453155       47 
 4912000 0.00011851473            0    1.7345026 5.0815507e-05            0    1.7345026       45 
 4913000 0.00011979822            0    1.7931343 5.1365828e-05            0    1.7931343       44 
 4914000 0.0001115064            0    1.6690227 4.7810546e-05            0    1.6690227       44 
 4915000 0.0001144028            0    1.7521986 4.9052435e-05            0    1.7521986       43 
 4916000 0.00010866591            0    1.8350328 4.659263e-05            0    1.8350328       39 
 4917000 9.4515187e-05            0    1.5561689 4.0525232e-05            0    1.5561689       40 
 4918000 0.00010658459            0    1.5953533 4.5700225e-05            0    1.5953533       44 
 4919000 0.00011829234            0    1.7705944 5.0720152e-05            0    1.7705944       44 
 4920000 0.00011523443            0    1.9971643 4.9409012e-05            0    1.9971643       38 
 4921000 9.8858425e-05            0    1.5879798 4.2387481e-05            0    1.5879798       41 
 4922000 7.7561035e-05            0    1.3442348 3.3255809e-05            0    1.3442348       38 
 4923000 8.7336025e-05            0    1.4748367 3.7447026e-05            0    1.4748367       39 
 4924000 8.5446223e-05            0    1.4068507 3.6636737e-05            0    1.4068507       40 
 4925000 8.6015277e-05            0     1.348781 3.688073e-05            0     1.348781       42 
 4926000 0.00012790441            0    1.8312297 5.4841514e-05            0    1.8312297       46 
 4927000 0.00012165496            0    1.7417552 5.216194e-05            0    1.7417552       46 
 4928000 0.00010847718            0    1.6236815 4.651171e-05            0    1.6236815       44 
 4929000 0.00010200428            0     1.679475 4.3736328e-05            0     1.679475       40 
 4930000 0.00012346745 -0.018148033    1.6759025 5.2068189e-05 -0.018148033    1.6940506       48 
 4931000 0.00012930732            0    1.6377021 5.5443041e-05            0    1.6377021       52 
 4932000 0.00013256951            0    1.8189366 5.6841768e-05            0    1.8189366       48 
 4933000 0.00013171759 -0.000373213    1.8854504 5.6411647e-05 -0.000373213    1.8858237       46 
 4934000 0.00013702323            0    1.7694535 5.8751386e-05            0    1.7694535       51 
 4935000 0.00012756122            0    1.7145009 5.4694366e-05            0    1.7145009       49 
 4936000 0.00014140914            0    1.8626129 6.0631931e-05            0    1.8626129       50 
 4937000 0.00014356092            0    1.8538782 6.1554549e-05            0    1.8538782       51 
 4938000 0.00015068506            0    1.8724467 6.4609165e-05            0    1.8724467       53 
 4939000 0.00013283083 -2.7221221e-05    1.7853004 5.6919492e-05 -2.7221221e-05    1.7853277       49 
 4940000 0.00013040283            0    1.7892083 5.5912759e-05            0    1.7892083       48 
 4941000 0.00013941491            0    1.8363453 5.9776864e-05            0    1.8363453       50 
 4942000 0.0001264706            0    1.6331818 5.4226739e-05            0    1.6331818       51 
 4943000 0.00014706197            0    1.8274253 6.3055692e-05            0    1.8274253       53 
 4944000 0.00014057499            0    1.8153193 6.0274274e-05            0    1.8153193       51 
 4945000 0.00014527351            0    1.8052016 6.2288856e-05            0    1.8052016       53 
 4946000 0.00014526914            0    1.7395055 6.2286979e-05            0    1.7395055       55 
 4947000 0.00012467054            0    1.7105577 5.3454929e-05            0    1.7105577       48 
 4948000 0.00012602787            0    1.5660508 5.403691e-05            0    1.5660508       53 
 4949000 0.00013066056 -0.0034545699    1.5062251 5.5631747e-05 -0.0034545699    1.5096797       57 
 4950000 0.00012374312            0     1.733957 5.3057279e-05            0     1.733957       47 
 4951000 0.00012860233            0    1.6939242 5.5140761e-05            0    1.6939242       50 
 4952000 0.00012861778            0    1.6609095 5.5147386e-05            0    1.6609095       51 
 4953000 0.00011289805            0    1.6163811 4.8407246e-05            0    1.6163811       46 
 4954000 0.00014469051            0    1.8325331 6.2038881e-05            0    1.8325331       52 
 4955000 0.00011402125            0    1.5977288 4.8888836e-05            0    1.5977288       47 
 4956000 0.00013691451            0    1.8402148 5.8704769e-05            0    1.8402148       49 
 4957000 0.00011960213            0    1.6759312 5.128175e-05            0    1.6759312       47 
 4958000 0.00012222911            0     1.712742 5.240812e-05            0     1.712742       47 
 4959000 0.00013105101            0     1.692331 5.6190679e-05            0     1.692331       51 
 4960000 0.0001222826            0    1.6106819 5.2431053e-05            0    1.6106819       50 
 4961000 0.00010912895            0    1.5624182 4.6791169e-05            0    1.5624182       46 
 4962000 0.00010569406            0    1.5132403 4.5318394e-05            0    1.5132403       46 
 4963000 0.00010797568            0    1.4814938 4.6296681e-05            0    1.4814938       48 
 4964000 0.00014396971            0    1.8591571 6.1729827e-05            0    1.8591571       51 
 4965000 0.00011666878            0    1.6348275 5.002402e-05            0    1.6348275       47 
 4966000 0.00012682005            0    1.6376944 5.4376571e-05            0    1.6376944       51 
 4967000 0.0001366117            0    1.6358382 5.8574934e-05            0    1.6358382       55 
 4968000 0.00012749224            0    1.6793023 5.4664789e-05            0    1.6793023       50 
 4969000 0.00014072913            0    1.7823615 6.0340362e-05            0    1.7823615       52 
 4970000 0.0001354103 -0.00081936717     1.782778 5.7949574e-05 -0.00081936717    1.7835973       50 
 4971000 0.00014199325            0    1.7983718 6.088238e-05            0    1.7983718       52 
 4972000 0.00013513701 -0.00049496504    1.7446007 5.786232e-05 -0.00049496504    1.7450957       51 
 4973000 0.00013022169            0    1.6816216 5.5835091e-05            0    1.6816216       51 
 4974000 0.00012634068            0     1.600129 5.4171033e-05            0     1.600129       52 
 4975000 0.00014022617            0    1.7759915 6.0124711e-05            0    1.7759915       52 
 4976000 0.00011266661            0    1.4840221 4.8308011e-05            0    1.4840221       50 
 4977000 0.00012679502            0    1.4911774 5.4365841e-05            0    1.4911774       56 
 4978000 0.00011007282            0    1.4498572 4.7195873e-05            0    1.4498572       50 
 4979000 0.0001149505 -0.009129163    1.5049759 4.8510408e-05 -0.009129163     1.514105       50 
 4980000 0.00012097973            0    1.5622754 5.1872424e-05            0    1.5622754       51 
 4981000 0.0001243454            0    1.5748583 5.3315517e-05            0    1.5748583       52 
 4982000 0.00011059418 -0.00028564891    1.3739826 4.7326703e-05 -0.00028564891    1.3742683       53 
 4983000 0.00010583037            0    1.4520588 4.5376838e-05            0    1.4520588       48 
 4984000 0.00010756094            0    1.3889913 4.6118852e-05            0    1.3889913       51 
 4985000 0.00011058242            0    1.3741222 4.7414374e-05            0    1.3741222       53 
 4986000 0.00011576868 -0.00044034318    1.4945419  4.95631e-05 -0.00044034318    1.4949822       51 
 4987000 0.00012570661            0    1.4524406 5.3899164e-05            0    1.4524406       57 
 4988000  0.000110104            0    1.3428407 4.7209242e-05            0    1.3428407       54 
 4989000 0.00011472865            0    1.3738026 4.919215e-05            0    1.3738026       55 
 4990000 0.00012086189            0    1.4472442 5.1821895e-05            0    1.4472442       55 
 4991000 0.00011482104            0    1.3266665 4.9231765e-05            0    1.3266665       57 
 4992000 9.5386267e-05            0    1.2317734 4.0898725e-05            0    1.2317734       51 
 4993000 0.00012339667 -0.0089472335    1.3684733 5.2051972e-05 -0.0089472335    1.3774205       59 
 4994000 0.0001122634            0    1.2747509 4.8135126e-05            0    1.2747509       58 
 4995000 0.00011501481            0    1.3059932 4.9314846e-05            0    1.3059932       58 
 4996000 0.00012363102            0    1.3800365 5.3009214e-05            0    1.3800365       59 
 4997000 0.00012443426            0    1.4377396 5.3353618e-05            0    1.4377396       57 
 4998000 0.00011476824 -5.3508318e-05    1.3496825 4.9171588e-05 -5.3508318e-05     1.349736       56 
 4999000 0.00011969252            0    1.4332417 5.1320505e-05            0    1.4332417       55 
 5000000 0.00013065497            0    1.4835872 5.6020871e-05            0    1.4835872       58 
 5001000 0.00012142537            0    1.3787851  5.20635e-05            0    1.3787851       58 
 5002000 0.00012709411            0    1.3950485 5.4494083e-05            0    1.3950485       60 
 5003000 0.00014993426            0    1.5673842 6.4287244e-05            0    1.5673842       63 
 5004000 0.00013724898            0    1.5065135 5.8848182e-05            0    1.5065135       60 
 5005000 0.00013708702            0    1.4800679 5.8778736e-05            0    1.4800679       61 
 5006000 0.00014741178            0    1.4277048 6.3205682e-05            0    1.4277048       68 
 5007000 0.00014198384            0    1.4610802 6.0878343e-05            0    1.4610802       64 
 5008000 0.0001273984            0    1.4220901 5.4624553e-05            0    1.4220901       59 
 5009000 0.00012281484            0    1.3259774 5.265926e-05            0    1.3259774       61 
 5010000 0.00012923783            0    1.3728184 5.5413243e-05            0    1.3728184       62 
 5011000 0.00011937687            0    1.3103402 5.1185163e-05            0    1.3103402       60 
 5012000 0.00013897118            0    1.4080774 5.958661e-05            0    1.4080774       65 
 5013000 0.00012290799            0    1.3269832 5.2699203e-05            0    1.3269832       61 
 5014000 0.0001205033            0     1.368315 5.1668144e-05            0     1.368315       58 
 5015000 0.00011888583            0    1.4499448 5.0974621e-05            0    1.4499448       54 
 5016000 0.00014469408            0    1.6430013 6.2040414e-05            0    1.6430013       58 
 5017000 0.00013492585            0    1.5868003 5.7852095e-05            0    1.5868003       56 
 5018000 0.00013877094            0     1.575744 5.950075e-05            0     1.575744       58 
 5019000 0.00013329661            0    1.5961421 5.7153525e-05            0    1.5961421       55 
 5020000 0.00012782084            0    1.5032415 5.480568e-05            0    1.5032415       56 
 5021000 0.00012875274            0    1.4619873 5.520525e-05            0    1.4619873       58 
 5022000 0.00012560403            0    1.4262338 5.3855182e-05            0    1.4262338       58 
 5023000 0.00013151329            0    1.5466667 5.638889e-05            0    1.5466667       56 
 5024000 0.00013312724            0    1.5656477 5.7080905e-05            0    1.5656477       56 
 5025000 0.0001349348            0    1.5869055 5.7855931e-05            0    1.5869055       56 
 5026000 0.00013466909            0    1.5032495 5.7742004e-05            0    1.5032495       59 
 5027000 0.00013869036 -4.5107525e-05    1.5747839 5.939766e-05 -4.5107525e-05    1.5748291       58 
 5028000 0.00013828312            0    1.5702048 5.9291589e-05            0    1.5702048       58 
 5029000 0.0001467197            0    1.6104688 6.2908937e-05            0    1.6104688       60 
 5030000 0.00014164089            0     1.529234 6.0731299e-05            0     1.529234       61 
 5031000 0.00014360795 -5.6833187e-06    1.6306626 6.1542337e-05 -5.6833187e-06    1.6306683       58 
 5032000 0.00014142583  0.012005234     1.590677 7.2329545e-05  0.012005234    1.5786718       59 
 5033000 0.00012223241 -0.00017179342    1.4634836 5.235954e-05 -0.00017179342    1.4636554       55 
 5034000 0.00014070804            0    1.5706595 6.033132e-05            0    1.5706595       59 
 5035000 0.00013524599            0    1.5626606 5.7989358e-05            0    1.5626606       57 
 5036000 0.00012281441            0    1.4706244 5.2659078e-05            0    1.4706244       55 
 5037000 0.00012846387            0    1.4587072 5.5081392e-05            0    1.4587072       58 
 5038000 0.00013041674   -0.0140791    1.5475784 5.494921e-05   -0.0140791    1.5616575       55 
 5039000 0.0001261356            0    1.5383638 5.4083102e-05            0    1.5383638       54 
 5040000 0.00013131196            0     1.544299 5.6302569e-05            0     1.544299       56 
 5041000 0.00014212636            0    1.6714821 6.0939451e-05            0    1.6714821       56 
 5042000 0.00014824089            0    1.7128064 6.3561176e-05            0    1.7128064       57 
 5043000 0.00017022573            0    1.8082091 7.2987607e-05            0    1.8082091       62 
 5044000 0.00015649094            0    1.7769546 6.7098546e-05            0    1.7769546       58 
 5045000 0.00014325595            0    1.6847668 6.1423789e-05            0    1.6847668       56 
 5046000 0.00016726144            0    1.8058477 7.1716607e-05            0    1.8058477       61 
 5047000 0.00015053109            0    1.6803097 6.4543144e-05            0    1.6803097       59 
 5048000 0.00016864199 -0.00017851614    1.7912074 7.2255432e-05 -0.00017851614    1.7913859       62 
 5049000 0.00014061045            0    1.6837206 6.0289476e-05            0    1.6837206       55 
 5050000 0.0001515164            0    1.7506524 6.4965618e-05            0    1.7506524       57 
 5051000 0.00015982028            0    1.7542673 6.8526067e-05            0    1.7542673       60 
 5052000 0.00015138069            0    1.7189277 6.4907426e-05            0    1.7189277       58 
 5053000 0.00015423045            0    1.7820111 6.6129319e-05            0    1.7820111       57 
 5054000 0.00012340632            0    1.5629647 5.2912868e-05            0    1.5629647       52 
 5055000 0.00015132032 -4.7221825e-05     1.718195 6.4844502e-05 -4.7221825e-05    1.7182422       58 
 5056000 0.00013905174            0    1.5789325 5.9621149e-05            0    1.5789325       58 
 5057000 0.00015923953  -0.01138775    1.9673587 6.7353555e-05  -0.01138775    1.9787464       53 
 5058000 0.00011481499 -0.021149211     1.622677 4.8865121e-05 -0.021149211    1.6438262       46 
 5059000 0.00012665287 -0.010183539    1.7645465  5.35017e-05 -0.010183539      1.77473       47 
 5060000 0.00014135154            0    1.9806959 6.0607233e-05            0    1.9806959       47 
 5061000 0.00014309454            0    1.8478555 6.1354578e-05            0    1.8478555       51 
 5062000 0.00015776031            0    1.9240622 6.7642813e-05            0    1.9240622       54 
 5063000 0.00013375996            0    1.7978157 5.7352194e-05            0    1.7978157       49 
 5064000 0.00015338503            0    1.9059972 6.5766829e-05            0    1.9059972       53 
 5065000 0.00016615118            0    1.9895547 7.1240565e-05            0    1.9895547       55 
 5066000 0.00018439587 -8.6897529e-05    2.0937282 7.9021841e-05 -8.6897529e-05    2.0938151       58 
 5067000 0.00016592103            0    1.8840332 7.114188e-05            0    1.8840332       58 
 5068000 0.00016085837            0    1.9261766 6.8971168e-05            0    1.9261766       55 
 5069000 0.00017407509            0    2.1230391 7.4638094e-05            0    2.1230391       54 
 5070000 0.00014633842            0    1.8897455 6.2745457e-05            0    1.8897455       51 
 5071000 0.00013819721            0    1.7502943 5.9254754e-05            0    1.7502943       52 
 5072000 0.00015059595            0    1.9073266 6.4570953e-05            0    1.9073266       52 
 5073000 0.00015309813 -0.00012044922    2.0164575 6.5600427e-05 -0.00012044922    2.0165779       50 
 5074000 0.00014938392            0     1.891976 6.4051272e-05            0     1.891976       52 
 5075000 0.00013634629            0     1.795926 5.8461134e-05            0     1.795926       50 
 5076000 0.00012125062            0    1.7359662 5.1988571e-05            0    1.7359662       46 
 5077000 0.00014307627            0    1.7778981 6.1346746e-05            0    1.7778981       53 
 5078000 0.00013849534            0    1.8614622 5.9382584e-05            0    1.8614622       49 
 5079000 0.00014716514            0    1.7622089 6.3099929e-05            0    1.7622089       55 
 5080000 0.00013463809            0     1.773426 5.772871e-05            0     1.773426       50 
 5081000 0.00013374942 -0.00014264023     1.834983 5.7302699e-05 -0.00014264023    1.8351256       48 
 5082000 0.00014178958            0    1.8310039 6.0795051e-05            0    1.8310039       51 
 5083000 0.00012724608            0    1.6115961 5.4559242e-05            0    1.6115961       52 
 5084000 0.00014101739            0    1.7198638 6.046396e-05            0    1.7198638       54 
 5085000 0.00014575254            0    1.8821798 6.249425e-05            0    1.8821798       51 
 5086000 0.00013236856            0    1.6764733 5.6755607e-05            0    1.6764733       52 
 5087000 0.0001581646            0    1.7360937 6.781616e-05            0    1.7360937       60 
 5088000 0.00013286293            0    1.7857591 5.6967576e-05            0    1.7857591       49 
 5089000 0.00013792043            0    1.7467888 5.9136078e-05            0    1.7467888       52 
 5090000 0.00013552438            0    1.8594792 5.8108725e-05            0    1.8594792       48 
 5091000 0.00012295921            0    1.5878374 5.2721163e-05            0    1.5878374       51 
 5092000 0.00011939306            0    1.5726215 5.1192106e-05            0    1.5726215       50 
 5093000 0.00011607536            0    1.5289215 4.9769579e-05            0    1.5289215       50 
 5094000 0.00012523877            0    1.5861731 5.3698569e-05            0    1.5861731       52 
 5095000 0.0001344642            0    1.6708826 5.7654153e-05            0    1.6708826       53 
 5096000 0.00013153154 -0.017878791    1.5571277 5.6471118e-05 -0.017878791    1.5750065       55 
 5097000 0.00013945642            0    1.8008746 5.9794664e-05            0    1.8008746       51 
 5098000 0.00013757158            0    1.7765347 5.8986504e-05            0    1.7765347       51 
 5099000 0.00014621085            0    1.7195179 6.2690757e-05            0    1.7195179       56 
 5100000 0.00013180758            0    1.7715746 5.6515076e-05            0    1.7715746       49 
 5101000 0.00012693102            0    1.7060307 5.4424156e-05            0    1.7060307       49 
 5102000 0.0001390838            0    1.7282868 5.9634897e-05            0    1.7282868       53 
 5103000 0.00011840039            0    1.5913738 5.0766481e-05            0    1.5913738       49 
 5104000 0.00016532284            0    1.9796358 7.0885397e-05            0    1.9796358       55 
 5105000 0.00013851737            0    1.7543491 5.9392028e-05            0    1.7543491       52 
 5106000 0.0001355707            0    1.7506962 5.8128586e-05            0    1.7506962       51 
 5107000 0.00014921179            0     1.889796 6.3977469e-05            0     1.889796       52 
 5108000 0.00016154878            0     2.086165 6.9267196e-05            0     2.086165       51 
 5109000 0.00014209471            0    1.9098399 6.0925881e-05            0    1.9098399       49 
 5110000 0.00013703217            0    1.7695689 5.8755217e-05            0    1.7695689       51 
 5111000 0.00014989368            0    1.8626128 6.4269843e-05            0    1.8626128       53 
 5112000 0.00015962073            0    1.7817732 6.8440506e-05            0    1.7817732       59 
 5113000 0.00014420717            0    1.8622235 6.1831639e-05            0    1.8622235       51 
 5114000 0.00015579531            0     1.900097 6.6800284e-05            0     1.900097       54 
 5115000 0.00014098655            0    1.8949455 6.0450737e-05            0    1.8949455       49 
 5116000 0.00013593045            0    1.7904487 5.8282834e-05            0    1.7904487       50 
 5117000 0.00014154531            0    1.7926986 6.0690317e-05            0    1.7926986       52 
 5118000 0.00011028315            0    1.5131538 4.7286056e-05            0    1.5131538       48 
 5119000 0.00013361288 -0.0016277332    1.7237861 5.7100199e-05 -0.0016277332    1.7254139       51 
 5120000 0.00011551881            0    1.5849903 4.9530946e-05            0    1.5849903       48 
 5121000 0.00011945166            0    1.6389514 5.1217232e-05            0    1.6389514       48 
 5122000 0.00012993698            0    1.6146263 5.5713018e-05            0    1.6146263       53 
 5123000 0.00012340069            0    1.5935384 5.2910454e-05            0    1.5935384       51 
 5124000 0.00012512426 -0.0060450124    1.5487773 5.3059104e-05 -0.0060450124    1.5548223       53 
 5125000 0.00011993972            0     1.579822 5.1426496e-05            0     1.579822       50 
 5126000 0.00010947173            0    1.6021553 4.6938144e-05            0    1.6021553       45 
 5127000 0.00010883212 -0.0004228534     1.524593 4.6593863e-05 -0.0004228534    1.5250159       47 
 5128000 0.00015526885            0    1.8592457 6.6574554e-05            0    1.8592457       55 
 5129000  0.000124965            0    1.5827058 5.3581186e-05            0    1.5827058       52 
 5130000 0.00012741294            0    1.6453508 5.4630788e-05            0    1.6453508       51 
 5131000 0.00011811155            0     1.525237 5.0642635e-05            0     1.525237       51 
 5132000 0.0001253525            0    1.6187433 5.3747335e-05            0    1.6187433       51 
 5133000 0.00011101135            0    1.5231451 4.7598285e-05            0    1.5231451       48 
 5134000 0.00011748846            0    1.5791169 5.0375473e-05            0    1.5791169       49 
 5135000 0.00011133528            0    1.5275897 4.7737177e-05            0    1.5275897       48 
 5136000 0.00011825406            0    1.5270773 5.070374e-05            0    1.5270773       51 
 5137000 0.00011471231            0    1.5109676 4.9185145e-05            0    1.5109676       50 
 5138000 0.00010985262            0    1.4469568 4.7101457e-05            0    1.4469568       50 
 5139000 0.00012368774            0    1.5972453 5.3033535e-05            0    1.5972453       51 
 5140000 0.00011426079            0     1.535735 4.8991546e-05            0     1.535735       49 
 5141000 0.00010345595            0     1.449682 4.435876e-05            0     1.449682       47 
 5142000 0.00011006098            0     1.479287 4.7190796e-05            0     1.479287       49 
 5143000 0.00015386295            0    1.8765296 6.5971743e-05            0    1.8765296       54 
 5144000 0.00012936176            0    1.6705168 5.5466379e-05            0    1.6705168       51 
 5145000 0.00013349322            0    1.7942306 5.7237827e-05            0    1.7942306       49 
 5146000 0.00012227849            0    1.7506824 5.2429292e-05            0    1.7506824       46 
 5147000 0.00013917855            0    1.6368144 5.9675524e-05            0    1.6368144       56 
 5148000 0.00012899041            0    1.6336884 5.530716e-05            0    1.6336884       52 
 5149000 0.00014200246            0     1.833753 6.088633e-05            0     1.833753       51 
 5150000 0.00012716832            0    1.7819528 5.4525901e-05            0    1.7819528       47 
 5151000 0.00013152802            0    1.6658276 5.6395206e-05            0    1.6658276       52 
 5152000 0.00012412725            0    1.5138697 5.3221982e-05            0    1.5138697       54 
 5153000 0.00011650366            0    1.5658806 4.9953222e-05            0    1.5658806       49 
 5154000 0.00011869835            0    1.6286156 5.0894238e-05            0    1.6286156       48 
 5155000 0.00012941452            0    1.7046222 5.5489003e-05            0    1.7046222       50 
 5156000 0.00014327928            0    1.7804208 6.1433789e-05            0    1.7804208       53 
 5157000 0.00014375319            0    1.7532299 6.1636989e-05            0    1.7532299       54 
 5158000 0.00013139635            0    1.6967906 5.6338751e-05            0    1.6967906       51 
 5159000 0.00013004213            0    1.6793029 5.5758103e-05            0    1.6793029       51 
 5160000 0.00012316853            0    1.6223512 5.2810913e-05            0    1.6223512       50 
 5161000 0.00011938542            0    1.6046131 5.118883e-05            0    1.6046131       49 
 5162000 0.00012952013            0    1.6094465 5.5534286e-05            0    1.6094465       53 
 5163000 0.00011979526            0    1.4886031 5.1364559e-05            0    1.4886031       53 
 5164000 0.00011219368            0    1.4488164 4.8105231e-05            0    1.4488164       51 
 5165000 0.0001121553            0    1.3936671 4.8088774e-05            0    1.3936671       53 
 5166000 0.00010772311            0    1.3385918 4.6188389e-05            0    1.3385918       53 
 5167000 0.0001189016            0    1.3501276 5.0981382e-05            0    1.3501276       58 
 5168000 0.00012797991            0    1.5324779 5.4873884e-05            0    1.5324779       55 
 5169000 0.00010940326            0    1.3342944 4.6908786e-05            0    1.3342944       54 
 5170000 0.00011723546            0    1.3312087 5.0266995e-05            0    1.3312087       58 
 5171000 0.00011829226            0    1.4427055 5.0720116e-05            0    1.4427055       54 
 5172000 0.00011519356            0    1.4314213 4.9391491e-05            0    1.4314213       53 
 5173000 9.8125166e-05 -0.0028089911    1.3160533 4.8970926e-05 -0.0028089911    1.3188623       49 
 5174000 0.00010777095            0    1.3917034 4.6208901e-05            0    1.3917034       51 
 5175000 0.00011325366            0    1.3561405 4.8559718e-05            0    1.3561405       55 
 5176000 0.00011093793            0    1.4326003 4.7566806e-05            0    1.4326003       51 
 5177000 0.0001357242            0    1.5961893 5.8194402e-05            0    1.5961893       56 
 5178000 0.00011616323            0    1.5000773 4.9807254e-05            0    1.5000773       51 
 5179000 0.00012114196            0    1.4246944 5.1941982e-05            0    1.4246944       56 
 5180000 0.00012744939 -0.00099750994    1.5251278 5.4509958e-05 -0.00099750994    1.5261253       55 
 5181000 0.00012528027            0    1.4733631 5.3716364e-05            0    1.4733631       56 
 5182000 0.00014674224            0    1.6107162 6.2918602e-05            0    1.6107162       60 
 5183000 0.00015399716            0    1.6358224 6.6029291e-05            0    1.6358224       62 
 5184000 0.00014355389            0    1.6024264 6.1551534e-05            0    1.6024264       59 
 5185000 0.00013825787            0    1.5974605 5.9280762e-05            0    1.5974605       57 
 5186000 0.00014356118            0    1.6587361 6.1554659e-05            0    1.6587361       57 
 5187000 0.00014351048            0    1.6019418 6.1532921e-05            0    1.6019418       59 
 5188000 0.00014067869            0    1.5441597 6.0318737e-05            0    1.5441597       60 
 5189000 0.00013652858            0    1.5774799 5.8539293e-05            0    1.5774799       57 
 5190000 0.00014570084            0    1.6263918 6.247208e-05            0    1.6263918       59 
 5191000 0.00013444606            0     1.526635 5.7646373e-05            0     1.526635       58 
 5192000 0.0001324304            0      1.47826 5.6782121e-05            0      1.47826       59 
 5193000 0.00012006143            0    1.3632976 5.1478684e-05            0    1.3632976       58 
 5194000 0.00011815804            0    1.2969617 5.0662567e-05            0    1.2969617       60 
 5195000 0.00012874101            0    1.3044237 5.5200223e-05            0    1.3044237       65 
 5196000 0.00012367623            0    1.3805411 5.3028599e-05            0    1.3805411       59 
 5197000 0.00011618764 -0.015350695    1.3510782 4.8926489e-05 -0.015350695    1.3664289       56 
 5198000 0.00011781804            0    1.4640336 5.0516784e-05            0    1.4640336       53 
 5199000 0.00013400153            0    1.5215874 5.7455774e-05            0    1.5215874       58 
 5200000 0.00013140092            0    1.4920574 5.6340711e-05            0    1.4920574       58 
 5201000 0.0001163138            0    1.4185761 4.9871815e-05            0    1.4185761       54 
 5202000 0.00010001782            0     1.291583 4.2884592e-05            0     1.291583       51 
 5203000 9.5216336e-05            0    1.2797658 4.0825864e-05            0    1.2797658       49 
 5204000 0.00010678508            0    1.2338174 4.5786191e-05            0    1.2338174       57 
 5205000 0.0001031462            0    1.2817181 4.4225949e-05            0    1.2817181       53 
 5206000 9.2896744e-05            0    1.1765551 3.9831293e-05            0    1.1765551       52 
 5207000 0.00010365368            0    1.2641718 4.4443541e-05            0    1.2641718       54 
 5208000 9.5003936e-05            0    1.1172972 4.0734793e-05            0    1.1172972       56 
 5209000 0.00010159923            0    1.2165861 4.3562654e-05            0    1.2165861       55 
 5210000 0.00010072954            0    1.2285087 4.3189758e-05            0    1.2285087       54 
 5211000 9.6940427e-05            0    1.1400714 4.1565101e-05            0    1.1400714       56 
 5212000 8.8730964e-05            0    1.1025911 3.8045134e-05            0    1.1025911       53 
 5213000 0.00010041948 -0.0014895845    1.2009698 4.2869891e-05 -0.0014895845    1.2024594       55 
 5214000 0.00010635975            0    1.1674578 4.5603819e-05            0    1.1674578       60 
 5215000 9.0753865e-05            0    1.0867198 3.8912492e-05            0    1.0867198       55 
 5216000 9.5633446e-05            0    1.1883628 4.1004708e-05            0    1.1883628       53 
 5217000 9.4442825e-05 -0.00049753991    1.2434845 4.0382778e-05 -0.00049753991     1.243982       50 
 5218000 8.3306109e-05            0    1.0757759 3.5719121e-05            0    1.0757759       51 
 5219000 9.4081611e-05 -0.00025993081    1.1688195 4.0281002e-05 -0.00025993081    1.1690794       53 
 5220000 9.2822156e-05 -0.00061950857    1.2220154 3.9708063e-05 -0.00061950857    1.2226349       50 
 5221000 9.9402769e-05            0    1.2123272 4.2620879e-05            0    1.2123272       54 
 5222000 0.0001138409            0    1.3631724 4.881151e-05            0    1.3631724       55 
 5223000 9.8650672e-05            0    1.1601848 4.2298402e-05            0    1.1601848       56 
 5224000 0.00010412728            0    1.2245926 4.4646606e-05            0    1.2245926       56 
 5225000 0.0001110766            0    1.2834025 4.7626263e-05            0    1.2834025       57 
 5226000 0.0001183342            0    1.2776019 5.0738097e-05            0    1.2776019       61 
 5227000 0.00012602165            0    1.3174064 5.4034245e-05            0    1.3174064       63 
 5228000 0.00012838137            0    1.4091782 5.5046022e-05            0    1.4091782       60 
 5229000 0.00012202057            0    1.3393588 5.2318705e-05            0    1.3393588       60 
 5230000 0.00012417617            0    1.2981141 5.324296e-05            0    1.2981141       63 
 5231000 0.00011164977            0    1.2677832 4.787202e-05            0    1.2677832       58 
 5232000 0.00012801062            0    1.4051086 5.4887055e-05            0    1.4051086       60 
 5233000 0.0001288488 -0.00025319829    1.4380269 5.5185876e-05 -0.00025319829    1.4382801       59 
 5234000 0.00011226786            0    1.2971665 4.8137037e-05            0    1.2971665       57 
 5235000 0.00012341486            0    1.3546632 5.2916531e-05            0    1.3546632       60 
 5236000 0.00012445143            0    1.3660411 5.3360982e-05            0    1.3660411       60 
 5237000 0.00014951776            0    1.5630302 6.410866e-05            0    1.5630302       63 
 5238000 0.00013368329 -0.00031397823     1.419726 5.7250068e-05 -0.00031397823      1.42004       62 
 5239000 0.00014686623            0    1.5353116 6.2971766e-05            0    1.5353116       63 
 5240000 0.0001570061 -0.0067475103    1.5840625 7.2332715e-05 -0.0067475103      1.59081       65 
 5241000 0.00014825271 -0.012992046    1.5125978 6.2636846e-05 -0.012992046    1.5255899       64 
 5242000 0.00017316748            0    1.7021846 7.4248939e-05            0    1.7021846       67 
 5243000 0.00014514358 -0.00049566291    1.5168077 6.2141418e-05 -0.00049566291    1.5173034       63 
 5244000 0.00015320236            0    1.5059335 6.5688505e-05            0    1.5059335       67 
 5245000 0.0001559502            0    1.5329439 6.6866696e-05            0    1.5329439       67 
 5246000 0.00014146721            0    1.4116498 6.0656829e-05            0    1.4116498       66 
 5247000 0.00015793831            0    1.5524865 6.7719137e-05            0    1.5524865       67 
 5248000 0.00015367186            0    1.5105485 6.588981e-05            0    1.5105485       67 
 5249000 0.00016011694            0    1.5064488 6.8653266e-05            0    1.5064488       70 
 5250000 0.00017255787            0    1.5784012 7.3987555e-05            0    1.5784012       72 
 5251000 0.00017032094            0    1.5365982 7.302843e-05            0    1.5365982       73 
 5252000 0.00015822967            0    1.5102678 6.784406e-05            0    1.5102678       69 
 5253000 0.00017737691            0    1.5786305 7.6053814e-05            0    1.5786305       74 
 5254000 0.00015101694            0    1.4626213 6.4751464e-05            0    1.4626213       68 
 5255000 0.00015825712            0    1.4679797 6.7855831e-05            0    1.4679797       71 
 5256000 0.00017374135            0    1.5674563 7.4494995e-05            0    1.5674563       73 
 5257000 0.00016455903            0    1.5482419  7.05579e-05            0    1.5482419       70 
 5258000 0.00016061611            0    1.5330458 6.8867293e-05            0    1.5330458       69 
 5259000 0.00016524567            0    1.4908102 7.0852307e-05            0    1.4908102       73 
 5260000 0.00016048312            0    1.6260397 6.8810273e-05            0    1.6260397       65 
 5261000 0.00015692826  -0.01064604    1.5793752 6.631577e-05  -0.01064604    1.5900213       65 
 5262000 0.00013412117 -0.011608444    1.4130828 5.6531248e-05 -0.011608444    1.4246913       62 
 5263000 0.00014156834            0    1.5539249 6.0700193e-05            0    1.5539249       60 
 5264000 0.00014198973            0    1.4386618 6.088087e-05            0    1.4386618       65 
 5265000 0.00014612426            0    1.4581209 6.2653632e-05            0    1.4581209       66 
 5266000 0.00017189453            0    1.5944792 7.3703138e-05            0    1.5944792       71 
 5267000 0.00015311002            0    1.5278292 6.5648912e-05            0    1.5278292       66 
 5268000 0.00014320563 -0.0084568168    1.4425247 6.0524129e-05 -0.0084568168    1.4509815       65 
 5269000 0.00014472109            0    1.4225651 6.2051995e-05            0    1.4225651       67 
 5270000 0.00015399272            0     1.560278 6.6027388e-05            0     1.560278       65 
 5271000 0.00013716608 -4.9591191e-05    1.3686809 5.8774565e-05 -4.9591191e-05    1.3687305       66 
 5272000 0.00016345068            0    1.5601012 7.0082673e-05            0    1.5601012       69 
 5273000 0.00014523874            0    1.4715813 6.2273946e-05            0    1.4715813       65 
 5274000 0.00016207167 -0.0010372034    1.6410979 6.9331426e-05 -0.0010372034    1.6421351       65 
 5275000 0.00014837822            0    1.5268815 6.3620061e-05            0    1.5268815       64 
 5276000 0.00013798414            0    1.4657254 5.9163396e-05            0    1.4657254       62 
 5277000 0.00015019622            0    1.4987535 6.4399565e-05            0    1.4987535       66 
 5278000 0.00016417509            0    1.6137921 7.0393277e-05            0    1.6137921       67 
 5279000 0.00014223175            0    1.5108453 6.098464e-05            0    1.5108453       62 
 5280000 0.00015507843            0    1.6211604 6.6492906e-05            0    1.6211604       63 
 5281000 0.0001474369            0    1.6457707 6.3216452e-05            0    1.6457707       59 
 5282000 0.00015700774            0    1.5667232 6.7320136e-05            0    1.5667232       66 
 5283000 0.0001476297            0    1.5191788 6.3299118e-05            0    1.5191788       64 
 5284000 0.00016053981 -0.0097712588    1.6168428 6.7889926e-05 -0.0097712588     1.626614       65 
 5285000 0.00014223349            0    1.4411316 6.0985388e-05            0    1.4411316       65 
 5286000 0.00013949802            0        1.392 5.9812501e-05            0        1.392       66 
 5287000 0.00013759374            0    1.3729979 5.8996003e-05            0    1.3729979       66 
 5288000 0.00014784763            0    1.3910139 6.3392561e-05            0    1.3910139       70 
 5289000 0.0001473158            0    1.4267751 6.3164525e-05            0    1.4267751       68 
 5290000 0.00016499388            0    1.5523331 7.0744348e-05            0    1.5523331       70 
 5291000 0.00014425869            0    1.3971666 6.1853731e-05            0    1.3971666       68 
 5292000 0.00014979507            0    1.4093362 6.422756e-05            0    1.4093362       70 
 5293000 0.00015320704 -0.010574905    1.4308626 6.4714118e-05 -0.010574905    1.4414375       70 
 5294000 0.0001544672            0    1.4743559 6.6230831e-05            0    1.4743559       69 
 5295000 0.00016211701            0    1.4625841 6.9510832e-05            0    1.4625841       73 
 5296000 0.00015306363 -0.012734405    1.4697093 6.4748573e-05 -0.012734405    1.4824437       68 
 5297000 0.00014977923            0    1.3512754 6.4220771e-05            0    1.3512754       73 
 5298000 0.00015289459 -0.0017920754    1.4575535 6.5293463e-05 -0.0017920754    1.4593456       69 
 5299000 0.00015114895            0    1.4220741 6.4808065e-05            0    1.4220741       70 
 5300000 0.00015927529            0    1.4774241 6.829239e-05            0    1.4774241       71 
 5301000 0.00015941932            0    1.5216227 6.8354145e-05            0    1.5216227       69 
 5302000 0.00014514037            0    1.3853333 6.223177e-05            0    1.3853333       69 
 5303000 0.00015367356            0    1.5570442 6.5890541e-05            0    1.5570442       65 
 5304000 0.00016116531            0    1.5163123 6.9102776e-05            0    1.5163123       70 
 5305000 0.00014556523            0    1.4308628 6.2413937e-05            0    1.4308628       67 
 5306000 0.00015985415            0    1.4421691 6.854059e-05            0    1.4421691       73 
 5307000 0.00015809228            0    1.4664506 6.7785153e-05            0    1.4664506       71 
 5308000 0.00016198344            0    1.5240096 6.9453562e-05            0    1.5240096       70 
 5309000 0.00016095164            0    1.5362484 6.9011157e-05            0    1.5362484       69 
 5310000 0.00016885372            0    1.5233613 7.2399332e-05            0    1.5233613       73 
 5311000 0.00016148548            0    1.5413438 6.9240053e-05            0    1.5413438       69 
 5312000 0.00015017438            0    1.4761693 6.4390198e-05            0    1.4761693       67 
 5313000 0.00016391449            0     1.520457 7.028154e-05            0     1.520457       71 
 5314000 0.00015315303            0    1.4833096 6.5667351e-05            0    1.4833096       68 
 5315000 0.00016822714            0    1.5604607 7.2130671e-05            0    1.5604607       71 
 5316000 0.00016984873            0    1.5116307 7.2825959e-05            0    1.5116307       74 
 5317000 0.00017361563            0    1.6571235 7.4441094e-05            0    1.6571235       69 
 5318000 0.00017643336            0    1.6599607 7.5649249e-05            0    1.6599607       70 
 5319000 0.00016526774            0    1.5774446 7.086177e-05            0    1.5774446       69 
 5320000 0.00016753138            0    1.5990506 7.1832351e-05            0    1.5990506       69 
 5321000 0.00016913765 -0.0011694919    1.6132126 7.2336426e-05 -0.0011694919    1.6143821       69 
 5322000 0.00018139219 -9.1930657e-05    1.6824867 7.7731086e-05 -9.1930657e-05    1.6825786       71 
 5323000 0.00016847746            0     1.631729 7.2238003e-05            0     1.631729       68 
 5324000 0.00016699285            0    1.7457115 7.1601448e-05            0    1.7457115       63 
 5325000 0.00019063444            0    1.7198621 8.1738239e-05            0    1.7198621       73 
 5326000 0.00016906983            0    1.6870864 7.2491993e-05            0    1.6870864       66 
 5327000 0.00018639397            0    1.8599576 7.9920055e-05            0    1.8599576       66 
 5328000 0.00015572317            0    1.6541568 6.6769351e-05            0    1.6541568       62 
 5329000 0.00015927401            0     1.565616 6.8291842e-05            0     1.565616       67 
 5330000 0.00013855156            0    1.4717528 5.9406689e-05            0    1.4717528       62 
 5331000 0.00015586746            0    1.5095993 6.6831217e-05            0    1.5095993       68 
 5332000 0.00014040943            0    1.4010946 6.0203284e-05            0    1.4010946       66 
 5333000 0.00013991763            0    1.5106287 5.9992415e-05            0    1.5106287       61 
 5334000 0.00013512107            0    1.4588424 5.7935797e-05            0    1.4588424       61 
 5335000 0.00012325328            0     1.399541 5.284725e-05            0     1.399541       58 
 5336000 0.00013365609            0    1.4919417 5.7307658e-05            0    1.4919417       59 
 5337000 0.00012440392            0     1.437389 5.3340609e-05            0     1.437389       57 
 5338000 0.00013477585 -0.00039583409    1.5040453 5.7711078e-05 -0.00039583409    1.5044411       59 
 5339000 0.00014828712            0    1.6552613   6.3581e-05            0    1.6552613       59 
 5340000 0.00012751382            0    1.4233784 5.4674041e-05            0    1.4233784       59 
 5341000 0.00013767129            0    1.4624022 5.9029255e-05            0    1.4624022       62 
 5342000 0.00013343896            0    1.4174446 5.7214561e-05            0    1.4174446       62 
 5343000 0.00013528632 -2.1711888e-05    1.5361544 5.7972474e-05 -2.1711888e-05    1.5361761       58 
 5344000 0.00012258526            0     1.302152 5.2560823e-05            0     1.302152       62 
 5345000 0.00013203937            0    1.4493301 5.6614459e-05            0    1.4493301       60 
 5346000 0.0001361663            0    1.5461683 5.838396e-05            0    1.5461683       58 
 5347000 0.0001313991            0    1.5453239 5.6339932e-05            0    1.5453239       56 
 5348000 0.00014038363            0     1.622022 6.0192223e-05            0     1.622022       57 
 5349000 0.00013273563            0    1.5610421 5.6912992e-05            0    1.5610421       56 
 5350000 0.00013819492            0    1.6252463 5.9253771e-05            0    1.6252463       56 
 5351000 0.0001381381            0     1.624578 5.9229407e-05            0     1.624578       56 
 5352000 0.00015119288            0    1.7469144 6.4826902e-05            0    1.7469144       57 
 5353000 0.00013584523            0    1.6567836 5.8246297e-05            0    1.6567836       54 
 5354000 0.00013896954            0    1.6343563 5.9585906e-05            0    1.6343563       56 
 5355000 0.00013998947            0    1.5626384 6.0023219e-05            0    1.5626384       59 
 5356000 0.00013701348            0    1.6406493 5.8747206e-05            0    1.6406493       55 
 5357000 0.00013013768            0     1.558316 5.5799074e-05            0     1.558316       55 
 5358000 0.00012764155            0    1.4493698 5.4728807e-05            0    1.4493698       58 
 5359000 0.00010967952            0    1.2898899 4.7027235e-05            0    1.2898899       56 
 5360000 0.00010428545            0    1.4016603 4.4714423e-05            0    1.4016603       49 
 5361000 0.00011840135            0     1.471282 5.0766893e-05            0     1.471282       53 
 5362000 0.00010581481            0    1.3401649 4.5370166e-05            0    1.3401649       52 
 5363000 0.00011105278            0    1.3060402 4.761605e-05            0    1.3060402       56 
 5364000 0.00011580528            0    1.4954549 4.9653775e-05            0    1.4954549       51 
 5365000 0.00012875807            0    1.4133129 5.5207537e-05            0    1.4133129       60 
 5366000 0.00012138209            0    1.4803895 5.2044942e-05            0    1.4803895       54 
 5367000 0.00012463552            0    1.5200686 5.3439911e-05            0    1.5200686       54 
 5368000 0.00012827204 -0.017292391    1.4912556 5.5542268e-05 -0.017292391     1.508548       56 
 5369000 0.00012861799            0    1.5686393 5.5147475e-05            0    1.5686393       54 
 5370000 0.00015046682            0    1.5729515 6.4515589e-05            0    1.5729515       63 
 5371000 0.0001350996            0     1.508055 5.7926591e-05            0     1.508055       59 
 5372000 0.00012364054            0    1.4039383 5.3013297e-05            0    1.4039383       58 
 5373000 0.00012268519            0    1.4175306 5.2603673e-05            0    1.4175306       57 
 5374000 0.00013403361            0    1.5219516 5.7469527e-05            0    1.5219516       58 
 5375000 0.0001394445            0    1.4812379 5.9789552e-05            0    1.4812379       62 
 5376000 0.00012897852            0    1.4645511 5.5302059e-05            0    1.4645511       58 
 5377000 0.00015005737            0    1.5441607 6.4340028e-05            0    1.5441607       64 
 5378000 0.00015433892 -0.0007099299    1.6127197 6.6058479e-05 -0.0007099299    1.6134297       63 
 5379000 0.00014693796            0    1.6402012 6.300252e-05            0    1.6402012       59 
 5380000 0.00014357903            0    1.6303398 6.1562312e-05            0    1.6303398       58 
 5381000 0.00014249803            0    1.5906403 6.1098815e-05            0    1.5906403       59 
 5382000 0.0001367465            0    1.5009979 5.8632732e-05            0    1.5009979       60 
 5383000 0.00015262662            0    1.7037012 6.5441646e-05            0    1.7037012       59 
 5384000 0.00011706652 -0.0041838379    1.3725811 4.9740321e-05 -0.0041838379    1.3767649       56 
 5385000 0.00012823304            0    1.4816315 5.4982419e-05            0    1.4816315       57 
 5386000 0.00013366132            0    1.5177243 5.7309901e-05            0    1.5177243       58 
 5387000 0.00011465941            0    1.3729735 4.9162461e-05            0    1.3729735       55 
 5388000 0.00013849293            0    1.5725872 5.9381548e-05            0    1.5725872       58 
 5389000 0.00013476266            0    1.5042939 5.7782122e-05            0    1.5042939       59 
 5390000 0.00015822748            0    1.7083121 6.7843123e-05            0    1.7083121       61 
 5391000 0.00014423121            0    1.5831539 6.1841949e-05            0    1.5831539       60 
 5392000 0.00016363132            0    1.7960992 7.0160126e-05            0    1.7960992       60 
 5393000 0.0001508114            0    1.6553814 6.4663334e-05            0    1.6553814       60 
 5394000 0.0001539882            0    1.6902515 6.6025448e-05            0    1.6902515       60 
 5395000 0.00014412004            0    1.6949289 6.1794283e-05            0    1.6949289       56 
 5396000 0.00015266899            0    1.7954692 6.5459813e-05            0    1.7954692       56 
 5397000 0.0001531469            0    1.7095088 6.5664726e-05            0    1.7095088       59 
 5398000 0.00013840293            0    1.6879776 5.9342961e-05            0    1.6879776       54 
 5399000 0.00013442222            0    1.5263643 5.7636151e-05            0    1.5263643       58 
 5400000 0.0001389464            0    1.6340841 5.9575982e-05            0    1.6340841       56 
 5401000  0.000127799            0    1.5029847 5.4796318e-05            0    1.5029847       56 
 5402000 0.00014890938            0     1.690866 6.3847804e-05            0     1.690866       58 
 5403000 0.00013197743            0    1.5521253  5.65879e-05            0    1.5521253       56 
 5404000 0.00013447561            0    1.6102598 5.7659042e-05            0    1.6102598       55 
 5405000 0.00015981366            0    1.7541946 6.8523226e-05            0    1.7541946       60 
 5406000 0.0001380508            0    1.6836829 5.9191977e-05            0    1.6836829       54 
 5407000 0.00013650316            0    1.6648077 5.8528395e-05            0    1.6648077       54 
 5408000 0.00012941522            0    1.5219923 5.5489303e-05            0    1.5219923       56 
 5409000 0.00012605161 -0.00036206891    1.4560648 5.3975594e-05 -0.00036206891    1.4564269       57 
 5410000 0.0001267696            0    1.5752677 5.435494e-05            0    1.5752677       53 
 5411000 0.00013724205 -8.5728566e-05    1.5582977 5.8803851e-05 -8.5728566e-05    1.5583834       58 
 5412000 0.00013202669            0    1.6102122 5.6609024e-05            0    1.6102122       54 
 5413000 0.00013681421            0    1.7000844 5.8661767e-05            0    1.7000844       53 
 5414000 0.00012552574            0      1.47625 5.3821614e-05            0      1.47625       56 
 5415000 0.00012140818            0    1.4807077 5.2056129e-05            0    1.4807077       54 
 5416000 0.00012423733            0    1.5438012 5.3269184e-05            0    1.5438012       53 
 5417000 0.00012186072            0    1.4592046 5.2250165e-05            0    1.4592046       55 
 5418000 0.00012418977            0    1.4349148 5.3248791e-05            0    1.4349148       57 
 5419000 0.00013408835            0    1.5225732   5.7493e-05            0    1.5225732       58 
 5420000 0.00011913067            0    1.5691653 5.1079599e-05            0    1.5691653       50 
 5421000 0.00011984072            0    1.4891679 5.1384047e-05            0    1.4891679       53 
 5422000 0.00013769781            0       1.6194 5.9040625e-05            0       1.6194       56 
 5423000 0.00011929757            0    1.5109267 5.1151164e-05            0    1.5109267       52 
 5424000 0.00012911757            0    1.5747322 5.5361678e-05            0    1.5747322       54 
 5425000 0.00013312898            0    1.4612902 5.708165e-05            0    1.4612902       60 
 5426000 0.00013059987            0    1.5928106 5.5997247e-05            0    1.5928106       54 
 5427000 0.00013518311            0    1.5898258  5.79624e-05            0    1.5898258       56 
 5428000 0.00011629695            0    1.4729232 4.9864587e-05            0    1.4729232       52 
 5429000 0.00013012564            0    1.6169707 5.579391e-05            0    1.6169707       53 
 5430000 0.00014189967            0    1.7971866 6.0842255e-05            0    1.7971866       52 
 5431000 0.00012558136            0    1.5605024 5.384546e-05            0    1.5605024       53 
 5432000 0.00012785769            0    1.6193422 5.4821482e-05            0    1.6193422       52 
 5433000 0.00013991212            0    1.6454415 5.9990053e-05            0    1.6454415       56 
 5434000 0.00016339633            0    1.8553653 7.0059366e-05            0    1.8553653       58 
 5435000 0.0001535301            0    1.8055962 6.5829029e-05            0    1.8055962       56 
 5436000 0.00013827282            0    1.8584714 5.9287174e-05            0    1.8584714       49 
 5437000 0.00013603524            0    1.8283969 5.8327766e-05            0    1.8283969       49 
 5438000 0.0001531041 -0.0012830839    1.7677139 6.5475754e-05 -0.0012830839     1.768997       57 
 5439000 0.00012886914            0    1.8057856 5.525516e-05            0    1.8057856       47 
 5440000 0.00012887067            0    1.7681861 5.5255815e-05            0    1.7681861       48 
 5441000 0.00012762265 -0.001642718    1.7136839 5.4536435e-05 -0.001642718    1.7153266       49 
 5442000 0.00013512561            0    1.7113918 5.7937744e-05            0    1.7113918       52 
 5443000 0.0001161168            0    1.5294672 4.9787344e-05            0    1.5294672       50 
 5444000 0.00011544654            0    1.5516722 4.9499958e-05            0    1.5516722       49 
 5445000 0.00011136428            0    1.5944218 4.7749612e-05            0    1.5944218       46 
 5446000 0.00010885512            0    1.4935602 4.6673757e-05            0    1.4935602       48 
 5447000 0.00011577109            0    1.6575149 4.9639117e-05            0    1.6575149       46 
 5448000 0.0001131144            0    1.4326157 4.850001e-05            0    1.4326157       52 
 5449000 0.00011203156            0    1.4189012 4.8035718e-05            0    1.4189012       52 
 5450000 0.0001145591            0    1.5718225 4.9119452e-05            0    1.5718225       48 
 5451000 0.00010906813 -0.00043232466    1.4960506 4.6693376e-05 -0.00043232466    1.4964829       48 
 5452000 0.0001080825            0    1.4829595 4.6342484e-05            0    1.4829595       48 
 5453000 9.8056341e-05            0    1.4677029 4.2043571e-05            0    1.4677029       44 
 5454000 0.00010538586            0    1.5423571 4.5186244e-05            0    1.5423571       45 
 5455000 0.0001011984            0    1.5499594 4.339079e-05            0    1.5499594       43 
 5456000 0.00010001843            0    1.4638031 4.2884856e-05            0    1.4638031       45 
 5457000 8.8156941e-05            0    1.3823638 3.779901e-05            0    1.3823638       42 
 5458000 9.5955572e-05            0    1.4362586 4.1142826e-05            0    1.4362586       44 
 5459000 0.00011186042            0    1.7132594 4.7962339e-05            0    1.7132594       43 
 5460000 8.6719641e-05            0    1.4278172 3.718274e-05            0    1.4278172       40 
 5461000 8.3842728e-05            0    1.4158457 3.5949207e-05            0    1.4158457       39 
 5462000 8.8360303e-05            0    1.4921336 3.7886206e-05            0    1.4921336       39 
 5463000 0.00010419639            0    1.4600574 4.4676237e-05            0    1.4600574       47 
 5464000 9.8135806e-05            0    1.3751332 4.2077644e-05            0    1.3751332       47 
 5465000 0.00011107027            0    1.5902124 4.7623547e-05            0    1.5902124       46 
 5466000 0.0001019545            0    1.5260504 4.3714984e-05            0    1.5260504       44 
 5467000 0.00010162848            0    1.4873667 4.3575198e-05            0    1.4873667       45 
 5468000 9.3023415e-05            0     1.494251 3.9885606e-05            0     1.494251       41 
 5469000 0.00011695377            0    1.6744475 5.0146214e-05            0    1.6744475       46 
 5470000 0.00012399972            0    1.7375527 5.3167302e-05            0    1.7375527       47 
 5471000 0.00010665712            0    1.5270285 4.5731322e-05            0    1.5270285       46 
 5472000 0.00011665176            0     1.600535 5.0016719e-05            0     1.600535       48 
 5473000 9.6609216e-05            0     1.383171 4.1423088e-05            0     1.383171       46 
 5474000 8.5849413e-05            0    1.3461801 3.6809613e-05            0    1.3461801       42 
 5475000 9.0579853e-05            0    1.3873252 3.8837881e-05            0    1.3873252       43 
 5476000 9.1911886e-05            0    1.4077267 3.9409016e-05            0    1.4077267       43 
 5477000 9.9360381e-05            0    1.4225599 4.2602704e-05            0    1.4225599       46 
 5478000 0.00010358466            0     1.515996 4.4413944e-05            0     1.515996       45 
 5479000 0.00010622615            0    1.4884996 4.5546536e-05            0    1.4884996       47 
 5480000 9.7983365e-05            0    1.4666105 4.2012281e-05            0    1.4666105       44 
 5481000 9.4212891e-05            0    1.4773254 4.0395617e-05            0    1.4773254       42 
 5482000 0.00010423993            0     1.430237 4.4694906e-05            0     1.430237       48 
 5483000 9.0098323e-05            0    1.3485876 3.8631416e-05            0    1.3485876       44 
 5484000 0.00010280594            0    1.4105617 4.4080054e-05            0    1.4105617       48 
 5485000 0.00011711608            0    1.5741119 5.0215809e-05            0    1.5741119       49 
 5486000 9.1264497e-05            0    1.3066497 3.9131436e-05            0    1.3066497       46 
 5487000 0.00010148011            0    1.4529084 4.3511579e-05            0    1.4529084       46 
 5488000 8.254068e-05            0    1.2641969 3.5390929e-05            0    1.2641969       43 
 5489000 8.6016393e-05            0    1.2874895 3.6881209e-05            0    1.2874895       44 
 5490000 6.9076767e-05            0     1.083173 2.9618013e-05            0     1.083173       42 
 5491000 8.9616218e-05 -0.00023826019     1.311325 3.8372256e-05 -0.00023826019    1.3115632       45 
 5492000 9.9414741e-05            0    1.3094711 4.2626012e-05            0    1.3094711       50 
 5493000 9.0367446e-05            0    1.2398978 3.8746807e-05            0    1.2398978       48 
 5494000 8.599797e-05            0    1.1799459 3.6873309e-05            0    1.1799459       48 
 5495000 7.8463478e-05            0    1.1483392 3.3642749e-05            0    1.1483392       45 
 5496000 0.00010191499            0    1.3160822 4.3698042e-05            0    1.3160822       51 
 5497000 7.6890032e-05 -5.420143e-05    1.0773715 3.2931434e-05 -5.420143e-05    1.0774257       47 
 5498000 8.6148581e-05            0    1.2608132 3.6937887e-05            0    1.2608132       45 
 5499000 0.0001084695            0    1.5529767 4.6508416e-05            0    1.5529767       46 
 5500000 0.00010610111            0    1.3975426 4.5492924e-05            0    1.3975426       50 
 5501000 0.00010363575 -0.014426132    1.3238772 4.3459307e-05 -0.014426132    1.3383033       51 
 5502000 0.00012890563            0    1.5435629 5.5270807e-05            0    1.5435629       55 
 5503000 0.00011039804            0    1.3219463 4.7335317e-05            0    1.3219463       55 
 5504000 9.2274248e-05            0    1.2402224 3.9564386e-05            0    1.2402224       49 
 5505000 0.00010504264            0    1.3836006 4.5039083e-05            0    1.3836006       50 
 5506000 0.0001064198            0    1.2743093 4.5629566e-05            0    1.2743093       55 
 5507000 0.00010787018            0    1.2916767 4.6251445e-05            0    1.2916767       55 
 5508000 0.00010390077            0    1.2910945 4.4549486e-05            0    1.2910945       53 
 5509000 0.00010724533            0    1.3079759 4.5983528e-05            0    1.3079759       54 
 5510000 0.00011536344            0    1.3567359 4.946433e-05            0    1.3567359       56 
 5511000 0.00012002192 -0.00060200336    1.5493046 5.1371013e-05 -0.00060200336    1.5499066       51 
 5512000 0.0001257222            0    1.5622525 5.3905849e-05            0    1.5622525       53 
 5513000 0.00012107089            0    1.5044543 5.1911508e-05            0    1.5044543       53 
 5514000 0.00011581461            0    1.4668143 4.9657777e-05            0    1.4668143       52 
 5515000 0.00011851566            0    1.4454301 5.0815903e-05            0    1.4454301       54 
 5516000 0.00011829942            0    1.3912646 5.0723189e-05            0    1.3912646       56 
 5517000 0.00011414725            0    1.3188813 4.8942863e-05            0    1.3188813       57 
 5518000 0.00010821599            0    1.3447164 4.639972e-05            0    1.3447164       53 
 5519000 0.00010258958 -0.00042535237    1.3784415 4.3915398e-05 -0.00042535237    1.3788668       49 
 5520000 0.00010780228            0     1.392108 4.6222335e-05            0     1.392108       51 
 5521000 0.00011789065            0    1.4116655 5.0547918e-05            0    1.4116655       55 
 5522000  0.000107039            0    1.2817239 4.5895062e-05            0    1.2817239       55 
 5523000 0.00010841348            0    1.4571435 4.6484396e-05            0    1.4571435       49 
 5524000 9.8388233e-05            0    1.3499481 4.2185877e-05            0    1.3499481       48 
 5525000 0.00010060747            0    1.2991975 4.3137417e-05            0    1.2991975       51 
 5526000 0.00010199642            0    1.3171337 4.3732956e-05            0    1.3171337       51 
 5527000 0.0001206925            0    1.3472351 5.1749267e-05            0    1.3472351       59 
 5528000 0.00011964583            0    1.3824131 5.1300486e-05            0    1.3824131       57 
 5529000 0.0001056485            0    1.3128121 4.5298856e-05            0    1.3128121       53 
 5530000 0.00010074006            0    1.2062982 4.319427e-05            0    1.2062982       55 
 5531000 0.00011356759            0      1.28956 4.8694321e-05            0      1.28956       58 
 5532000 9.6372339e-05            0    1.2953032 4.1321522e-05            0    1.2953032       49 
 5533000 0.00010134358            0    1.2359976 4.3453041e-05            0    1.2359976       54 
 5534000 9.0338863e-05            0    1.1899254 3.8734552e-05            0    1.1899254       50 
 5535000 0.00011518929            0    1.4875003 4.9389657e-05            0    1.4875003       51 
 5536000 0.00010300655            0    1.3045977 4.4166069e-05            0    1.3045977       52 
 5537000 9.2277157e-05            0    1.1916238 3.9565634e-05            0    1.1916238       51 
 5538000 9.3372796e-05            0    1.2549875 4.003541e-05            0    1.2549875       49 
 5539000 0.00010901634            0    1.3054013 4.6742885e-05            0    1.3054013       55 
 5540000 0.00012335089            0    1.4006494 5.2889105e-05            0    1.4006494       58 
 5541000 0.0001216625            0    1.3580628 5.2165171e-05            0    1.3580628       59 
 5542000 0.0001293408            0    1.4944308 5.5457393e-05            0    1.4944308       57 
 5543000 0.00011313331            0    1.3797864 4.8508116e-05            0    1.3797864       54 
 5544000 0.00010748369            0    1.3356167 4.6085731e-05            0    1.3356167       53 
 5545000 0.00010258062            0      1.27469 4.3983443e-05            0      1.27469       53 
 5546000 0.00010636774            0    1.2972728 4.5607247e-05            0    1.2972728       54 
 5547000 0.0001050472            0     1.330443 4.5041038e-05            0     1.330443       52 
 5548000 0.00011662675            0    1.4771002 5.0005995e-05            0    1.4771002       52 
 5549000 0.00011286044 -0.00026084568    1.4571658 4.8333703e-05 -0.00026084568    1.4574267       51 
 5550000 0.00010106766            0    1.2800413 4.3334732e-05            0    1.2800413       52 
 5551000 9.747592e-05            0    1.2587582 4.1794705e-05            0    1.2587582       51 
 5552000 0.00012166962            0       1.4309 5.2168228e-05            0       1.4309       56 
 5553000 0.00011482028            0    1.3748998 4.9231438e-05            0    1.3748998       55 
 5554000 9.8220844e-05            0    1.3201483 4.2114105e-05            0    1.3201483       49 
 5555000 0.00010284611            0    1.3823147 4.4097279e-05            0    1.3823147       49 
 5556000 0.00010716789            0    1.3316924 4.5950325e-05            0    1.3316924       53 
 5557000 0.00011387995            0    1.4705921 4.8828252e-05            0    1.4705921       51 
 5558000 0.00010275828            0    1.3014534 4.4059619e-05            0    1.3014534       52 
 5559000 0.0001010518            0    1.2798405 4.3327933e-05            0    1.2798405       52 
 5560000 0.00010447408            0    1.2286711 4.4795301e-05            0    1.2286711       56 
 5561000 0.00010541643            0    1.2622946 4.5199352e-05            0    1.2622946       55 
 5562000 0.0001258665  -0.01158975    1.4176243 5.2960637e-05  -0.01158975    1.4292141       58 
 5563000 0.00011437827            0    1.2987653 4.9041919e-05            0    1.2987653       58 
 5564000 9.9977848e-05            0    1.1971711 4.2867455e-05            0    1.1971711       55 
 5565000 0.00010368806            0    1.1773779 4.445828e-05            0    1.1773779       58 
 5566000 0.00011030371            0    1.2972307 4.7294869e-05            0    1.2972307       56 
 5567000 0.00013761693            0    1.4618247 5.9005946e-05            0    1.4618247       62 
 5568000 0.00012073297            0    1.4724728 5.176662e-05            0    1.4724728       54 
 5569000 0.00012043115            0    1.3914869 5.163721e-05            0    1.3914869       57 
 5570000 0.00011770185            0    1.4625898 5.0466965e-05            0    1.4625898       53 
 5571000 0.00012764895            0    1.4748828 5.473198e-05            0    1.4748828       57 
 5572000 0.00012908269            0     1.440891 5.5346723e-05            0     1.440891       59 
 5573000 0.00012724456            0    1.4964642 5.4558589e-05            0    1.4964642       56 
 5574000 0.00014050873 -0.0032194738    1.5137911 5.9855231e-05 -0.0032194738    1.5170105       61 
 5575000 0.00014302692            0     1.569935 6.1325585e-05            0     1.569935       60 
 5576000 0.00016248153            0     1.725947 6.966713e-05            0     1.725947       62 
 5577000 0.00014274503 -0.00029630839    1.5408586 6.1138135e-05 -0.00029630839    1.5411549       61 
 5578000 0.0001440487            0    1.5811505 6.1763691e-05            0    1.5811505       60 
 5579000 0.00015087973            0    1.5526232 6.4692632e-05            0    1.5526232       64 
 5580000 0.00014010186 -0.00052999369    1.5633629 5.9979598e-05 -0.00052999369    1.5638929       59 
 5581000 0.0001277572            0    1.5024931 5.4778393e-05            0    1.5024931       56 
 5582000 0.00012766797            0    1.5570528 5.4740138e-05            0    1.5570528       54 
 5583000 0.00013597586            0     1.492539 5.8302304e-05            0     1.492539       60 
 5584000 0.00012916315            0    1.4666475 5.5381221e-05            0    1.4666475       58 
 5585000 0.00013933564            0    1.5294176 5.9742876e-05            0    1.5294176       60 
 5586000 0.00014812929            0    1.5992864 6.3513327e-05            0    1.5992864       61 
 5587000 0.00013041777            0    1.5068743 5.5919164e-05            0    1.5068743       57 
 5588000 0.00012403576 -0.0023608439    1.4060652 5.2895887e-05 -0.0023608439    1.4084261       58 
 5589000 0.00013818359 -0.007929037    1.5886732 5.847755e-05 -0.007929037    1.5966023       57 
 5590000 0.00011334726            0    1.3823957 4.859985e-05            0    1.3823957       54 
 5591000 0.00011604489 -1.3104847e-05    1.3895506 4.9723379e-05 -1.3104847e-05    1.3895637       55 
 5592000 0.00011619055            0      1.34249 4.9818966e-05            0      1.34249       57 
 5593000 0.00011105122            0    1.2609866 4.7615379e-05            0    1.2609866       58 
 5594000 0.00011534242            0    1.3326906 4.9455314e-05            0    1.3326906       57 
 5595000 0.00011455843            0    1.3472685 4.9119164e-05            0    1.3472685       56 
 5596000 9.5222481e-05            0    1.2798484 4.0828499e-05            0    1.2798484       49 
 5597000 0.00010502271            0    1.2575802 4.5030539e-05            0    1.2575802       55 
 5598000 0.00010223103            0    1.2241515 4.3833551e-05            0    1.2241515       55 
 5599000 0.00011847017            0    1.4448754 5.0796401e-05            0    1.4448754       54 
 5600000 0.00012511165            0     1.396564 5.3644062e-05            0     1.396564       59 
 5601000 0.00012009464            0    1.3405615 5.1492922e-05            0    1.3405615       59 
 5602000  0.000114935            0    1.3516972 4.9280627e-05            0    1.3516972       56 
 5603000 0.00011925582            0    1.3311982 5.1133263e-05            0    1.3311982       59 
 5604000 0.00011869036            0    1.4748733 5.0890809e-05            0    1.4748733       53 
 5605000 0.00013079595            0    1.5112439 5.6081317e-05            0    1.5112439       57 
 5606000 0.0001168752            0    1.3995062 5.0112526e-05            0    1.3995062       55 
 5607000 0.00012473936            0    1.4412648 5.3484437e-05            0    1.4412648       57 
 5608000 0.00011500271 -0.00035258249    1.4286971 4.9241899e-05 -0.00035258249    1.4290497       53 
 5609000 0.00011800457            0    1.3877969 5.0596763e-05            0    1.3877969       56 
 5610000 0.00014028434            0    1.5398311 6.0149653e-05            0    1.5398311       60 
 5611000 0.00011585148            0    1.4395967 4.9673586e-05            0    1.4395967       53 
 5612000 0.00012967709            0    1.4983164 5.5601585e-05            0    1.4983164       57 
 5613000 0.00012325279            0    1.3995354 5.284704e-05            0    1.3995354       58 
 5614000 0.00012357786            0    1.4278446 5.2986421e-05            0    1.4278446       57 
 5615000 0.00013839408            0    1.5448297 5.9339163e-05            0    1.5448297       59 
 5616000 0.00014692326 -0.00019973968    1.5860657 6.2940954e-05 -0.00019973968    1.5862654       61 
 5617000 0.00015532472            0    1.6499243 6.6598507e-05            0    1.6499243       62 
 5618000 0.00014963835            0    1.6991435 6.4160366e-05            0    1.6991435       58 
 5619000 0.00014603634            0    1.6582427 6.2615934e-05            0    1.6582427       58 
 5620000  0.000146406            0    1.7218129 6.277443e-05            0    1.7218129       56 
 5621000 0.00015184232            0    1.6129328 6.5105361e-05            0    1.6129328       62 
 5622000 0.00014260219            0    1.6192479 6.1143475e-05            0    1.6192479       58 
 5623000 0.00014947553            0    1.7270718 6.4090555e-05            0    1.7270718       57 
 5624000 0.00014592991            0    1.6570342 6.2570301e-05            0    1.6570342       58 
 5625000 0.00012262421            0    1.6151816 5.2577526e-05            0    1.6151816       50 
 5626000 0.00014131338            0    1.7897611 6.059087e-05            0    1.7897611       52 
 5627000 0.00012578442            0    1.7625609 5.3932528e-05            0    1.7625609       47 
 5628000 0.00011379451            0    1.5294679 4.8791618e-05            0    1.5294679       49 
 5629000 0.00012470354            0    1.6425701 5.346908e-05            0    1.6425701       50 
 5630000 0.00011841251            0    1.4997172 5.0771677e-05            0    1.4997172       52 
 5631000 0.00011872127            0    1.6289301 5.0904064e-05            0    1.6289301       48 
 5632000 0.00010659306            0    1.4625233 4.5703854e-05            0    1.4625233       48 
 5633000 0.00011313212 -0.0012579239    1.5193071 4.8358441e-05 -0.0012579239     1.520565       49 
 5634000 0.00013258801 -0.00042555454    1.6166325 5.6773717e-05 -0.00042555454    1.6170581       54 
 5635000 0.00013798501            0    1.8546031 5.916377e-05            0    1.8546031       49 
 5636000 0.00014064523            0    1.8525509 6.0304391e-05            0    1.8525509       50 
 5637000 0.00013658288            0    1.7637671 5.8562579e-05            0    1.7637671       51 
 5638000 0.00011661397            0    1.6695825 5.0000517e-05            0    1.6695825       46 
 5639000 0.00011154688            0    1.4692732 4.7827902e-05            0    1.4692732       50 
 5640000 0.0001042634            0    1.5606098 4.470497e-05            0    1.5606098       44 
 5641000 0.00010070226            0    1.4738111 4.3178061e-05            0    1.4738111       45 
 5642000 0.00010944753            0    1.6382057 4.6927766e-05            0    1.6382057       44 
 5643000 0.00011761991            0    1.6138187 5.0431835e-05            0    1.6138187       48 
 5644000 0.00010349441            0    1.5851252 4.4375251e-05            0    1.5851252       43 
 5645000 0.00011523201            0    1.7247875 4.9407977e-05            0    1.7247875       44 
 5646000 0.00010232956            0    1.5672843 4.3875798e-05            0    1.5672843       43 
 5647000 8.5783177e-05            0    1.3451415 3.6781213e-05            0    1.3451415       42 
 5648000 0.00011083856            0    1.6590265 4.7524197e-05            0    1.6590265       44 
 5649000 8.8907527e-05            0    1.3617118 3.8120839e-05            0    1.3617118       43 
 5650000 0.00010554761            0    1.4789915 4.5255599e-05            0    1.4789915       47 
 5651000 9.3257551e-05            0    1.5354623 3.9985996e-05            0    1.5354623       40 
 5652000 9.8266166e-05            0    1.4708435 4.2133538e-05            0    1.4708435       44 
 5653000 8.1148202e-05            0    1.4845387 3.4793876e-05            0    1.4845387       36 
 5654000 7.848426e-05            0    1.2607061 3.365166e-05            0    1.2607061       41 
 5655000 0.00010144463            0    1.4524003 4.3496364e-05            0    1.4524003       46 
 5656000 7.9650524e-05            0     1.311426 3.4151718e-05            0     1.311426       40 
 5657000 9.2944447e-05            0    1.4235415 3.9851747e-05            0    1.4235415       43 
 5658000 7.9167647e-05            0    1.2125354 3.3944675e-05            0    1.2125354       43 
 5659000 0.00010606455            0      1.55229 4.5477246e-05            0      1.55229       45 
 5660000 8.2848472e-05            0     1.435873 3.5522901e-05            0     1.435873       38 
 5661000 0.00010100887            0    1.5118962 4.3309526e-05            0    1.5118962       44 
 5662000 9.0558466e-05            0    1.5694974 3.8828711e-05            0    1.5694974       38 
 5663000 9.8364695e-05            0    1.7047896 4.2175784e-05            0    1.7047896       38 
 5664000 8.3889181e-05            0    1.4166302 3.5969125e-05            0    1.4166302       39 
 5665000 7.6989914e-05 -4.2611942e-05    1.3342939 3.2976056e-05 -4.2611942e-05    1.3343365       38 
 5666000 8.7802671e-05            0    1.3768086 3.764711e-05            0    1.3768086       42 
 5667000 0.00010413424            0     1.490908 4.4649588e-05            0     1.490908       46 
 5668000 9.3001423e-05            0    1.5312452 3.9876177e-05            0    1.5312452       40 
 5669000 0.00010129798            0    1.5884247 4.3433489e-05            0    1.5884247       42 
 5670000 9.7460587e-05            0    1.5282516 4.178813e-05            0    1.5282516       42 
 5671000 0.00011319701            0    1.6943277 4.8535429e-05            0    1.6943277       44 
 5672000 9.8673071e-05            0    1.5472642 4.2308006e-05            0    1.5472642       42 
 5673000 0.00011822944            0    1.7696528 5.069318e-05            0    1.7696528       44 
 5674000 0.00011558683            0    1.7703333 4.9560113e-05            0    1.7703333       43 
 5675000 0.0001124176            0    1.5752576 4.8201243e-05            0    1.5752576       47 
 5676000 0.0001100727            0    1.6858786 4.719582e-05            0    1.6858786       43 
 5677000 9.198723e-05            0    1.5533813 3.9441322e-05            0    1.5533813       39 
 5678000 9.2841654e-05            0    1.4913313 3.9807672e-05            0    1.4913313       41 
 5679000 9.2168464e-05            0    1.5564418 3.9519029e-05            0    1.5564418       39 
 5680000 7.5090477e-05            0    1.3365902 3.2196509e-05            0    1.3365902       37 
 5681000 0.00010001292            0    1.6466877 4.2882492e-05            0    1.6466877       40 
 5682000 9.4126312e-05            0    1.5497662 4.0358495e-05            0    1.5497662       40 
 5683000 0.00010764648            0    1.6487185 4.6155531e-05            0    1.6487185       43 
 5684000 8.731786e-05            0    1.3069698 3.7439238e-05            0    1.3069698       44 
 5685000 8.0015215e-05            0    1.2852981 3.4308086e-05            0    1.2852981       41 
 5686000 9.9831286e-05            0    1.4942702 4.2804614e-05            0    1.4942702       44 
 5687000 0.00011313639            0     1.552302 4.8509438e-05            0     1.552302       48 
 5688000 0.00010054748            0    1.4715459 4.3111697e-05            0    1.4715459       45 
 5689000 0.00011819592            0    1.6217219 5.067881e-05            0    1.6217219       48 
 5690000 0.00011226948            0    1.6804444 4.813773e-05            0    1.6804444       44 
 5691000 0.00010722487            0    1.5692717 4.5974757e-05            0    1.5692717       45 
 5692000 0.00012207869            0    1.6408124 5.2343624e-05            0    1.6408124       49 
 5693000 0.0001140455 -0.0024885319    1.7045393 5.5966296e-05 -0.0024885319    1.7070278       44 
 5694000 0.00011432972            0     1.711282 4.9021099e-05            0     1.711282       44 
 5695000 0.00012407632            0    1.8158984 5.3200147e-05            0    1.8158984       45 
 5696000 0.00013340842            0    1.8693926 5.7201467e-05            0    1.8693926       47 
 5697000 0.00012986257            0     1.900582 5.5681113e-05            0     1.900582       45 
 5698000 0.00011648836            0    1.7841411 4.994666e-05            0    1.7841411       43 
 5699000 0.00010849448            0    1.7427653 4.6519126e-05            0    1.7427653       41 
 5700000 0.00011563249 -0.0008389384    1.7701937 4.9478739e-05 -0.0008389384    1.7710326       43 
 5701000 0.00010911666            0    1.6712358 4.6785898e-05            0    1.6712358       43 
 5702000 0.00011218829            0    1.6062192 4.810292e-05            0    1.6062192       46 
 5703000 0.00011320022            0    1.8183545 4.8536805e-05            0    1.8183545       41 
 5704000 0.00010634961            0    1.6288556 4.5599474e-05            0    1.6288556       43 
 5705000 0.00010982987            0    1.5389969 4.7091701e-05            0    1.5389969       47 
 5706000 0.00011668212            0    1.6705583 5.002974e-05            0    1.6705583       46 
 5707000 0.00010811881            0    1.6183174 4.6358052e-05            0    1.6183174       44 
 5708000 0.00012078325            0    1.6234009 5.1788179e-05            0    1.6234009       49 
 5709000 0.00011590661            0     1.775231 4.9697221e-05            0     1.775231       43 
 5710000 0.00011149191            0    1.7076152 4.7804333e-05            0    1.7076152       43 
 5711000 0.00011163245            0    1.6709094 4.7864592e-05            0    1.6709094       44 
 5712000 0.00011944505            0    1.7878481  5.12144e-05            0    1.7878481       44 
 5713000 0.00014285018            0    1.8447001 6.1249807e-05            0    1.8447001       51 
 5714000 0.00012043605            0    1.8026813 5.1639308e-05            0    1.8026813       44 
 5715000 0.00012709436            0     1.708226 5.4494188e-05            0     1.708226       49 
 5716000 0.00014034191            0    2.1006314 6.0174336e-05            0    2.1006314       44 
 5717000 0.00014870536            0    2.1290405 6.3760327e-05            0    2.1290405       46 
 5718000 0.00013376417 -0.012241508    1.7856308 5.6433272e-05 -0.012241508    1.7978723       49 
 5719000 0.0001290832            0    1.8087852 5.5346943e-05            0    1.8087852       47 
 5720000 0.00014363045            0    2.0126294 6.1584363e-05            0    2.0126294       47 
 5721000 0.00012439754            0    1.8205994 5.3337874e-05            0    1.8205994       45 
 5722000 0.00013248371            0    1.9389432 5.6804978e-05            0    1.9389432       45 
 5723000 0.00013286194            0    1.9444788 5.6967153e-05            0    1.9444788       45 
 5724000 0.00012412284            0    1.8165792 5.3220094e-05            0    1.8165792       45 
 5725000 0.00012250344            0    1.7165859 5.252574e-05            0    1.7165859       47 
 5726000 0.00012400708            0    1.8992982 5.3170457e-05            0    1.8992982       43 
 5727000 0.00011326718            0    1.5540965 4.8565514e-05            0    1.5540965       48 
 5728000 0.00011584976            0    1.5895311 4.9672848e-05            0    1.5895311       48 
 5729000 0.00011504137            0    1.6120234 4.9326236e-05            0    1.6120234       47 
 5730000 0.00011492719            0    1.7602301 4.9277276e-05            0    1.7602301       43 
 5731000 0.0001212187            0    1.6631963 5.1974884e-05            0    1.6631963       48 
 5732000 0.00010395746            0     1.488377 4.4573791e-05            0     1.488377       46 
 5733000 0.00011459817            0     1.640722 4.9136205e-05            0     1.640722       46 
 5734000 0.00010884376 -0.001261308    1.5239177 4.6524136e-05 -0.001261308     1.525179       47 
 5735000 0.00011207188            0    1.5704132 4.8053009e-05            0    1.5704132       47 
 5736000 0.00013650358            0    1.7288441 5.8528575e-05            0    1.7288441       52 
 5737000 0.00015514946            0    2.1287476 6.6523361e-05            0    2.1287476       48 
 5738000 0.00014156483            0     1.942358 6.0698686e-05            0     1.942358       48 
 5739000 0.00013590158            0    1.9043281 5.8270456e-05            0    1.9043281       47 
 5740000 0.00012639529            0    1.7342224 5.419445e-05            0    1.7342224       48 
 5741000 0.00016767138            0    2.0835225 7.1892379e-05            0    2.0835225       53 
 5742000 0.00012998249            0    1.8213866 5.5732533e-05            0    1.8213866       47 
 5743000 0.00013950009            0    1.8374673 5.9813388e-05            0    1.8374673       50 
 5744000 0.00012735995            0    1.8639553 5.4608066e-05            0    1.8639553       45 
 5745000 0.00015690999            0    2.0667869 6.7278221e-05            0    2.0667869       50 
 5746000 0.00014514686            0    1.6770574 6.2234552e-05            0    1.6770574       57 
 5747000 0.00015689868            0    1.8452126 6.7273375e-05            0    1.8452126       56 
 5748000 0.00014012315            0    1.7412019 6.0080535e-05            0    1.7412019       53 
 5749000 0.0001359672            0    1.7220508 5.8298594e-05            0    1.7220508       52 
 5750000 0.00012728843            0    1.6121324 5.4577401e-05            0    1.6121324       52 
 5751000 0.00013621461            0    1.6926336 5.8404676e-05            0    1.6926336       53 
 5752000 0.00012058184            0    1.6206937 5.1701818e-05            0    1.6206937       49 
 5753000 0.00011893294            0     1.535844 5.0994821e-05            0     1.535844       51 
 5754000 0.00013411537            0    1.7319028 5.7504585e-05            0    1.7319028       51 
 5755000 0.00012203137 -0.00045292886    1.4607951 5.2243657e-05 -0.00045292886     1.461248       55 
 5756000 0.00013575561            0    1.6556905 5.8207868e-05            0    1.6556905       54 
 5757000 0.00012520846            0    1.7179383 5.3685573e-05            0    1.7179383       48 
 5758000 0.00012098665            0    1.5623647 5.1875391e-05            0    1.5623647       51 
 5759000 0.00011105383            0     1.523728 4.7616501e-05            0     1.523728       48 
 5760000 0.00012088832            0    1.5610948 5.1833227e-05            0    1.5610948       51 
 5761000 0.00012539753            0    1.6193247 5.376664e-05            0    1.6193247       51 
 5762000 0.00012793469            0    1.6520884 5.4854498e-05            0    1.6520884       51 
 5763000 0.00012109273            0    1.5336628 5.1920875e-05            0    1.5336628       52 
 5764000  0.000127447            0    1.5836853 5.464539e-05            0    1.5836853       53 
 5765000 0.00011646145            0    1.6319222 4.993512e-05            0    1.6319222       47 
 5766000 0.0001273992            0    1.6780767 5.4624893e-05            0    1.6780767       50 
 5767000 0.0001157383            0    1.5555936 4.9625056e-05            0    1.5555936       49 
 5768000 0.00014517499            0    1.7383782 6.2246614e-05            0    1.7383782       55 
 5769000 0.00013583183            0    1.6566201 5.8240549e-05            0    1.6566201       54 
 5770000 0.0001419461            0    1.7638544 6.0862163e-05            0    1.7638544       53 
 5771000 0.00013154558            0    1.6346152 5.6402738e-05            0    1.6346152       53 
 5772000 0.00011853773            0    1.6971253 5.0825367e-05            0    1.6971253       46 
 5773000 0.00013544208            0    1.7840159 5.8073436e-05            0    1.7840159       50 
 5774000 0.00011913846            0    1.7057261 5.1082942e-05            0    1.7057261       46 
 5775000  0.000133538            0    1.7589358 5.7257026e-05            0    1.7589358       50 
 5776000 0.00010588399            0    1.5159594 4.5399827e-05            0    1.5159594       46 
 5777000 0.00010206144            0    1.4937032 4.3760836e-05            0    1.4937032       45 
 5778000 0.00010099596            0    1.4459767 4.3303989e-05            0    1.4459767       46 
 5779000 0.00011003405            0    1.5753766 4.7179248e-05            0    1.5753766       46 
 5780000 0.00010648744            0    1.6697991 4.5658568e-05            0    1.6697991       42 
 5781000 0.00010046554            0    1.6137952 4.3076563e-05            0    1.6137952       41 
 5782000 0.00010359948            0    1.5162129 4.4420301e-05            0    1.5162129       45 
 5783000 0.00011005591 -0.0053761634    1.5367882 4.670431e-05 -0.0053761634    1.5421643       47 
 5784000 0.00010906202 -0.00058155781    1.5608784 4.6679279e-05 -0.00058155781    1.5614599       46 
 5785000 0.00012600895            0    1.6597647 5.4028799e-05            0    1.6597647       50 
 5786000 0.00011617483            0    1.7002574 4.9812228e-05            0    1.7002574       45 
 5787000 0.00010698487            0    1.6775991 4.5871852e-05            0    1.6775991       42 
 5788000 0.00011593397            0    1.7352943 4.9708952e-05            0    1.7352943       44 
 5789000 0.00011983115            0    1.7537689 5.1379947e-05            0    1.7537689       45 
 5790000 0.00012975296            0    1.7090801 5.5634118e-05            0    1.7090801       50 
 5791000 0.00011691447            0    1.6738847 5.0129361e-05            0    1.6738847       46 
 5792000 0.00012209474            0    1.7480516 5.2350505e-05            0    1.7480516       46 
 5793000 0.00014046412            0    1.9682609 6.0226734e-05            0    1.9682609       47 
 5794000 0.00012851931 -0.00022572806    1.8806972 5.5053802e-05 -0.00022572806    1.8809229       45 
 5795000 0.00014653603 -0.0052543885    2.0053116 6.2346634e-05 -0.0052543885    2.0105659       48 
 5796000 0.00015304534            0    1.8665579 6.5621178e-05            0    1.8665579       54 
 5797000 0.00014895383            0    2.0437396 6.3866864e-05            0    2.0437396       48 
 5798000 0.00013220395            0    1.7072196 5.6685025e-05            0    1.7072196       51 
 5799000 0.00013962616            0    1.9990521 5.9867445e-05            0    1.9990521       46 
 5800000 0.00014620762            0    2.0487421 6.2689374e-05            0    2.0487421       47 
 5801000 0.00014359655            0     1.891425 6.1569824e-05            0     1.891425       50 
 5802000 0.00012307862            0    1.7246457 5.2772362e-05            0    1.7246457       47 
 5803000 0.00011888854            0    1.6312251 5.0975784e-05            0    1.6312251       48 
 5804000 0.00010404832            0    1.5573905 4.4612748e-05            0    1.5573905       44 
 5805000 0.00010226015            0    1.4329258 4.3846036e-05            0    1.4329258       47 
 5806000 0.00011767392            0    1.5816095 5.045499e-05            0    1.5816095       49 
 5807000 0.00012956278 -0.00034100341    1.6727718 5.5487302e-05 -0.00034100341    1.6731128       51 
 5808000 0.00012729304 -0.00082036134     1.642982 5.4467493e-05 -0.00082036134    1.6438024       51 
 5809000 0.00012026261            0    1.5231491 5.1564943e-05            0    1.5231491       52 
 5810000 0.00012915283            0     1.546523 5.5376798e-05            0     1.546523       55 
 5811000 9.4535422e-05            0    1.3246826 4.0533909e-05            0    1.3246826       47 
 5812000 9.3904969e-05            0    1.4382529 4.0263589e-05            0    1.4382529       43 
 5813000 0.00010261502            0     1.501805 4.3998193e-05            0     1.501805       45 
 5814000 0.0001028584            0    1.4726417 4.410255e-05            0    1.4726417       46 
 5815000 0.00010154558            0    1.4538458 4.3539653e-05            0    1.4538458       46 
 5816000 0.00010886422            0    1.5254657 4.6677662e-05            0    1.5254657       47 
 5817000 9.0206578e-05            0    1.2915033 3.8677832e-05            0    1.2915033       46 
 5818000 9.1697396e-05            0    1.3128476 3.931705e-05            0    1.3128476       46 
 5819000  9.83974e-05            0    1.4087727 4.2189807e-05            0    1.4087727       46 
 5820000 0.00011909549            0    1.7051109 5.1064519e-05            0    1.7051109       46 
 5821000 0.00011168787            0    1.5011534 4.7888357e-05            0    1.5011534       49 
 5822000 0.00011619471            0    1.5617281 4.9820752e-05            0    1.5617281       49 
 5823000 8.9793437e-05            0    1.3440241 3.850069e-05            0    1.3440241       44 
 5824000 9.742084e-05            0    1.3366748 4.1771088e-05            0    1.3366748       48 
 5825000 9.3045444e-05            0       1.3927 3.9895051e-05            0       1.3927       44 
 5826000 9.7067089e-05            0    1.4206092 4.161941e-05            0    1.4206092       45 
 5827000 8.3876787e-05            0    1.3152479 3.5963811e-05            0    1.3152479       42 
 5828000 9.2384375e-05            0    1.2675714 3.9611605e-05            0    1.2675714       48 
 5829000 0.00010410994            0    1.4284534 4.4639169e-05            0    1.4284534       48 
 5830000 9.5636554e-05            0    1.3121933 4.1006041e-05            0    1.3121933       48 
 5831000 9.7811882e-05            0    1.4315095 4.1938755e-05            0    1.4315095       45 
 5832000 0.00011192476            0    1.6024463 4.7989928e-05            0    1.6024463       46 
 5833000 9.0273268e-05            0    1.3826296 3.8706427e-05            0    1.3826296       43 
 5834000 0.00010485816            0    1.5346341 4.4959983e-05            0    1.5346341       45 
 5835000 0.00010810462            0    1.5821472 4.6351968e-05            0    1.5821472       45 
 5836000 8.9498997e-05            0    1.4034082 3.8374443e-05            0    1.4034082       42 
 5837000 9.9736473e-05            0     1.492851 4.2763961e-05            0     1.492851       44 
 5838000 9.3776888e-05            0    1.5063542 4.0208672e-05            0    1.5063542       41 
 5839000 9.4006032e-05            0    1.6292482 4.0306922e-05            0    1.6292482       38 
 5840000 0.0001084584            0    1.7421858 4.6503659e-05            0    1.7421858       41 
 5841000 8.2745878e-05            0    1.3623902 3.5478911e-05            0    1.3623902       40 
 5842000 9.5134053e-05            0    1.4239622 4.0790583e-05            0    1.4239622       44 
 5843000 0.00010017752            0      1.69169 4.2953067e-05            0      1.69169       39 
 5844000 7.7100645e-05            0    1.3019927 3.3058407e-05            0    1.3019927       39 
 5845000 7.243722e-05            0    1.2893629 3.1058873e-05            0    1.2893629       37 
 5846000 7.0030579e-05 -0.00052247153    1.1820785 2.9955982e-05 -0.00052247153     1.182601       39 
 5847000 8.3497398e-05            0    1.2497853 3.580114e-05            0    1.2497853       44 
 5848000 7.8928152e-05            0    1.2376498 3.3841987e-05            0    1.2376498       42 
 5849000 8.8150839e-05            0    1.4885964 3.7796394e-05            0    1.4885964       39 
 5850000 7.8952124e-05            0    1.2380257 3.3852265e-05            0    1.2380257       42 
 5851000 8.148004e-05            0    1.3759472 3.4936158e-05            0    1.3759472       39 
 5852000 0.00010126181            0    1.4497829 4.3417977e-05            0    1.4497829       46 
 5853000 0.00010111589 -0.0023201899     1.385053 4.3114538e-05 -0.0023201899    1.3873732       48 
 5854000 0.00011986708            0    1.6796438 5.139535e-05            0    1.6796438       47 
 5855000 9.0936546e-05            0    1.3927884 3.899082e-05            0    1.3927884       43 
 5856000  9.45663e-05            0    1.3539222 4.0547148e-05            0    1.3539222       46 
 5857000 0.00010075101            0    1.4117789 4.3198963e-05            0    1.4117789       47 
 5858000 9.5651128e-05            0    1.4649971 4.1012289e-05            0    1.4649971       43 
 5859000 9.9405979e-05            0    1.4232127 4.2622255e-05            0    1.4232127       46 
 5860000 0.00011894033 -0.00021166939    1.5061904 5.0944991e-05 -0.00021166939    1.5064021       52 
 5861000 0.00011307334            0    1.5514369 4.8482402e-05            0    1.5514369       48 
 5862000 0.00010812816            0    1.4835859 4.6362059e-05            0    1.4835859       48 
 5863000 0.00011475191            0     1.453355 4.9202123e-05            0     1.453355       52 
 5864000 0.00012585111            0    1.5638544 5.3961122e-05            0    1.5638544       53 
 5865000 0.00011327154            0    1.5224389 4.8567386e-05            0    1.5224389       49 
 5866000 0.00011003475            0    1.4493557 4.7179546e-05            0    1.4493557       50 
 5867000 0.00010345787            0    1.3905371 4.4359581e-05            0    1.3905371       49 
 5868000 0.00012837864            0    1.7254875 5.504485e-05            0    1.7254875       49 
 5869000 0.00012757922            0       1.5004 5.4702084e-05            0       1.5004       56 
 5870000 0.00010266145            0    1.4085793 4.4018103e-05            0    1.4085793       48 
 5871000 0.00011218132            0    1.6061195 4.8099933e-05            0    1.6061195       46 
 5872000 0.00010622428            0    1.4277193 4.5545733e-05            0    1.4277193       49 
 5873000 0.00010808349            0    1.4527083 4.6342909e-05            0    1.4527083       49 
 5874000 0.00010894335            0    1.4947709 4.6711589e-05            0    1.4947709       48 
 5875000 9.818967e-05            0    1.2679752 4.2100739e-05            0    1.2679752       51 
 5876000 8.7535852e-05            0    1.2266008 3.7532706e-05            0    1.2266008       47 
 5877000 0.00010192691            0    1.2909239 4.3703153e-05            0    1.2909239       52 
 5878000 8.2689475e-05            0     1.210188 3.5454727e-05            0     1.210188       45 
 5879000 8.4698551e-05            0    1.2126439 3.6316158e-05            0    1.2126439       46 
 5880000 8.7973441e-05            0    1.2070506 3.7720331e-05            0    1.2070506       48 
 5881000 9.3621458e-05            0    1.2845449 4.0142029e-05            0    1.2845449       48 
 5882000 7.7028687e-05            0    1.1028331 3.3027554e-05            0    1.1028331       46 
 5883000 8.9393934e-05            0    1.2526373 3.8329395e-05            0    1.2526373       47 
 5884000 8.941181e-05            0    1.2528877 3.833706e-05            0    1.2528877       47 
 5885000 0.00010554929            0     1.479015 4.5256318e-05            0     1.479015       47 
 5886000 9.2375928e-05            0    1.2944226 3.9607983e-05            0    1.2944226       47 
 5887000 0.0001079151            0    1.4806627 4.6270708e-05            0    1.4806627       48 
 5888000 0.00012093286            0    1.6592744 5.1852326e-05            0    1.6592744       48 
 5889000 0.00010684935            0    1.4361207 4.5813745e-05            0    1.4361207       49 
 5890000 0.00010701373            0    1.3819249 4.5884225e-05            0    1.3819249       51 
 5891000 0.00010609187 -0.0022433476    1.4236963 4.5250712e-05 -0.0022433476    1.4259397       49 
 5892000 0.00011698297 -0.0013058018     1.480306 4.999786e-05 -0.0013058018    1.4816118       52 
 5893000 0.00011502645            0    1.4853974 4.9319836e-05            0    1.4853974       51 
 5894000 0.00012480487            0    1.5806777 5.3512527e-05            0    1.5806777       52 
 5895000 0.00011921225 -0.0039485276    1.5662914 5.0722181e-05 -0.0039485276    1.5702399       50 
 5896000 0.00011117516            0    1.4356637 4.7668522e-05            0    1.4356637       51 
 5897000 0.00011175328            0    1.4719918  4.79164e-05            0    1.4719918       50 
 5898000 0.00011353419            0    1.4661271    4.868e-05            0    1.4661271       51 
 5899000 0.00011360113            0    1.5268688 4.8708704e-05            0    1.5268688       49 
 5900000 0.00011199484            0    1.4184362 4.8019974e-05            0    1.4184362       52 
 5901000 0.00011726937            0    1.6432433 5.0281535e-05            0    1.6432433       47 
 5902000 0.00010310074            0    1.5432072 4.4206456e-05            0    1.5432072       44 
 5903000 0.00010389651            0    1.5205601 4.4547658e-05            0    1.5205601       45 
 5904000 0.00011772639            0    1.6496473 5.0477488e-05            0    1.6496473       47 
 5905000 0.00013427946            0    1.8423981 5.7574942e-05            0    1.8423981       48 
 5906000 0.00012167669 -4.9207917e-05    1.6026519 5.2134758e-05 -4.9207917e-05    1.6027011       50 
 5907000 9.2615315e-05            0    1.3862618 3.9710625e-05            0    1.3862618       44 
 5908000 9.7658225e-05            0    1.3684411 4.1872871e-05            0    1.3684411       47 
 5909000 0.00010620705            0    1.4572271 4.5538348e-05            0    1.4572271       48 
 5910000 9.6062269e-05            0    1.4059033 4.1188574e-05            0    1.4059033       45 
 5911000 0.00011746646            0    1.6117133 5.036604e-05            0    1.6117133       48 
 5912000 0.00010179923            0    1.4264672 4.364841e-05            0    1.4264672       47 
 5913000 0.00010465348            0    1.4359112 4.4872224e-05            0    1.4359112       48 
 5914000 9.3858771e-05            0    1.4048738 4.0243781e-05            0    1.4048738       44 
 5915000 9.5389137e-05            0    1.3960518 4.0899956e-05            0    1.3960518       45 
 5916000 8.0952277e-05            0      1.21169 3.470987e-05            0      1.21169       44 
 5917000 9.0280314e-05            0    1.2925589 3.8709448e-05            0    1.2925589       46 
 5918000 8.793991e-05            0    1.2870299 3.7705954e-05            0    1.2870299       45 
 5919000 7.5353811e-05            0    1.2104211 3.2309418e-05            0    1.2104211       41 
 5920000 7.2492309e-05            0    1.1935677 3.1082493e-05            0    1.1935677       40 
 5921000 8.566838e-05            0    1.2537853 3.6731991e-05            0    1.2537853       45 
 5922000 8.6508073e-05            0    1.3895939 3.7092026e-05            0    1.3895939       41 
 5923000 8.8988463e-05            0    1.3954027 3.8155542e-05            0    1.3954027       42 
 5924000 8.0899619e-05            0    1.3661456 3.4687292e-05            0    1.3661456       39 
 5925000 8.2451251e-05            0    1.2628272 3.5352584e-05            0    1.2628272       43 
 5926000 7.9301168e-05            0    1.3056739 3.4001925e-05            0    1.3056739       40 
 5927000 9.5702557e-05            0    1.4657848 4.103434e-05            0    1.4657848       43 
 5928000 8.8184885e-05            0    1.2906152 3.7810992e-05            0    1.2906152       45 
 5929000 8.922406e-05            0    1.3355017 3.8256559e-05            0    1.3355017       44 
 5930000 8.2620133e-05            0    1.3271413 3.5424996e-05            0    1.3271413       41 
 5931000 0.00010463921            0    1.3782867 4.4866104e-05            0    1.3782867       50 
 5932000 9.1795345e-05            0    1.5113874 3.9359047e-05            0    1.5113874       40 
 5933000 8.3909887e-05            0    1.4935733 3.5978003e-05            0    1.4935733       37 
 5934000 9.4068905e-05            0    1.3181455 4.033388e-05            0    1.3181455       47 
 5935000 8.6757836e-05            0    1.4284461 3.7199117e-05            0    1.4284461       40 
 5936000 9.3810824e-05            0    1.3729527 4.0223223e-05            0    1.3729527       45 
 5937000 0.00010292834            0    1.5764552 4.4132535e-05            0    1.5764552       43 
 5938000 9.4892532e-05            0    1.6446124 4.0687026e-05            0    1.6446124       38 
 5939000 9.5366092e-05            0    1.6974907 4.0890075e-05            0    1.6974907       37 
 5940000 8.5878196e-05            0    1.6634859 3.6821954e-05            0    1.6634859       34 
 5941000 9.0024629e-05            0    1.6469256 3.8599818e-05            0    1.6469256       36 
 5942000 0.00011373124 -0.00012658761    1.6281834 4.8721491e-05 -0.00012658761      1.62831       46 
 5943000 9.4776153e-05            0    1.7338507 4.0637127e-05            0    1.7338507       36 
 5944000 9.1930767e-05            0    1.6363428 3.9417112e-05            0    1.6363428       37 
 5945000 9.1193367e-05            0    1.6232173 3.9100937e-05            0    1.6232173       37 
 5946000  8.99962e-05            0    1.5597526 3.8587629e-05            0    1.5597526       38 
 5947000 0.00010268387            0    1.6101565 4.4027716e-05            0    1.6101565       42 
 5948000 9.5582825e-05            0    1.4306794 4.0983003e-05            0    1.4306794       44 
 5949000 9.1430255e-05            0    1.5846066 3.9202508e-05            0    1.5846066       38 
 5950000 0.00011258038            0    1.6118329 4.8271038e-05            0    1.6118329       46 
 5951000 9.6721671e-05            0    1.4813936 4.1471305e-05            0    1.4813936       43 
 5952000 9.6249673e-05            0    1.5460749 4.1268927e-05            0    1.5460749       41 
 5953000 9.0190129e-05            0    1.4142456 3.8670779e-05            0    1.4142456       42 
 5954000 0.00010347673            0    1.7037186 4.4367671e-05            0    1.7037186       40 
 5955000 9.2136399e-05            0    1.3790934 3.9505281e-05            0    1.3790934       44 
 5956000 0.00010233403            0    1.6046708 4.3877716e-05            0    1.6046708       42 
 5957000 9.8248355e-05            0    1.5047764 4.2125901e-05            0    1.5047764       43 
 5958000 8.8726312e-05            0    1.4983144 3.8043139e-05            0    1.4983144       39 
 5959000 8.9538642e-05            0    1.5518225 3.8391442e-05            0    1.5518225       38 
 5960000 0.00010101165            0    1.5839348 4.3310717e-05            0    1.5839348       42 
 5961000 6.8091537e-05            0    1.2812687 2.9195576e-05            0    1.2812687       35 
 5962000 7.6043751e-05            0    1.2520413 3.2605243e-05            0    1.2520413       40 
 5963000 6.8424297e-05            0    1.2517655 2.9338254e-05            0    1.2517655       36 
 5964000 7.0549498e-05            0    1.2227156 3.0249475e-05            0    1.2227156       38 
 5965000 5.8889538e-05            0    1.1407077 2.5250039e-05            0    1.1407077       34 
 5966000 8.7794809e-05            0    1.3446694 3.7643739e-05            0    1.3446694       43 
 5967000 6.2788181e-05            0    1.1486574 2.6921659e-05            0    1.1486574       36 
 5968000 6.9535802e-05            0    1.2377185 2.9814833e-05            0    1.2377185       37 
 5969000 7.0520182e-05            0    1.2222075 3.0236905e-05            0    1.2222075       38 
 5970000 7.985129e-05            0    1.2521253  3.42378e-05            0    1.2521253       42 
 5971000 8.945108e-05            0    1.3700369 3.8353898e-05            0    1.3700369       43 
 5972000 8.0588245e-05            0     1.434449 3.4553784e-05            0     1.434449       37 
 5973000 0.00010657175            0    1.5951611 4.5694718e-05            0    1.5951611       44 
 5974000 8.8874497e-05 -0.00027566242    1.4630207 3.8053641e-05 -0.00027566242    1.4632964       40 
 5975000 0.00010710567            0    1.7634681 4.5923648e-05            0    1.7634681       40 
 5976000 0.0001006275            0    1.4407014 4.3146005e-05            0    1.4407014       46 
 5977000 0.0001091403            0     1.633607 4.6796034e-05            0     1.633607       44 
 5978000 0.00012575242            0    1.8004193 5.3918807e-05            0    1.8004193       46 
 5979000 0.0001400328            0     1.844484 6.0041796e-05            0     1.844484       50 
 5980000 0.00011302491            0    1.8609269 4.8461639e-05            0    1.8609269       40 
 5981000 0.00011960634            0    1.7124247 5.1283552e-05            0    1.7124247       46 
 5982000 0.00010393345            0    1.8499873 4.4563496e-05            0    1.8499873       37 
 5983000 0.00011170671            0    1.8863826 4.7896434e-05            0    1.8863826       39 
 5984000 0.00011182744            0    1.7535342  4.79482e-05            0    1.7535342       42 
 5985000 0.00010786907 -0.00078358388    1.6906805 4.6156038e-05 -0.00078358388    1.6914641       42 
 5986000 0.00010964428            0    1.6793169 4.7012128e-05            0    1.6793169       43 
 5987000 0.00012525145            0    1.7185281 5.3704004e-05            0    1.7185281       48 
 5988000 9.0480668e-05            0    1.5279401 3.8795353e-05            0    1.5279401       39 
 5989000 8.0991051e-05            0    1.3676897 3.4726495e-05            0    1.3676897       39 
 5990000 9.4879793e-05            0    1.5621721 4.0681564e-05            0    1.5621721       40 
 5991000 8.6371538e-05            0    1.4220858 3.7033484e-05            0    1.4220858       40 
 5992000 9.6200198e-05            0     1.407922 4.1247714e-05            0     1.407922       45 
 5993000 8.3918082e-05            0    1.3158955 3.5981517e-05            0    1.3158955       42 
 5994000 9.4329265e-05 -0.0083246346    1.2595184 3.9730581e-05 -0.0083246346    1.2678431       49 
 5995000 7.8092118e-05            0    1.1429042 3.3483521e-05            0    1.1429042       45 
 5996000 7.8850729e-05            0    1.1540067 3.380879e-05            0    1.1540067       45 
 5997000 0.00010688099            0    1.3536683 4.5827312e-05            0    1.3536683       52 
 5998000 8.9021209e-05            0    1.3028551 3.8169582e-05            0    1.3028551       45 
 5999000 9.4335969e-05 -0.0023211773    1.4769342 4.0232823e-05 -0.0023211773    1.4792554       42 
 6000000 9.3577594e-05            0    1.4673635 4.0123221e-05            0    1.4673635       42 
 6001000 0.00010588231            0    1.4527714 4.5399107e-05            0    1.4527714       48 
 6002000 9.944966e-05            0    1.4238381 4.2640984e-05            0    1.4238381       46 
 6003000 9.000488e-05 -0.00019907254    1.3170523 3.8542301e-05 -0.00019907254    1.3172514       45 
 6004000 9.3922982e-05            0    1.4727794 4.0271313e-05            0    1.4727794       42 
 6005000 9.2179425e-05            0    1.3797375 3.9523729e-05            0    1.3797375       44 
 6006000 0.00011138644            0     1.497102 4.7759112e-05            0     1.497102       49 
 6007000 9.8363384e-05            0    1.4722987 4.2175222e-05            0    1.4722987       44 
 6008000 0.00012055256            0    1.5878942 5.1689266e-05            0    1.5878942       50 
 6009000 0.00010130939            0    1.5163944 4.343838e-05            0    1.5163944       44 
 6010000 0.00011690394            0     1.673734 5.0124846e-05            0     1.673734       46 
 6011000 0.00011233602            0    1.5741145 4.8166264e-05            0    1.5741145       47 
 6012000 0.00011411596            0    1.5031126 4.8929446e-05            0    1.5031126       50 
 6013000 0.00013933015            0    1.6385972 5.9740522e-05            0    1.6385972       56 
 6014000 0.00013133026            0     1.663323 5.6310413e-05            0     1.663323       52 
 6015000 0.00013598849            0    1.6898238 5.8307721e-05            0    1.6898238       53 
 6016000 0.0001319403            0    1.7378913 5.6571982e-05            0    1.7378913       50 
 6017000 0.0001160211            0    1.6257518 4.9746311e-05            0    1.6257518       47 
 6018000 0.00011841478            0    1.6247247 5.0772648e-05            0    1.6247247       48 
 6019000 0.00013036596 -0.0089088585    1.7797936 5.5156191e-05 -0.0089088585    1.7887025       48 
 6020000 0.00012407794            0    1.7764454 5.3200838e-05            0    1.7764454       46 
 6021000 0.00014876016            0    1.9210187 6.3783823e-05            0    1.9210187       51 
 6022000 0.00013600959            0    1.7563639 5.831677e-05            0    1.7563639       51 
 6023000 0.00013658873            0    1.7991195 5.8565086e-05            0    1.7991195       50 
 6024000 0.00014635537            0    2.0080871 6.2752723e-05            0    2.0080871       48 
 6025000 0.00013290222            0    1.7505615 5.6984424e-05            0    1.7505615       50 
 6026000 0.00010848203            0    1.4884412 4.6513789e-05            0    1.4884412       48 
 6027000 0.0001177972            0    1.6162512 5.0507851e-05            0    1.6162512       48 
 6028000 0.00010671039 -0.0018833758    1.4622499 4.5551608e-05 -0.0018833758    1.4641332       48 
 6029000 9.9900286e-05            0    1.3158666 4.2834199e-05            0    1.3158666       50 
 6030000 0.00012188543            0    1.5739711 5.2260758e-05            0    1.5739711       51 
 6031000 0.00010978384            0    1.3904335 4.7071966e-05            0    1.3904335       52 
 6032000 0.00011234939            0    1.5415039 4.8171997e-05            0    1.5415039       48 
 6033000 0.00012868641            0    1.5694737 5.5176811e-05            0    1.5694737       54 
 6034000 0.00013433676            0    1.5798722 5.7599508e-05            0    1.5798722       56 
 6035000 0.00011247598            0    1.4245299 4.8226274e-05            0    1.4245299       52 
 6036000 0.00011202598            0    1.3662813 4.8033327e-05            0    1.3662813       54 
 6037000 0.00010226216            0    1.3469768  4.38469e-05            0    1.3469768       50 
 6038000 0.00010224624            0     1.346767 4.3840071e-05            0     1.346767       50 
 6039000 0.00010992412            0     1.365942 4.7132112e-05            0     1.365942       53 
 6040000 0.0001029605            0    1.2328864 4.4146324e-05            0    1.2328864       55 
 6041000 0.00010947633            0    1.2875002 4.6940113e-05            0    1.2875002       56 
 6042000 9.6217294e-05            0    1.2932193 4.1255044e-05            0    1.2932193       49 
 6043000 0.00011826634            0    1.3908755 5.0709001e-05            0    1.3908755       56 
 6044000 0.00010335649            0    1.2843312 4.4316115e-05            0    1.2843312       53 
 6045000 0.00010246386            0    1.3231701 4.3933382e-05            0    1.3231701       51 
 6046000 9.9852319e-05            0    1.2894459 4.2813632e-05            0    1.2894459       51 
 6047000 9.6326294e-05            0     1.219991 4.130178e-05            0     1.219991       52 
 6048000 8.5671623e-05            0    1.1754682 3.6733381e-05            0    1.1754682       48 
 6049000 0.00011019964            0    1.3693656 4.7250247e-05            0    1.3693656       53 
 6050000 0.00011047425            0    1.3727781 4.7367994e-05            0    1.3727781       53 
 6051000 0.00010556738            0    1.2875115 4.5264076e-05            0    1.2875115       54 
 6052000 0.00010477838            0    1.4682126 4.4925777e-05            0    1.4682126       47 
 6053000 0.00011213645            0    1.3427626 4.8080691e-05            0    1.3427626       55 
 6054000 0.00012091163            0    1.5926238 5.1843223e-05            0    1.5926238       50 
 6055000 0.00011122894            0     1.382156 4.769158e-05            0     1.382156       53 
 6056000 0.00010851896            0    1.3484812 4.6529624e-05            0    1.3484812       53 
 6057000 0.00011668219            0     1.372245 5.0029766e-05            0     1.372245       56 
 6058000 0.0001175148            0    1.4332235 5.0386764e-05            0    1.4332235       54 
 6059000 0.00012705035            0    1.4941801 5.4475317e-05            0    1.4941801       56 
 6060000 0.00012898795            0    1.5445486 5.5306102e-05            0    1.5445486       55 
 6061000 0.00013214108            0    1.5823053 5.6658067e-05            0    1.5823053       55 
 6062000 0.00011516498            0    1.5478878 4.9379235e-05            0    1.5478878       49 
 6063000 0.00012410296            0    1.5421315 5.321157e-05            0    1.5421315       53 
 6064000 0.00012283286            0    1.5557018 5.2666988e-05            0    1.5557018       52 
 6065000 0.00011098656            0    1.5228049 4.7587654e-05            0    1.5228049       48 
 6066000 0.00011272941            0    1.4008011 4.8334935e-05            0    1.4008011       53 
 6067000 0.00012202013            0    1.4881711 5.2318515e-05            0    1.4881711       54 
 6068000 0.00011894385            0    1.4506524 5.0999497e-05            0    1.4506524       54 
 6069000 0.00013752739            0    1.6772993 5.8967555e-05            0    1.6772993       54 
 6070000 0.0001152322            0     1.459438 4.9408056e-05            0     1.459438       52 
 6071000 0.00011370557            0    1.4401029 4.8753484e-05            0    1.4401029       52 
 6072000 0.00012390002            0    1.4836239 5.3124555e-05            0    1.4836239       55 
 6073000 0.00011495871            0    1.4845227 4.9290793e-05            0    1.4845227       51 
 6074000 0.00014129223            0    1.6043733 6.0581805e-05            0    1.6043733       58 
 6075000 0.00012781731            0    1.6188308 5.4804168e-05            0    1.6188308       52 
 6076000 0.00012092406            0    1.5315265 5.1848555e-05            0    1.5315265       52 
 6077000 0.00013301652            0     1.752067 5.703343e-05            0     1.752067       50 
 6078000 0.00010824477            0    1.4851859 4.6412058e-05            0    1.4851859       48 
 6079000 0.00011719493            0    1.4293223 5.0249613e-05            0    1.4293223       54 
 6080000 0.00011945137            0    1.5128746 5.1217108e-05            0    1.5128746       52 
 6081000 0.00015015821            0    1.6211918 6.4383266e-05            0    1.6211918       61 
 6082000 0.0001229154            0    1.5567472 5.2702378e-05            0    1.5567472       52 
 6083000 0.00012590577            0    1.5946207 5.3984556e-05            0    1.5946207       52 
 6084000 0.0001283099            0    1.6250696 5.5015377e-05            0    1.6250696       52 
 6085000 0.00014209081            0    1.6134412 6.0924211e-05            0    1.6134412       58 
 6086000 0.00015291785            0    1.6785028 6.5566517e-05            0    1.6785028       60 
 6087000 0.00014820309            0    1.6000832 6.3544971e-05            0    1.6000832       61 
 6088000 0.00015244598            0    1.7310241 6.5364192e-05            0    1.7310241       58 
 6089000 0.00014588675            0     1.628467 6.2551791e-05            0     1.628467       59 
 6090000 0.0001589204            0    1.6353654 6.8140225e-05            0    1.6353654       64 
 6091000 0.00016199257            0    1.6669795 6.9457479e-05            0    1.6669795       64 
 6092000 0.0001605983            0    1.6272067 6.8859657e-05            0    1.6272067       65 
 6093000 0.00016384051 -0.0015910517    1.6584662 7.0023414e-05 -0.0015910517    1.6600572       65 
 6094000 0.00014566179   -0.0129253    1.4405807 6.1553808e-05   -0.0129253     1.453506       66 
 6095000 0.00015092502            0    1.5291956 6.4712052e-05            0    1.5291956       65 
 6096000 0.00013637826            0    1.4724157 5.8474843e-05            0    1.4724157       61 
 6097000 0.0001449988            0    1.4468903 6.2171069e-05            0    1.4468903       66 
 6098000 0.00013466989            0    1.4539712 5.7742344e-05            0    1.4539712       61 
 6099000 0.00012889529 -6.5730105e-05    1.4147534 5.5227003e-05 -6.5730105e-05    1.4148191       60 
 6100000 0.00013461511            0    1.4072407 5.7718859e-05            0    1.4072407       63 
 6101000 0.00014463565            0    1.5363806 6.2015361e-05            0    1.5363806       62 
 6102000 0.00012988186            0    1.4022769 5.5689384e-05            0    1.4022769       61 
 6103000 0.00015252288            0    1.5453853 6.5397164e-05            0    1.5453853       65 
 6104000 0.00014262802            0    1.4451291 6.1154551e-05            0    1.4451291       65 
 6105000 0.0001640557            0    1.5889036 7.0342085e-05            0    1.5889036       68 
 6106000 0.00014161259            0    1.3715387 6.0719163e-05            0    1.3715387       68 
 6107000 0.00014476853 -0.00079064089    1.4889454 6.1943898e-05 -0.00079064089     1.489736       64 
 6108000 0.0001561762            0    1.5584256 6.6963598e-05            0    1.5584256       66 
 6109000 0.00016595877            0    1.6815198 7.1158063e-05            0    1.6815198       65 
 6110000 0.00015222799            0    1.4963557 6.5270724e-05            0    1.4963557       67 
 6111000 0.00015521656            0    1.6487754 6.6552131e-05            0    1.6487754       62 
 6112000 0.00016979903 -1.7455639e-05    1.6445111 7.2770615e-05 -1.7455639e-05    1.6445286       68 
 6113000 0.00017003019            0     1.671346 7.2903763e-05            0     1.671346       67 
 6114000 0.00015355499            0    1.5558428 6.5839702e-05            0    1.5558428       65 
 6115000 0.00016984033            0    1.6694798 7.2822361e-05            0    1.6694798       67 
 6116000 0.00015808122            0    1.6525509 6.7780409e-05            0    1.6525509       63 
 6117000 0.00016126931            0    1.6340054 6.9147366e-05            0    1.6340054       65 
 6118000 0.00014440091            0    1.5590328 6.1914712e-05            0    1.5590328       61 
 6119000 0.00015658034            0    1.5624583 6.7136881e-05            0    1.5624583       66 
 6120000 0.00015613609 -0.00045946839    1.5117415 6.6854636e-05 -0.00045946839    1.5122009       68 
 6121000 0.00015228816            0    1.5430071 6.5296522e-05            0    1.5430071       65 
 6122000 0.00016472008            0    1.6950469 7.0626952e-05            0    1.6950469       64 
 6123000 0.00015978586            0    1.6442714 6.8511307e-05            0    1.6442714       64 
 6124000 0.0001427016            0    1.4917753 6.1186097e-05            0    1.4917753       63 
 6125000 0.00012930446            0    1.3517242 5.5441815e-05            0    1.3517242       63 
 6126000 0.00014902387 -0.0031948651    1.4838601 6.3481735e-05 -0.0031948651     1.487055       66 
 6127000 0.00012954077 -0.0092552711    1.3893391 5.9709151e-05 -0.0092552711    1.3985944       61 
 6128000 0.00015640901            0    1.6614421 6.7063419e-05            0    1.6614421       62 
 6129000 0.00016863434            0    1.7353264 7.2305267e-05            0    1.7353264       64 
 6130000 0.00014449032            0     1.559998 6.1953047e-05            0     1.559998       61 
 6131000 0.00014353625            0    1.5755257 6.1543972e-05            0    1.5755257       60 
 6132000 0.00013777073            0    1.5378716 5.907189e-05            0    1.5378716       59 
 6133000 0.00014322703 -0.0008441709    1.5455146 6.1281266e-05 -0.0008441709    1.5463588       61 
 6134000 0.00013054531            0     1.508348 5.5973851e-05            0     1.508348       57 
 6135000 0.00011400391            0    1.4166384 4.8881402e-05            0    1.4166384       53 
 6136000 0.00011337908            0    1.3827838 4.8613494e-05            0    1.3827838       54 
 6137000 0.00012708482            0    1.4683648 5.4490099e-05            0    1.4683648       57 
 6138000 0.00011951974            0    1.4851793 5.1246422e-05            0    1.4851793       53 
 6139000 0.00012746189            0    1.5262751 5.4651776e-05            0    1.5262751       55 
 6140000 0.0001116623            0     1.337085 4.7877392e-05            0     1.337085       55 
 6141000 0.00011507265            0     1.353316 4.9339646e-05            0     1.353316       56 
 6142000 0.00012180453            0    1.4585317 5.2226069e-05            0    1.4585317       55 
 6143000 0.00011030737            0    1.4529466 4.729644e-05            0    1.4529466       50 
 6144000 0.00011928302            0    1.4547889 5.1144924e-05            0    1.4547889       54 
 6145000 0.00010874976            0    1.4921147 4.6628585e-05            0    1.4921147       48 
 6146000 0.0001148826            0    1.4835399 4.9258161e-05            0    1.4835399       51 
 6147000 0.00011278166            0    1.5158546 4.8357341e-05            0    1.5158546       49 
 6148000 0.00014162531            0    1.7937118 6.0724617e-05            0    1.7937118       52 
 6149000 0.00011592852            0    1.6244545 4.9706615e-05            0    1.6244545       47 
 6150000 0.00011812849            0    1.7681419 5.0649897e-05            0    1.7681419       44 
 6151000 0.00010612001            0    1.4870123 4.5501028e-05            0    1.4870123       47 
 6152000 0.00010810313            0    1.4832425 4.635133e-05            0    1.4832425       48 
 6153000 0.00011244347            0     1.511309 4.8212332e-05            0     1.511309       49 
 6154000 9.5860451e-05            0    1.5031604 4.1102041e-05            0    1.5031604       42 
 6155000 0.00012314817            0    1.5902775 5.2802183e-05            0    1.5902775       51 
 6156000 9.3557476e-05            0     1.467048 4.0114595e-05            0     1.467048       42 
 6157000 8.2713328e-05            0    1.3618543 3.5464955e-05            0    1.3618543       40 
 6158000 9.1108794e-05            0    1.3954265 3.9064675e-05            0    1.3954265       43 
 6159000 9.6786258e-05            0     1.327968 4.1498999e-05            0     1.327968       48 
 6160000 8.2075348e-05            0    1.3183903 3.5191408e-05            0    1.3183903       41 
 6161000 0.00010515256            0    1.5054874 4.5086212e-05            0    1.5054874       46 
 6162000 0.00010457856            0    1.5305422 4.4840102e-05            0    1.5305422       45 
 6163000 8.2458006e-05            0     1.324537 3.5355481e-05            0     1.324537       41 
 6164000 9.6974086e-05            0    1.4515037 4.1579533e-05            0    1.4515037       44 
 6165000 8.4522746e-05            0     1.325377 3.6240778e-05            0     1.325377       42 
 6166000 9.7225675e-05            0    1.4229302 4.1687407e-05            0    1.4229302       45 
 6167000 9.1905959e-05            0    1.2610072 3.9406475e-05            0    1.2610072       48 
 6168000 9.6010854e-05            0    1.5055188 4.1166529e-05            0    1.5055188       42 
 6169000 8.149768e-05            0    1.2779418 3.4943722e-05            0    1.2779418       42 
 6170000 9.1372486e-05            0    1.3994652 3.9177738e-05            0    1.3994652       43 
 6171000 8.9360741e-05            0    1.4012402 3.8315163e-05            0    1.4012402       42 
 6172000 9.9841436e-05            0    1.4944221 4.2808966e-05            0    1.4944221       44 
 6173000 8.0804105e-05            0    1.3645327 3.4646338e-05            0    1.3645327       39 
 6174000 9.2118024e-05            0    1.4797075 3.9497402e-05            0    1.4797075       41 
 6175000 8.6332074e-05            0    1.3867668 3.7016563e-05            0    1.3867668       41 
 6176000 9.3836658e-05            0    1.4714258  4.02343e-05            0    1.4714258       42 
 6177000 9.6463339e-05            0    1.4438589 4.136054e-05            0    1.4438589       44 
 6178000 0.00011722903            0    1.7156859 5.0264236e-05            0    1.7156859       45 
 6179000 0.00010115715            0    1.5141157 4.3373105e-05            0    1.5141157       44 
 6180000 9.6344602e-05            0    1.3793824 4.130963e-05            0    1.3793824       46 
 6181000 9.5541266e-05            0    1.4981553 4.0965184e-05            0    1.4981553       42 
 6182000 0.00011446711            0     1.538508 4.9080009e-05            0     1.538508       49 
 6183000 0.00010896542            0    1.4645619 4.6721051e-05            0    1.4645619       49 
 6184000 0.00013233367            0    1.5846115 5.6740646e-05            0    1.5846115       55 
 6185000 0.00010704631            0    1.4687423 4.5898198e-05            0    1.4687423       48 
 6186000 9.9542911e-05            0    1.3948503 4.2680967e-05            0    1.3948503       47 
 6187000 0.00011313895            0    1.4610231 4.8510534e-05            0    1.4610231       51 
 6188000 0.00011312554            0    1.4057235 4.8504783e-05            0    1.4057235       53 
 6189000 0.00010099834            0    1.3857603 4.330501e-05            0    1.3857603       48 
 6190000 0.00011078863            0     1.489067 4.7502789e-05            0     1.489067       49 
 6191000 0.00011525241 -0.020026733    1.5290362 4.9616286e-05 -0.020026733     1.549063       49 
 6192000 0.00010779722 -0.00031932016    1.4485413 4.615824e-05 -0.00031932016    1.4488606       49 
 6193000 0.00011077721            0    1.4305247 4.749789e-05            0    1.4305247       51 
 6194000 0.00011311848 -0.0044595811    1.4562992 4.8012832e-05 -0.0044595811    1.4607588       51 
 6195000 0.00011647063            0     1.475123 4.9939059e-05            0     1.475123       52 
 6196000 0.00011084254            0    1.5208289 4.7525904e-05            0    1.5208289       48 
 6197000 0.00010981494            0    1.4759801 4.7085302e-05            0    1.4759801       49 
 6198000 0.00010255775            0    1.4071565 4.3973639e-05            0    1.4071565       48 
 6199000 0.00011203898            0    1.4757551 4.8038902e-05            0    1.4757551       50 
 6200000 0.00011635028 -0.0057252609    1.3874953 4.9305406e-05 -0.0057252609    1.3932205       55 
 6201000 0.00011584418            0    1.4959572 4.9670453e-05            0    1.4959572       51 
 6202000 0.00011052192            0    1.3997814 4.7388434e-05            0    1.3997814       52 
 6203000 0.00011854313            0    1.6610919 5.0827681e-05            0    1.6610919       47 
 6204000 0.00010611081            0    1.4868834 4.5497084e-05            0    1.4868834       47 
 6205000 0.0001056167            0    1.4491272 4.5285225e-05            0    1.4491272       48 
 6206000 0.00010389124            0     1.520483  4.45454e-05            0     1.520483       45 
 6207000 0.00010748205            0    1.5388392 4.6085029e-05            0    1.5388392       46 
 6208000 0.00011320928            0     1.553302 4.8540689e-05            0     1.553302       48 
 6209000 0.00011821884            0    1.7301721 5.0688635e-05            0    1.7301721       45 
 6210000 0.00010290375            0    1.5760787 4.4121994e-05            0    1.5760787       43 
 6211000 0.00011952699            0    1.7890745 5.124953e-05            0    1.7890745       44 
 6212000 0.00011100494            0    1.6245943 4.7595537e-05            0    1.6245943       45 
 6213000 0.00011755219            0    1.7204155 5.0402796e-05            0    1.7204155       45 
 6214000 0.00010622198            0    1.6269008 4.5544749e-05            0    1.6269008       43 
 6215000 0.00011104671            0    1.6252056 4.7613446e-05            0    1.6252056       45 
 6216000 0.00010549152            0    1.6541824 4.5231549e-05            0    1.6541824       42 
 6217000 0.0001044153            0    1.6772408 4.4770099e-05            0    1.6772408       41 
 6218000 0.00010456446            0    1.6396454 4.4834054e-05            0    1.6396454       42 
 6219000 0.00011696465            0    1.7507215 5.0150877e-05            0    1.7507215       44 
 6220000 9.5951183e-05            0    1.5045831 4.1140944e-05            0    1.5045831       42 
 6221000 9.2195437e-05            0    1.4456903 3.9530594e-05            0    1.4456903       42 
 6222000 0.00011403301            0    1.5978936 4.8893881e-05            0    1.5978936       47 
 6223000 0.00010189106            0    1.4587921 4.3687784e-05            0    1.4587921       46 
 6224000 9.8796499e-05            0    1.5491997 4.2360928e-05            0    1.5491997       42 
 6225000 0.00010620954            0    1.5206205 4.5539417e-05            0    1.5206205       46 
 6226000 9.6524297e-05            0    1.4126653 4.1386678e-05            0    1.4126653       45 
 6227000 8.9696426e-05            0     1.342572 3.8459094e-05            0     1.342572       44 
 6228000 9.5718064e-05            0    1.3704122 4.1040989e-05            0    1.3704122       46 
 6229000 0.00010347591            0    1.5144044 4.4367316e-05            0    1.5144044       45 
 6230000 9.2660583e-05            0    1.3561185 3.9730035e-05            0    1.3561185       45 
 6231000 0.00010376619            0    1.4540292 4.4491779e-05            0    1.4540292       47 
 6232000 0.00010996567            0    1.5743976 4.7149927e-05            0    1.5743976       46 
 6233000 0.00010304016 -0.0012539257    1.4426018 4.4036381e-05 -0.0012539257    1.4438558       47 
 6234000 9.5060733e-05            0    1.4906202 4.0759146e-05            0    1.4906202       42 
 6235000 0.00011711199            0     1.641038 5.0214054e-05            0     1.641038       47 
 6236000 0.00010913937            0    1.6335932 4.6795638e-05            0    1.6335932       44 
 6237000 9.8918977e-05            0    1.4477122 4.2413444e-05            0    1.4477122       45 
 6238000 0.00010619374            0    1.5203942 4.553264e-05            0    1.5203942       46 
 6239000 9.9221378e-05            0    1.5196792 4.2543104e-05            0    1.5196792       43 
 6240000 0.00010678984            0    1.4963984 4.5788231e-05            0    1.4963984       47 
 6241000 0.00011273509            0    1.4849241 4.8337373e-05            0    1.4849241       50 
 6242000 0.00011371228            0    1.5283626 4.875636e-05            0    1.5283626       49 
 6243000 0.00010549153            0    1.5439037 4.5231553e-05            0    1.5439037       45 
 6244000 9.8305328e-05            0     1.505649 4.2150329e-05            0     1.505649       43 
 6245000 0.00012317232            0    1.6224011 5.2812536e-05            0    1.6224011       50 
 6246000 0.0001033461            0    1.5468797 4.4311659e-05            0    1.5468797       44 
 6247000 0.00010000068            0    1.4635432 4.2877243e-05            0    1.4635432       45 
 6248000 9.3471525e-05            0    1.4657003 4.0077742e-05            0    1.4657003       42 
 6249000 0.00010340222            0    1.4187431 4.4335721e-05            0    1.4187431       48 
 6250000 9.5262663e-05            0    1.3348731 4.0845728e-05            0    1.3348731       47 
 6251000 9.6071133e-05            0    1.4379883 4.1192374e-05            0    1.4379883       44 
 6252000 0.00010083393            0    1.3281644 4.3234518e-05            0    1.3281644       50 
 6253000 0.00011634548            0    1.5637544 4.9885396e-05            0    1.5637544       49 
 6254000 0.0001008923 -0.0004551941    1.4133035 4.3186596e-05 -0.0004551941    1.4137587       47 
 6255000 0.00010861322            0    1.5550343 4.6570038e-05            0    1.5550343       46 
 6256000 0.00011519186            0    1.5805043 4.9390759e-05            0    1.5805043       48 
 6257000 9.9593066e-05            0    1.3955531 4.2702472e-05            0    1.3955531       47 
 6258000 9.7238132e-05            0    1.4893038 4.1692748e-05            0    1.4893038       43 
 6259000 8.7423873e-05            0    1.4043046 3.7484693e-05            0    1.4043046       41 
 6260000 0.00010952842            0    1.5347728 4.6962449e-05            0    1.5347728       47 
 6261000 9.8003305e-05            0    1.4031304 4.2020831e-05            0    1.4031304       46 
 6262000 9.2192881e-05            0    1.3799388 3.9529498e-05            0    1.3799388       44 
 6263000 0.0001037433            0    1.4537085 4.4481965e-05            0    1.4537085       47 
 6264000 0.00012211521            0    1.5466126 5.235928e-05            0    1.5466126       52 
 6265000 0.0001126904            0    1.5461827 4.831821e-05            0    1.5461827       48 
 6266000 0.00012368096            0    1.5971577 5.3030628e-05            0    1.5971577       51 
 6267000 0.00012000674            0    1.6465675 5.1455236e-05            0    1.6465675       48 
 6268000 0.00011162118            0    1.5315123 4.7859759e-05            0    1.5315123       48 
 6269000 0.00012709421            0    1.7082239 5.4494123e-05            0    1.7082239       49 
 6270000 0.00011879285            0    1.5966486 5.0934754e-05            0    1.5966486       49 
 6271000 0.00011397268            0    1.6317667 4.8868013e-05            0    1.6317667       46 
 6272000 0.00011959047            0    1.6073691 5.1276748e-05            0    1.6073691       49 
 6273000 0.00011579543            0    1.6947047 4.9649553e-05            0    1.6947047       45 
 6274000 0.00010828595            0    1.5503487 4.6429715e-05            0    1.5503487       46 
 6275000 9.8352053e-05            0    1.4081234 4.2170364e-05            0    1.4081234       46 
 6276000 9.1522197e-05            0    1.4017582 3.9241929e-05            0    1.4017582       43 
 6277000 0.00010259321 -0.018070319    1.4195225 4.3081818e-05 -0.018070319    1.4375928       47 
 6278000 8.739068e-05            0    1.3703483 3.7470461e-05            0    1.3703483       42 
 6279000 8.6671351e-05            0    1.3274624 3.7162034e-05            0    1.3274624       43 
 6280000 8.8608213e-05            0    1.2968107 3.7992502e-05            0    1.2968107       45 
 6281000 9.694022e-05            0    1.2768772 4.1565012e-05            0    1.2768772       50 
 6282000 0.00010796108            0    1.4220418 4.6290424e-05            0    1.4220418       50 
 6283000 9.875274e-05            0    1.4452793 4.2342166e-05            0    1.4452793       45 
 6284000 0.00010882338            0    1.4931248 4.666015e-05            0    1.4931248       48 
 6285000 9.2010374e-05            0    1.3173285 3.9451245e-05            0    1.3173285       46 
 6286000 0.00010839707            0    1.5519397 4.647736e-05            0    1.5519397       46 
 6287000 0.00011329217 -0.020528659    1.6375401 4.7854209e-05 -0.020528659    1.6580687       45 
 6288000 0.00010862286            0    1.5897317 4.6574171e-05            0    1.5897317       45 
 6289000 9.1557033e-05            0    1.3399677 3.9256866e-05            0    1.3399677       45 
 6290000 0.00010646612            0    1.4309699 4.564943e-05            0    1.4309699       49 
 6291000 9.5976247e-05            0    1.4365681 4.1151691e-05            0    1.4365681       44 
 6292000 0.00010340645            0    1.4489883 4.4337534e-05            0    1.4489883       47 
 6293000 8.3804019e-05            0    1.2543747 3.593261e-05            0    1.2543747       44 
 6294000 0.00010973988            0    1.4749712 4.7053117e-05            0    1.4749712       49 
 6295000 0.0001214998            0    1.7025224 5.2095412e-05            0    1.7025224       47 
 6296000 0.00011009436            0    1.4797356 4.7205106e-05            0    1.4797356       49 
 6297000 0.00010349622            0    1.4200328 4.4376024e-05            0    1.4200328       48 
 6298000 0.00010779636            0     1.419872 4.6219793e-05            0     1.419872       50 
 6299000 0.00010488071            0    1.3543801 4.4969653e-05            0    1.3543801       51 
 6300000 0.00010188206            0    1.4586632 4.3683925e-05            0    1.4586632       46 
 6301000 9.5487879e-05            0     1.338029 4.0942293e-05            0     1.338029       47 
 6302000 9.8950092e-05            0    1.3576571 4.2426785e-05            0    1.3576571       48 
 6303000 0.0001159871            0    1.5277588 4.9731733e-05            0    1.5277588       50 
 6304000 0.00011751335 -0.0012149948    1.4590325 5.0231822e-05 -0.0012149948    1.4602475       53 
 6305000 0.00012394682            0    1.5116692 5.3144619e-05            0    1.5116692       54 
 6306000 0.00010692758            0    1.4671132 4.5847286e-05            0    1.4671132       48 
 6307000 0.00011465709            0    1.5731669 4.9161465e-05            0    1.5731669       48 
 6308000 0.00011533771            0    1.5502095 4.9453297e-05            0    1.5502095       49 
 6309000 0.00011307635            0    1.4602148 4.8483693e-05            0    1.4602148       51 
 6310000 0.00011787695            0    1.5222075 5.0542046e-05            0    1.5222075       51 
 6311000 0.00014108544            0    1.7531596 6.0493138e-05            0    1.7531596       53 
 6312000 0.0001273863            0    1.5253699 5.4619364e-05            0    1.5253699       55 
 6313000 0.0001219603            0    1.6064367 5.2292862e-05            0    1.6064367       50 
 6314000 0.00012437777            0    1.5169251 5.3329399e-05            0    1.5169251       54 
 6315000 0.00012381043            0    1.5100058 5.308614e-05            0    1.5100058       54 
 6316000 0.00013068582            0    1.5938587 5.6034097e-05            0    1.5938587       54 
 6317000 0.00011613465            0    1.5609208 4.9795001e-05            0    1.5609208       49 
 6318000 0.00012196625            0     1.544726 5.2295412e-05            0     1.544726       52 
 6319000 0.00011460165            0    1.3477768 4.9137696e-05            0    1.3477768       56 
 6320000 0.00011136859 -0.0054449227    1.4614799 4.7235714e-05 -0.0054449227    1.4669248       50 
 6321000 9.2490414e-05            0    1.2690263 3.9657072e-05            0    1.2690263       48 
 6322000 8.6032955e-05            0    1.2317488 3.688831e-05            0    1.2317488       46 
 6323000 0.00012492615            0    1.5236132 5.3564528e-05            0    1.5236132       54 
 6324000 9.9649012e-05            0    1.3393437 4.272646e-05            0    1.3393437       49 
 6325000 0.00010504108            0    1.4412292 4.5038413e-05            0    1.4412292       48 
 6326000 0.00010969292            0      1.47434 4.7032982e-05            0      1.47434       49 
 6327000 9.3496685e-05            0    1.3683551 4.008853e-05            0    1.3683551       45 
 6328000 8.9043629e-05            0    1.2217342 3.8179195e-05            0    1.2217342       48 
 6329000 8.4350536e-05            0    1.1819664 3.616694e-05            0    1.1819664       47 
 6330000 9.726242e-05            0    1.3628948 4.1703162e-05            0    1.3628948       47 
 6331000 9.8454584e-05            0    1.3508584 4.2214326e-05            0    1.3508584       48 
 6332000 9.9224318e-05            0    1.4206118 4.2544364e-05            0    1.4206118       46 
 6333000 9.141875e-05            0     1.228724 3.9197574e-05            0     1.228724       49 
 6334000 0.00010131581            0    1.3617465 4.3441131e-05            0    1.3617465       49 
 6335000 8.8906162e-05            0     1.272885 3.8120253e-05            0     1.272885       46 
 6336000 0.00010303171            0    1.4136595 4.4176859e-05            0    1.4136595       48 
 6337000 9.674605e-05            0    1.3556592 4.1481759e-05            0    1.3556592       47 
 6338000 8.2468103e-05            0    1.1807102 3.535981e-05            0    1.1807102       46 
 6339000 9.6615306e-05            0    1.2236514  4.14257e-05            0    1.2236514       52 
 6340000 8.3696857e-05            0    1.1728067 3.5886662e-05            0    1.1728067       47 
 6341000 9.0236221e-05            0    1.2380974 3.8690542e-05            0    1.2380974       48 
 6342000 7.8237464e-05            0    1.1450314 3.3545841e-05            0    1.1450314       45 
 6343000 8.5273257e-05            0    1.1700024 3.6562574e-05            0    1.1700024       48 
 6344000 9.7269601e-05            0    1.2560938 4.1706241e-05            0    1.2560938       51 
 6345000 9.2553101e-05            0    1.3545455 3.968395e-05            0    1.3545455       45 
 6346000 7.8336261e-05            0    1.2283685 3.3588202e-05            0    1.2283685       42 
 6347000 0.00010090885            0    1.3030894 4.3266641e-05            0    1.3030894       51 
 6348000 0.00010008161            0    1.3731823 4.2911945e-05            0    1.3731823       48 
 6349000 9.9801404e-05            0     1.341392 4.2791801e-05            0     1.341392       49 
 6350000 8.7566824e-05            0    1.2014715 3.7545986e-05            0    1.2014715       48 
 6351000 9.6845377e-05            0    1.2756279 4.1524347e-05            0    1.2756279       50 
 6352000 9.7081778e-05            0    1.3048385 4.1625708e-05            0    1.3048385       49 
 6353000 9.7444766e-05            0      1.36545 4.1781347e-05            0      1.36545       47 
 6354000 0.00011821251            0    1.4971842 5.0685922e-05            0    1.4971842       52 
 6355000 0.00010641541            0    1.4302883 4.5627687e-05            0    1.4302883       49 
 6356000 0.00010102703            0    1.2553847 4.3317312e-05            0    1.2553847       53 
 6357000 9.336287e-05            0    1.3663967 4.0031154e-05            0    1.3663967       45 
 6358000 0.00011173236            0    1.5017514 4.7907433e-05            0    1.5017514       49 
 6359000 8.3388107e-05            0    1.1441369 3.5754279e-05            0    1.1441369       48 
 6360000 8.2812042e-05            0     1.136233 3.550728e-05            0     1.136233       48 
 6361000 8.2471775e-05            0    1.1556401 3.5361384e-05            0    1.1556401       47 
 6362000 9.7237866e-05            0    1.3341643 4.1692634e-05            0    1.3341643       48 
 6363000 9.1186176e-05            0     1.225598 3.9097854e-05            0     1.225598       49 
 6364000 8.2614895e-05            0    1.1828118 3.542275e-05            0    1.1828118       46 
 6365000 9.6900286e-05            0    1.2513247 4.154789e-05            0    1.2513247       51 
 6366000 9.8925177e-05            0    1.2774732 4.2416102e-05            0    1.2774732       51 
 6367000 7.4758313e-05 -0.0031114338    1.0226193 3.1745162e-05 -0.0031114338    1.0257308       48 
 6368000 7.9946744e-05            0    1.0969193 3.4278728e-05            0    1.0969193       48 
 6369000 8.8105335e-05            0    1.2345807 3.7776883e-05            0    1.2345807       47 
 6370000 8.3732898e-05            0    1.1488677 3.5902115e-05            0    1.1488677       48 
 6371000 8.5390928e-05            0    1.1716169 3.6613028e-05            0    1.1716169       48 
 6372000 0.00011563754            0    1.3846859 4.9581852e-05            0    1.3846859       55 
 6373000 0.00010465873            0    1.3515136 4.4874477e-05            0    1.3515136       51 
 6374000 0.00012711945            0    1.5221745 5.4504946e-05            0    1.5221745       55 
 6375000 0.0001183281            0    1.4703718 5.0735484e-05            0    1.4703718       53 
 6376000 0.00011314717 -0.00024257203    1.4327881 4.845797e-05 -0.00024257203    1.4330307       52 
 6377000 0.00010669509            0    1.3258173 4.5747602e-05            0    1.3258173       53 
 6378000 0.00010792104            0    1.3936415 4.6273252e-05            0    1.3936415       51 
 6379000 9.5431457e-05            0    1.2570041 4.0918101e-05            0    1.2570041       50 
 6380000 0.00011140182            0    1.3339659 4.7765704e-05            0    1.3339659       55 
 6381000 0.00010960273            0    1.3881397 4.6994313e-05            0    1.3881397       52 
 6382000 0.0001199972            0    1.5197876 5.1451144e-05            0    1.5197876       52 
 6383000 0.00011359195            0      1.38538 4.8704766e-05            0      1.38538       54 
 6384000 0.00011039645            0    1.3464073 4.7334633e-05            0    1.3464073       54 
 6385000 9.2303887e-05            0     1.266467 3.9577094e-05            0     1.266467       48 
 6386000 0.0001315496            0    1.5199518 5.6404462e-05            0    1.5199518       57 
 6387000 0.0001133805            0    1.4088918 4.8614105e-05            0    1.4088918       53 
 6388000 0.00011533611            0     1.460754 4.945261e-05            0     1.460754       52 
 6389000 0.00010817364 -0.0013248842    1.2939856 4.6211436e-05 -0.0013248842    1.2953105       55 
 6390000 0.00012069295            0    1.4719846 5.1749458e-05            0    1.4719846       54 
 6391000 0.00010953163            0    1.3610648 4.6963825e-05            0    1.3610648       53 
 6392000 9.8487089e-05            0    1.2473579 4.2228263e-05            0    1.2473579       52 
 6393000 9.3513262e-05            0    1.3103596 4.0095638e-05            0    1.3103596       47 
 6394000 0.00010724444            0     1.441431 4.598315e-05            0     1.441431       49 
 6395000 0.00010041131            0    1.3225976 4.3053308e-05            0    1.3225976       50 
 6396000 0.00010002202            0    1.3174701 4.2886396e-05            0    1.3174701       50 
 6397000 0.00010597539            0    1.3421987 4.543902e-05            0    1.3421987       52 
 6398000 0.00010382658            0    1.3149836 4.4517674e-05            0    1.3149836       52 
 6399000 9.9005469e-05            0      1.27851 4.2450528e-05            0      1.27851       51 
 6400000 0.00011099765            0    1.3537396 4.7592409e-05            0    1.3537396       54 
 6401000 0.00010422139            0    1.3199839 4.4686956e-05            0    1.3199839       52 
 6402000 0.00012169663            0    1.4842257 5.2179808e-05            0    1.4842257       54 
 6403000 0.00011141722            0    1.3844956 4.777231e-05            0    1.3844956       53 
 6404000 0.00011637474            0    1.3935135 4.9897943e-05            0    1.3935135       55 
 6405000 0.00011285889 -0.00034270668    1.2594495 4.8319759e-05 -0.00034270668    1.2597922       59 
 6406000 0.00012553652            0    1.4013068 5.3826236e-05            0    1.4013068       59 
 6407000 0.00012848373            0    1.3871819 5.5089908e-05            0    1.3871819       61 
 6408000 0.00010424607            0    1.2713967 4.469754e-05            0    1.2713967       54 
 6409000 0.00012454891            0    1.4390643 5.3402776e-05            0    1.4390643       57 
 6410000 0.00012044153            0    1.2590729 5.164166e-05            0    1.2590729       63 
 6411000 0.00012623987            0    1.3409728 5.4127809e-05            0    1.3409728       62 
 6412000 0.00010711372            0    1.2376145  4.59271e-05            0    1.2376145       57 
 6413000 0.00011537886            0    1.3331117 4.9470941e-05            0    1.3331117       57 
 6414000 0.00010952941            0    1.2655259 4.6962875e-05            0    1.2655259       57 
 6415000 0.00010866646            0    1.2779758 4.6592869e-05            0    1.2779758       56 
 6416000 0.00010771933            0    1.2024216 4.6186766e-05            0    1.2024216       59 
 6417000 0.00011000865            0    1.2491482 4.7168357e-05            0    1.2491482       58 
 6418000 0.00010152677            0    1.2382318 4.3531587e-05            0    1.2382318       54 
 6419000 0.00010074235            0    1.2063256 4.3195252e-05            0    1.2063256       55 
 6420000 9.5752422e-05            0    1.1465743 4.1055721e-05            0    1.1465743       55 
 6421000 8.5712944e-05            0    1.0080301 3.6751099e-05            0    1.0080301       56 
 6422000 9.9414596e-05            0    1.1288527 4.262595e-05            0    1.1288527       58 
 6423000 9.9387862e-05            0    1.1094212 4.2614487e-05            0    1.1094212       59 
 6424000 0.00012210387            0    1.2970385 5.2354419e-05            0    1.2970385       62 
 6425000 9.3754379e-05            0    1.1434388 4.0199021e-05            0    1.1434388       54 
 6426000 0.00010415961            0    1.2249728 4.4660468e-05            0    1.2249728       56 
 6427000 9.8394995e-05            0    1.1782175 4.2188776e-05            0    1.1782175       55 
 6428000 0.00010086781            0     1.165448 4.3249045e-05            0     1.165448       57 
 6429000 0.00010743161            0    1.2634533  4.60634e-05            0    1.2634533       56 
 6430000 9.7478993e-05            0    1.1672489 4.1796022e-05            0    1.1672489       55 
 6431000 0.00011020969            0    1.2514311 4.7254558e-05            0    1.2514311       58 
 6432000 9.5304256e-05            0    1.2553286 4.0863561e-05            0    1.2553286       50 
 6433000 0.00010602657            0    1.2931118 4.5460962e-05            0    1.2931118       54 
 6434000 0.00011783825            0    1.4924441 5.0525453e-05            0    1.4924441       52 
 6435000 9.9849965e-05            0    1.3152038 4.2812622e-05            0    1.3152038       50 
 6436000 0.00011327684            0    1.3321963 4.8569656e-05            0    1.3321963       56 
 6437000 9.3495359e-05            0    1.2073551 4.0087961e-05            0    1.2073551       51 
 6438000 9.9528064e-05            0    1.3946423 4.2674601e-05            0    1.3946423       47 
 6439000 0.00010258313            0    1.2747211 4.3984519e-05            0    1.2747211       53 
 6440000 0.00011883698            0    1.4766952 5.0953676e-05            0    1.4766952       53 
 6441000 0.00011801695 -0.004175501    1.4623298 5.0169403e-05 -0.004175501    1.4665053       53 
 6442000 0.00010698991            0    1.4092497 4.5874013e-05            0    1.4092497       50 
 6443000 0.00010373904            0    1.4233645 4.4480141e-05            0    1.4233645       48 
 6444000 0.0001114324            0    1.4677653 4.7778818e-05            0    1.4677653       50 
 6445000 0.00010479891            0    1.4085615 4.493458e-05            0    1.4085615       49 
 6446000 0.0001116135            0    1.4413242 4.7856467e-05            0    1.4413242       51 
 6447000 8.8978979e-05  -0.01258493    1.2896521 3.7258218e-05  -0.01258493     1.302237       45 
 6448000 9.5005501e-05 -0.0013276795    1.2019353 4.0572471e-05 -0.0013276795    1.2032629       52 
 6449000 9.7836685e-05            0    1.2391204 4.194939e-05            0    1.2391204       52 
 6450000 9.282667e-05            0    1.2736399 3.9801248e-05            0    1.2736399       48 
 6451000 9.529003e-05            0    1.2305306 4.0857461e-05            0    1.2305306       51 
 6452000 7.9239853e-05            0    1.1344908 3.3975635e-05            0    1.1344908       46 
 6453000 8.1816485e-05            0    1.1974115 3.5080416e-05            0    1.1974115       45 
 6454000 0.00010441106            0     1.432585 4.476828e-05            0     1.432585       48 
 6455000 0.00010478406            0    1.4083619 4.4928211e-05            0    1.4083619       49 
 6456000 9.9292573e-05 -0.0010004857     1.390342 4.2451943e-05 -0.0010004857    1.3913425       47 
 6457000 0.00011098728            0    1.5552151 4.7587963e-05            0    1.5552151       47 
 6458000 0.00010291065            0    1.4119984 4.4124951e-05            0    1.4119984       48 
 6459000 0.00011383853            0    1.5619358 4.8810494e-05            0    1.5619358       48 
 6460000 0.00012319725            0    1.6227296 5.2823229e-05            0    1.6227296       50 
 6461000 0.00011218196            0    1.5392066 4.8100205e-05            0    1.5392066       48 
 6462000 0.00011740958            0    1.6109328 5.0341649e-05            0    1.6109328       48 
 6463000 0.00012235581            0    1.5800453 5.2462443e-05            0    1.5800453       51 
 6464000 0.00012975889            0    1.7440389 5.5636658e-05            0    1.7440389       49 
 6465000 0.00012415568            0    1.7034935 5.3234173e-05            0    1.7034935       48 
 6466000 0.00011653187            0     1.632909 4.9965315e-05            0     1.632909       47 
 6467000 0.00012583196            0    1.6574334 5.3952911e-05            0    1.6574334       50 
 6468000 0.00012194691            0    1.6390411 5.2287118e-05            0    1.6390411       49 
 6469000 0.00012921615            0    1.6686366 5.5403949e-05            0    1.6686366       51 
 6470000 0.00011462032            0    1.6775065 4.9145699e-05            0    1.6775065       45 
 6471000 0.00010645982            0    1.5242037 4.5646725e-05            0    1.5242037       46 
 6472000 0.00012507013            0    1.6473987 5.3626259e-05            0    1.6473987       50 
 6473000 0.00012611742            0    1.6611935 5.4075308e-05            0    1.6611935       50 
 6474000 0.00012284647            0    1.6181091 5.2672822e-05            0    1.6181091       50 
 6475000 0.0001219787            0    1.7463902 5.2300748e-05            0    1.7463902       46 
 6476000 0.00012184173            0    1.7073137 5.224202e-05            0    1.7073137       47 
 6477000 0.00010970805            0     1.505263 4.7039467e-05            0     1.505263       48 
 6478000 0.00010121015            0    1.3886665 4.3395829e-05            0    1.3886665       48 
 6479000 0.00011492317            0    1.5446378 4.9275555e-05            0    1.5446378       49 
 6480000 9.3296363e-05 -0.0070172527    1.3584061 3.9419244e-05 -0.0070172527    1.3654234       45 
 6481000 6.9272559e-05            0    1.1405554 2.9701963e-05            0    1.1405554       40 
 6482000 9.5562671e-05            0    1.4636423 4.0974362e-05            0    1.4636423       43 
 6483000 9.9039325e-05            0    1.4494735 4.2465045e-05            0    1.4494735       45 
 6484000 9.1398855e-05            0    1.3376527 3.9189044e-05            0    1.3376527       45 
 6485000 8.6189275e-05            0    1.3515094 3.6955335e-05            0    1.3515094       42 
 6486000 9.2903282e-05            0     1.422911 3.9834097e-05            0     1.422911       43 
 6487000 9.8185085e-05            0    1.4057329 4.2098773e-05            0    1.4057329       46 
 6488000 9.7436238e-05            0    1.4923379 4.177769e-05            0    1.4923379       43 
 6489000 0.00010210467            0    1.5282981 4.3779372e-05            0    1.5282981       44 
 6490000 0.0001321606 -0.0045045493    1.7362885 5.6227228e-05 -0.0045045493     1.740793       50 
 6491000 0.00012480667            0    1.7488601 5.3513298e-05            0    1.7488601       47 
 6492000 0.00013414253            0    1.8405194 5.751623e-05            0    1.8405194       48 
 6493000 0.00014004144            0    1.7401867 6.0045503e-05            0    1.7401867       53 
 6494000 0.00013399124            0    1.7649058 5.745136e-05            0    1.7649058       50 
 6495000 0.00011278018            0    1.6880887 4.8356707e-05            0    1.6880887       44 
 6496000 0.0001143795            0    1.7518418 4.9042445e-05            0    1.7518418       43 
 6497000 0.00012031242            0    1.6858841 5.1586298e-05            0    1.6858841       47 
 6498000 0.00011676957            0    1.6021515 5.0067235e-05            0    1.6021515       48 
 6499000 0.00010643017            0     1.557641 4.5634014e-05            0     1.557641       45 
 6500000 0.00011149449            0     1.631759 4.7805438e-05            0     1.631759       45 
 6501000 9.6224392e-05            0    1.4402823 4.1258088e-05            0    1.4402823       44 
 6502000 0.00010590344            0    1.7883832 4.5408167e-05            0    1.7883832       39 
 6503000 0.0001052149 -0.00093490365    1.5739169 4.5002391e-05 -0.00093490365    1.5748518       44 
 6504000 9.2640839e-05 -0.00011447431    1.5643042 3.9681193e-05 -0.00011447431    1.5644187       39 
 6505000 0.00010163977            0    1.3945611 4.3580035e-05            0    1.3945611       48 
 6506000 9.2789471e-05            0    1.5277554 3.9785298e-05            0    1.5277554       40 
 6507000 0.0001184668            0    1.6961097 5.0794953e-05            0    1.6961097       46 
 6508000 8.5122201e-05            0    1.3347769 3.6497806e-05            0    1.3347769       42 
 6509000 0.00010330595            0    1.4790492 4.4294442e-05            0    1.4790492       46 
 6510000 9.6304892e-05            0    1.3494774 4.1292603e-05            0    1.3494774       47 
 6511000 9.8149339e-05            0    1.5032598 4.2083446e-05            0    1.5032598       43 
 6512000 9.5881354e-05            0    1.4032556 4.1111003e-05            0    1.4032556       45 
 6513000 0.00010083855            0    1.4437231 4.3236498e-05            0    1.4437231       46 
 6514000 0.00010085619 -0.0013166807     1.411936 4.3094433e-05 -0.0013166807    1.4132527       47 
 6515000 0.00010644111            0    1.4306336 4.5638704e-05            0    1.4306336       49 
 6516000 0.00011901131            0    1.5675932 5.1028424e-05            0    1.5675932       50 
 6517000 0.00013137414            0    1.6638788 5.632923e-05            0    1.6638788       52 
 6518000 0.00011283832            0    1.4862838 4.8381633e-05            0    1.4862838       50 
 6519000 0.00011036901            0    1.5143318 4.732287e-05            0    1.5143318       48 
 6520000 0.00011467632            0    1.3986051 4.9169711e-05            0    1.3986051       54 
 6521000 0.00014111611            0    1.7210677 6.0506288e-05            0    1.7210677       54 
 6522000 0.00011801667            0    1.4665018 5.0601951e-05            0    1.4665018       53 
 6523000 0.00012012907            0    1.5214578 5.1507686e-05            0    1.5214578       52 
 6524000 0.00015007942 -0.0070874368     1.757927 6.3649354e-05 -0.0070874368    1.7650144       56 
 6525000 0.00012919384            0    1.7364443 5.5394383e-05            0    1.7364443       49 
 6526000 0.00012578067            0    1.5930363 5.3930917e-05            0    1.5930363       52 
 6527000 0.00012901576            0    1.6660488 5.5318027e-05            0    1.6660488       51 
 6528000 0.00013112925            0    1.5992669 5.6224226e-05            0    1.5992669       54 
 6529000 0.00012685884            0    1.7405825 5.4393204e-05            0    1.7405825       48 
 6530000 0.00013397746            0    1.7301218 5.7445451e-05            0    1.7301218       51 
 6531000 0.0001300383            0    1.6469601 5.575646e-05            0    1.6469601       52 
 6532000 0.00012748205            0    1.7491334 5.466042e-05            0    1.7491334       48 
 6533000 0.00013175596            0    1.7708808 5.6492941e-05            0    1.7708808       49 
 6534000 0.00011745351            0    1.6115355 5.0360486e-05            0    1.6115355       48 
 6535000 0.00011030542            0    1.4244323 4.7295605e-05            0    1.4244323       51 
 6536000 0.00010516454            0     1.505659 4.5091349e-05            0     1.505659       46 
 6537000  0.000110233            0    1.4815991 4.7264553e-05            0    1.4815991       49 
 6538000 0.00012040643            0    1.4961975 5.1626607e-05            0    1.4961975       53 
 6539000 0.00010233732            0    1.4340071 4.3879124e-05            0    1.4340071       47 
 6540000 0.00013921071            0    1.6978292 5.9689309e-05            0    1.6978292       54 
 6541000 0.00012226018            0    1.4639878 5.242144e-05            0    1.4639878       55 
 6542000 0.00011441558            0    1.4490953 4.9057915e-05            0    1.4490953       52 
 6543000 0.00011097198            0    1.4330399 4.7581402e-05            0    1.4330399       51 
 6544000   0.00011069 -0.012141344    1.4458452 4.6534429e-05 -0.012141344    1.4579866       50 
 6545000 0.00013306886            0    1.7183886 5.7055871e-05            0    1.7183886       51 
 6546000 0.00012849255            0    1.5966776 5.5093692e-05            0    1.5966776       53 
 6547000 0.00012823351            0    1.5934586 5.4982621e-05            0    1.5934586       53 
 6548000 0.00014410469            0    1.6363088 6.1787701e-05            0    1.6363088       58 
 6549000 0.0001245594            0    1.5775688 5.3407278e-05            0    1.5775688       52 
 6550000 0.00013231212            0    1.6136934 5.6731407e-05            0    1.6136934       54 
 6551000 0.00011652011            0    1.4757496 4.9960272e-05            0    1.4757496       52 
 6552000 0.0001244964            0    1.5183719 5.3380263e-05            0    1.5183719       54 
 6553000 0.00012855942            0    1.6601559 5.5122364e-05            0    1.6601559       51 
 6554000 0.00013677176            0    1.8382962 5.8643563e-05            0    1.8382962       49 
 6555000 0.00013213264            0    1.6419101 5.665445e-05            0    1.6419101       53 
 6556000 0.0001225459            0    1.5825001 5.254395e-05            0    1.5825001       51 
 6557000 0.00012714547            0    1.6418968 5.4516104e-05            0    1.6418968       51 
 6558000 0.00012028148            0    1.5532585 5.1573035e-05            0    1.5532585       51 
 6559000 0.00012373855            0    1.6977702 5.305532e-05            0    1.6977702       48 
 6560000 0.00011720504            0    1.5753075 5.025395e-05            0    1.5753075       49 
 6561000 0.00012516071            0    1.5851844 5.3665098e-05            0    1.5851844       52 
 6562000 0.00010875148            0    1.5916142 4.6629322e-05            0    1.5916142       45 
 6563000 0.0001183801            0    1.4437769 5.0757781e-05            0    1.4437769       54 
 6564000 0.00012724589            0    1.7458931 5.455916e-05            0    1.7458931       48 
 6565000 0.00012359975            0     1.731948 5.2995806e-05            0     1.731948       47 
 6566000 0.00011595896            0    1.5585594 4.9719669e-05            0    1.5585594       49 
 6567000 0.00013090941            0    1.6579929 5.6129967e-05            0    1.6579929       52 
 6568000 0.00013659316 -0.003906499    1.9101124 5.8198263e-05 -0.003906499    1.9140189       47 
 6569000 0.00016106486            0    2.0399174 6.9059705e-05            0    2.0399174       52 
 6570000 0.00015460278            0    1.9211291 6.6288961e-05            0    1.9211291       53 
 6571000 0.00014483232            0    1.7997192 6.2099687e-05            0    1.7997192       53 
 6572000 0.00014103306 -0.010301518    1.8473578 5.9627158e-05 -0.010301518    1.8576593       50 
 6573000 0.00012666692            0    1.7379493 5.4310916e-05            0    1.7379493       48 
 6574000 0.00014194868 -0.0056719156    1.6940732 6.0285682e-05 -0.0056719156    1.6997451       55 
 6575000 0.0001377033            0    1.8508167 5.9042981e-05            0    1.8508167       49 
 6576000 0.0001332405            0    1.7206051 5.7129466e-05            0    1.7206051       51 
 6577000 0.00011945486            0    1.7482618 5.1218606e-05            0    1.7482618       45 
 6578000 0.00012478684            0    1.6436673 5.3504794e-05            0    1.6436673       50 
 6579000 0.00012575566            0    1.6564284 5.3920195e-05            0    1.6564284       50 
 6580000 0.00012628794            0    1.7327495 5.4148422e-05            0    1.7327495       48 
 6581000 0.00013191755            0    1.6707612 5.6562227e-05            0    1.6707612       52 
 6582000 0.00011230284            0    1.6809437 4.8152034e-05            0    1.6809437       44 
 6583000 0.00010459354            0    1.5307613 4.4846523e-05            0    1.5307613       45 
 6584000 0.00011489211            0    1.7596928 4.9262235e-05            0    1.7596928       43 
 6585000 0.00010248671            0    1.6070647 4.3943177e-05            0    1.6070647       42 
 6586000 0.00011091095            0    1.6232188 4.7555237e-05            0    1.6232188       45 
 6587000 0.00011455971            0     1.605274 4.9119712e-05            0     1.605274       47 
 6588000 0.00011053213            0    1.6176745 4.7392808e-05            0    1.6176745       45 
 6589000 0.0001106822            0    1.6952138 4.7457156e-05            0    1.6952138       43 
 6590000 0.00011367893            0     1.627561 4.874206e-05            0     1.627561       46 
 6591000 0.00011833201            0    1.7711881 5.0737159e-05            0    1.7711881       44 
 6592000 0.00012108353            0    1.8123728 5.191693e-05            0    1.8123728       44 
 6593000 0.0001364438            0    1.8720942 5.8502943e-05            0    1.8720942       48 
 6594000 0.00012087331            0    1.8092262 5.1826791e-05            0    1.8092262       44 
 6595000 0.00010730265            0    1.5704101 4.6008109e-05            0    1.5704101       45 
 6596000 0.00010351682            0    1.7480805 4.4384857e-05            0    1.7480805       39 
 6597000 0.00012377862            0    1.8957991 5.3072501e-05            0    1.8957991       43 
 6598000 0.00011763129            0    1.8445426 5.0436713e-05            0    1.8445426       42 
 6599000 0.00012006235            0    1.7970878 5.1479079e-05            0    1.7970878       44 
 6600000 0.00012244699            0    1.7920525 5.2501537e-05            0    1.7920525       45 
 6601000 0.00013057658            0     2.047534 5.5987258e-05            0     2.047534       42 
 6602000 0.00014680643            0    2.1485611 6.2946126e-05            0    2.1485611       45 
 6603000 0.00013470635            0    2.1122917 5.7757977e-05            0    2.1122917       42 
 6604000 0.00013408101            0    1.9623202 5.748985e-05            0    1.9623202       45 
 6605000 0.00014556559            0    1.9173608 6.2414089e-05            0    1.9173608       50 
 6606000 0.00013897794            0    1.9068643 5.9589508e-05            0    1.9068643       48 
 6607000 0.00012014243            0    1.7583245 5.1513414e-05            0    1.7583245       45 
 6608000 0.0001305495            0    1.6858548 5.5975648e-05            0    1.6858548       51 
 6609000 0.0001288705            0    1.7681839 5.5255746e-05            0    1.7681839       48 
 6610000 0.0001389536            0    1.8676215 5.957907e-05            0    1.8676215       49 
 6611000 0.00012778834            0    1.7175536 5.4791748e-05            0    1.7175536       49 
 6612000 0.00012109011            0    1.6614319 5.1919748e-05            0    1.6614319       48 
 6613000 0.00011539617            0    1.6888614 4.947836e-05            0    1.6888614       45 
 6614000 0.00011600306            0    1.6608359 4.9738576e-05            0    1.6608359       46 
 6615000 0.00011204332            0    1.5373044 4.8040761e-05            0    1.5373044       48 
 6616000 9.0659418e-05            0    1.4216044 3.8871996e-05            0    1.4216044       42 
 6617000 9.843452e-05            0    1.5076277 4.2205723e-05            0    1.5076277       43 
 6618000 0.00010870584            0    1.5232464 4.6609752e-05            0    1.5232464       47 
 6619000 0.00011328706            0    1.5226474 4.8574038e-05            0    1.5226474       49 
 6620000 9.8433822e-05            0    1.5811593 4.2205424e-05            0    1.5811593       41 
 6621000 0.00011040323            0    1.5470311 4.7337541e-05            0    1.5470311       47 
 6622000 0.00012438035            0    1.7807751 5.3330505e-05            0    1.7807751       46 
 6623000 0.00012271112            0    1.6836733 5.2614789e-05            0    1.6836733       48 
 6624000 0.00012735777            0    1.7474282 5.460713e-05            0    1.7474282       48 
 6625000 0.00012634044            0    1.6980929 5.4170933e-05            0    1.6980929       49 
 6626000 0.00014953005            0    1.8938269 6.4113931e-05            0    1.8938269       52 
 6627000 0.00011025303            0    1.6502624 4.7273141e-05            0    1.6502624       44 
 6628000 0.00013170167            0    1.8070292 5.6469663e-05            0    1.8070292       48 
 6629000 0.0001258107            0    1.7629291 5.3943794e-05            0    1.7629291       47 
 6630000 0.00012206066            0    1.7475637 5.2335891e-05            0    1.7475637       46 
 6631000 0.00010083448            0    1.5811567 4.3234753e-05            0    1.5811567       42 
 6632000 0.00010531352            0    1.6129868 4.5155228e-05            0    1.6129868       43 
 6633000 0.00010418955            0    1.5248488 4.4673305e-05            0    1.5248488       45 
 6634000 9.8706328e-05            0    1.5117907 4.2322266e-05            0    1.5117907       43 
 6635000 0.00010057935            0     1.540478 4.3125362e-05            0     1.540478       43 
 6636000 0.00010605427            0    1.5183974 4.5472839e-05            0    1.5183974       46 
 6637000 0.00010269527            0    1.6496116 4.4032603e-05            0    1.6496116       41 
 6638000 0.00011271749            0    1.7263863 4.8329824e-05            0    1.7263863       43 
 6639000 0.00012662177            0    1.8128659 5.4291557e-05            0    1.8128659       46 
 6640000 9.8684388e-05            0    1.5851842 4.2312859e-05            0    1.5851842       41 
 6641000 0.00011461453            0    1.6060422 4.914322e-05            0    1.6060422       47 
 6642000 0.00011209346            0    1.7168287 4.8062261e-05            0    1.7168287       43 
 6643000 0.00013664153            0    1.7645245 5.8587726e-05            0    1.7645245       51 
 6644000 0.00014306477            0    1.9228781 6.1341814e-05            0    1.9228781       49 
 6645000 0.00012748733            0    1.8252583 5.4662683e-05            0    1.8252583       46 
 6646000 0.0001220338            0    1.8690754 5.2324376e-05            0    1.8690754       43 
 6647000 0.00011640896            0    1.6666473 4.9912613e-05            0    1.6666473       46 
 6648000 0.00013124533            0    1.8390822 5.6274001e-05            0    1.8390822       47 
 6649000 0.00014562837            0     1.743807 6.2441006e-05            0     1.743807       55 
 6650000 0.00014383034            0    1.8945045 6.1670069e-05            0    1.8945045       50 
 6651000 0.00015835282            0    1.8961742 6.7896864e-05            0    1.8961742       55 
 6652000 0.00013908067 -0.010921942    1.9379533 5.8791871e-05 -0.010921942    1.9488752       47 
 6653000 0.00013487185 -0.0096359185    1.8031244 5.7033296e-05 -0.0096359185    1.8127603       49 
 6654000 0.00014663197 -0.0029936015    1.7853461 6.2540736e-05 -0.0029936015    1.7883397       54 
 6655000 0.00014192771 -0.0025647872     1.761061 6.0569183e-05 -0.0025647872    1.7636258       53 
 6656000 0.00015639027 -0.0039044219    1.9034487 6.6640261e-05 -0.0039044219    1.9073531       54 
 6657000 0.00014519139 -0.019399585    1.9320615 6.3093669e-05 -0.019399585    1.9514611       49 
 6658000 0.00013721579 -0.0050719644    1.7000025 5.8323677e-05 -0.0050719644    1.7050745       53 
 6659000 0.00012921709 -0.002954501    1.7699847 5.5108779e-05 -0.002954501    1.7729392       48 
 6660000 0.0001355488 -0.0029967249    1.8188621 5.781471e-05 -0.0029967249    1.8218588       49 
 6661000 0.00011780095 -0.0063052709    1.5453453 4.9926842e-05 -0.0063052709    1.5516506       50 
 6662000 0.00012500873 -0.017034111    1.5662255 5.2760108e-05 -0.017034111    1.5832596       52 
 6663000 0.00010835977 -0.0041588546    1.5472468 4.6079416e-05 -0.0041588546    1.5514056       46 
 6664000 0.00010879711 -0.0027483978    1.4595514 4.6366048e-05 -0.0027483978    1.4622998       49 
 6665000 0.00010477741 -0.0035960645    1.4340155 4.457566e-05 -0.0035960645    1.4376115       48 
 6666000 0.00010770352  -0.01282236    1.4649372 4.5247982e-05  -0.01282236    1.4777596       48 
 6667000 0.00010404616 -0.0096343874    1.6218836 4.3901246e-05 -0.0096343874     1.631518       42 
 6668000 0.00010300792 -0.0032441759    1.4100888 4.3846493e-05 -0.0032441759     1.413333       48 
 6669000 0.00011368416 -0.002804425    1.5251803 4.8456567e-05 -0.002804425    1.5279848       49 
 6670000 0.00010672728 -0.0047322427    1.4596327 4.5319003e-05 -0.0047322427     1.464365       48 
 6671000 0.00010480073 -0.013880789    1.4240508 4.8375957e-05 -0.013880789    1.4379316       48 
 6672000 0.00010642922 -0.021564671    1.4089092 4.7454675e-05 -0.021564671    1.4304739       49 
 6673000 0.00011669075 -0.021275619    1.4287501 4.9943308e-05 -0.021275619    1.4500257       53 
 6674000 0.00014921449 -0.0026980453    1.7521443 6.3666626e-05 -0.0026980453    1.7548424       56 
 6675000 0.00012667427 -0.0069906656    1.6288213 5.3670418e-05 -0.0069906656     1.635812       51 
 6676000 0.00012927641 -0.015011791    1.7225423 5.4453235e-05 -0.015011791     1.737554       49 
 6677000 0.00011775486 -0.003545395    1.5170855 5.0125787e-05 -0.003545395    1.5206309       51 
 6678000 0.00011690632 -0.0028009745    1.6012268 4.984343e-05 -0.0028009745    1.6040277       48 
 6679000 0.00011761949 -0.0037061364    1.5771718 5.0066388e-05 -0.0037061364     1.580878       49 
 6680000 0.00010583868 -0.014946451    1.3791395 4.4404586e-05 -0.014946451    1.3940859       50 
 6681000 0.00010297747 -0.0076694648    1.4666769 4.3515333e-05 -0.0076694648    1.4743463       46 
 6682000 0.00010765286 -0.0030143376    1.4149676 4.5846924e-05 -0.0030143376    1.4179819       50 
 6683000 0.00010490865 -0.0029668697    1.4670711 4.4690283e-05 -0.0029668697     1.470038       47 
 6684000 0.00010749704 -0.004937336    1.4109922 4.5616598e-05 -0.004937336    1.4159295       50 
 6685000 9.6201791e-05 -0.014692742      1.33334 4.4508294e-05 -0.014692742    1.3480327       47 
 6686000 8.4748901e-05 -0.0048023463    1.1827461 3.5897733e-05 -0.0048023463    1.1875485       47 
 6687000 0.00010372291 -0.0028015692    1.3912979 4.4185736e-05 -0.0028015692    1.3940994       49 
 6688000 9.3804836e-05 -0.0033948872    1.3396253 3.989971e-05 -0.0033948872    1.3430201       46 
 6689000 0.0001157743 -0.008028686    1.4870262 4.892349e-05 -0.008028686    1.4950549       51 
 6690000 0.00011300492 -0.012627551    1.5378706 4.752768e-05 -0.012627551    1.5504981       48 
 6691000 0.00010065641 -0.0035822129    1.3774867 4.2809858e-05 -0.0035822129    1.3810689       48 
 6692000 0.00011378007 -0.0027492077    1.5265246 4.8502517e-05 -0.0027492077    1.5292738       49 
 6693000 0.00011774928 -0.0040049643    1.6115887 5.0103759e-05 -0.0040049643    1.6155937       48 
 6694000 8.0605542e-05 -0.021889879    1.2728907 3.3751056e-05 -0.021889879    1.2947806       41 
 6695000 7.8770567e-05 -0.007436442    1.2277423 3.3196261e-05 -0.007436442    1.2351788       42 
 6696000 8.1924958e-05 -0.0033509808    1.2228981 3.4789483e-05 -0.0033509808     1.226249       44 
 6697000 9.1445583e-05            0    1.2813861 3.920908e-05            0    1.2813861       47 
 6698000 9.3348818e-05            0    1.3364913 4.0025129e-05            0    1.3364913       46 
 6699000 9.078337e-05            0    1.4582688 3.8925143e-05            0    1.4582688       41 
 6700000 0.00010294116            0    1.4738264 4.4138031e-05            0    1.4738264       46 
 6701000 0.00012194045            0    1.5746816 5.2284351e-05            0    1.5746816       51 
 6702000 0.00011424799            0    1.6720574 4.8986056e-05            0    1.6720574       45 
 6703000 0.00011880754            0    1.9084257 5.0941052e-05            0    1.9084257       41 
 6704000 0.00010139579 -0.0027119085    1.5502708 4.3225053e-05 -0.0027119085    1.5529827       43 
 6705000 0.00010974289            0    1.5712081 4.7054409e-05            0    1.5712081       46 
 6706000 0.00010792158            0     1.545132 4.6273485e-05            0     1.545132       46 
 6707000 0.00012012425 -0.020927679    1.6623198 5.1470527e-05 -0.020927679    1.6832475       47 
 6708000 0.00011662544            0     1.536167 5.0005435e-05            0     1.536167       50 
 6709000 9.4403246e-05            0    1.5543258 4.0477235e-05            0    1.5543258       40 
 6710000 9.0446277e-05            0     1.452854 3.8780608e-05            0     1.452854       41 
 6711000 9.7993192e-05            0    1.5008683 4.2016495e-05            0    1.5008683       43 
 6712000 9.9847417e-05            0    1.5292677 4.281153e-05            0    1.5292677       43 
 6713000 0.00010195216            0    1.5986828 4.3713982e-05            0    1.5986828       42 
 6714000 9.9076012e-05 -0.0029414088    1.5145114 4.2212612e-05 -0.0029414088    1.5174528       43 
 6715000 0.0001015302            0    1.4536255 4.3533056e-05            0    1.4536255       46 
 6716000 8.2561258e-05            0    1.3261956 3.5399752e-05            0    1.3261956       41 
 6717000 9.4007713e-05            0    1.4398265 4.0307643e-05            0    1.4398265       43 
 6718000 8.9947517e-05            0    1.4448423 3.8566755e-05            0    1.4448423       41 
 6719000 8.8179884e-05            0    1.3827236 3.7808848e-05            0    1.3827236       42 
 6720000 8.6093893e-05            0    1.4921204 3.6914438e-05            0    1.4921204       38 
 6721000 0.0001024108            0    1.6450421 4.391063e-05            0    1.6450421       41 
 6722000 9.9334325e-05            0    1.5576332 4.2591532e-05            0    1.5576332       42 
 6723000 0.00010001077            0    1.5682403 4.288157e-05            0    1.5682403       42 
 6724000 8.8856869e-05            0    1.4273231 3.8099118e-05            0    1.4273231       41 
 6725000 9.7291349e-05            0    1.6018777 4.1715566e-05            0    1.6018777       40 
 6726000 8.9871552e-05 -0.00033952897    1.5572527 3.8477538e-05 -0.00033952897    1.5575923       38 
 6727000 8.4056371e-05            0    1.5377413 3.6040811e-05            0    1.5377413       36 
 6728000 9.2818774e-05            0    1.6521491 3.9797862e-05            0    1.6521491       37 
 6729000 8.8360958e-05            0    1.5728012 3.7886486e-05            0    1.5728012       37 
 6730000 0.00010565946            0    1.6568158 4.5303557e-05            0    1.6568158       42 
 6731000 8.3601933e-05            0    1.3429121 3.5845962e-05            0    1.3429121       41 
 6732000 9.0729727e-05            0    1.5321459 3.8902143e-05            0    1.5321459       39 
 6733000 8.6940759e-05            0     1.547522 3.7277549e-05            0     1.547522       37 
 6734000 9.145724e-05            0    1.5850743 3.9214078e-05            0    1.5850743       38 
 6735000 8.9134562e-05            0    1.5052085 3.8218184e-05            0    1.5052085       39 
 6736000 9.6366409e-05            0    1.6273321 4.131898e-05            0    1.6273321       39 
 6737000 0.00010445232            0    1.7638782 4.478597e-05            0    1.7638782       39 
 6738000 0.00010189035            0    1.8136206 4.3687476e-05            0    1.8136206       37 
 6739000 0.0001109133            0    1.6987532 4.7556242e-05            0    1.6987532       43 
 6740000 0.00010283713            0    1.7823028 4.4093429e-05            0    1.7823028       38 
 6741000 9.9160782e-05            0    1.5928366 4.2517122e-05            0    1.5928366       41 
 6742000 0.00010779702            0    1.9187579 4.6220079e-05            0    1.9187579       37 
 6743000 0.00012713887            0    2.0422534 5.4513275e-05            0    2.0422534       41 
 6744000 0.0001292941            0    1.9352683 5.5437372e-05            0    1.9352683       44 
 6745000 0.0001349646            0    1.9323117 5.7868709e-05            0    1.9323117       46 
 6746000 0.00012768572            0    2.0022034 5.4747748e-05            0    2.0022034       42 
 6747000 0.00014133948            0     1.980527 6.0602064e-05            0     1.980527       47 
 6748000 0.0001345462            0    2.0138815 5.7689313e-05            0    2.0138815       44 
 6749000 0.00012480401            0    1.9115041 5.3512159e-05            0    1.9115041       43 
 6750000 0.00012520744            0    1.8324527 5.3685136e-05            0    1.8324527       45 
 6751000 0.0001083168            0    1.6589851 4.6442942e-05            0    1.6589851       43 
 6752000 0.00010720827            0    1.6046885 4.596764e-05            0    1.6046885       44 
 6753000 0.00011627717            0    1.7809065 4.9856106e-05            0    1.7809065       43 
 6754000 0.00011591584            0     1.696467 4.9701181e-05            0     1.696467       45 
 6755000 0.00011773027            0    1.7230217 5.0479152e-05            0    1.7230217       45 
 6756000 0.00013041124            0    1.6516835 5.5916368e-05            0    1.6516835       52 
 6757000 0.00010112054            0     1.416957 4.3357407e-05            0     1.416957       47 
 6758000 0.00011397795            0    1.6681053 4.8870271e-05            0    1.6681053       45 
 6759000 9.7624881e-05            0    1.4612448 4.1858575e-05            0    1.4612448       44 
 6760000 0.00011515455            0    1.6136092 4.9374762e-05            0    1.6136092       47 
 6761000 0.00011182045            0    1.6009529 4.7945204e-05            0    1.6009529       46 
 6762000 0.00012029542            0    1.7222904 5.157901e-05            0    1.7222904       46 
 6763000 0.00010419467            0    1.5958504 4.4675499e-05            0    1.5958504       43 
 6764000 0.00012375585            0    1.6980076 5.3062737e-05            0    1.6980076       48 
 6765000 0.00011237502            0     1.574661 4.8182986e-05            0     1.574661       47 
 6766000 0.00011335188            0    1.5235186 4.8601832e-05            0    1.5235186       49 
 6767000 0.00012244304            0    1.6127953 5.2499846e-05            0    1.6127953       50 
 6768000 0.00012888411            0    1.7322814 5.5261581e-05            0    1.7322814       49 
 6769000 0.00011557091            0    1.4637278 4.9553286e-05            0    1.4637278       52 
 6770000 0.00010297223            0    1.4742714 4.4151357e-05            0    1.4742714       46 
 6771000 0.00011409925            0     1.565513 4.8922282e-05            0     1.565513       48 
 6772000 0.0001066404            0    1.4943043 4.5724156e-05            0    1.4943043       47 
 6773000 0.00010355398            0    1.3372473 4.4400791e-05            0    1.3372473       51 
 6774000 0.00012104725            0    1.5944102 5.1901374e-05            0    1.5944102       50 
 6775000 0.00012229904            0    1.5793123 5.2438104e-05            0    1.5793123       51 
 6776000 0.00014036472            0    1.8488561 6.0184117e-05            0    1.8488561       50 
 6777000 0.0001475615            0    1.8688948 6.3269876e-05            0    1.8688948       52 
 6778000 0.00012614249            0    1.8461374 5.4086057e-05            0    1.8461374       45 
 6779000 0.00014231635            0    1.7357061 6.1020916e-05            0    1.7357061       54 
 6780000 0.00013537753 -0.00084354362    1.7473581 5.7931636e-05 -0.00084354362    1.7482017       51 
 6781000 0.0001300872            0    1.7134826 5.5777429e-05            0    1.7134826       50 
 6782000 0.0001192735            0    1.5402419 5.1140844e-05            0    1.5402419       51 
 6783000 0.00013853931            0    1.7215208 5.9401434e-05            0    1.7215208       53 
 6784000 0.00012596335            0    1.8034392 5.4009247e-05            0    1.8034392       46 
 6785000 0.00015148236            0    1.9561719 6.495102e-05            0    1.9561719       51 
 6786000 0.00012634282            0    1.7335024 5.4171951e-05            0    1.7335024       48 
 6787000 0.00012034206 -0.00011751386    1.6173534 5.1556134e-05 -0.00011751386     1.617471       49 
 6788000 0.00010444851            0    1.4954075 4.4784338e-05            0    1.4954075       46 
 6789000 0.00010291411            0    1.4420895 4.4126436e-05            0    1.4420895       47 
 6790000 0.00010677713            0     1.406447 4.578278e-05            0     1.406447       50 
 6791000 0.00010873284            0    1.4918825 4.6621329e-05            0    1.4918825       48 
 6792000 0.00011837947            0    1.7718985 5.0757508e-05            0    1.7718985       44 
 6793000 0.00012546643            0    1.7214778 5.3796183e-05            0    1.7214778       48 
 6794000 0.00011607995            0    1.6988687 4.9771545e-05            0    1.6988687       45 
 6795000 0.00011477209            0    1.5747448 4.9210774e-05            0    1.5747448       48 
 6796000 0.00011404816            0    1.7070677 4.8900376e-05            0    1.7070677       44 
 6797000 0.00012065364            0    1.6554434 5.1732605e-05            0    1.6554434       48 
 6798000 0.00011993786            0    1.5797976 5.1425702e-05            0    1.5797976       50 
 6799000 0.00012224642            0    1.6430667 5.2415538e-05            0    1.6430667       49 
 6800000 0.00011079651            0     1.403259 4.7506166e-05            0     1.403259       52 
 6801000 0.00010498631            0    1.5031073 4.5014932e-05            0    1.5031073       46 
 6802000 0.00014173747 -0.018012573    1.7771197 6.1803536e-05 -0.018012573    1.7951323       52 
 6803000 0.0001249289            0     1.613273 5.3565704e-05            0     1.613273       51 
 6804000 0.00011944519 -0.0012215723    1.7088959 5.1075501e-05 -0.0012215723    1.7101175       46 
 6805000  0.000110923            0    1.5881038 4.7560401e-05            0    1.5881038       46 
 6806000 0.00013939744            0    1.8001129 5.9769375e-05            0    1.8001129       51 
 6807000 0.00012624007            0    1.7320927 5.4127897e-05            0    1.7320927       48 
 6808000 0.00013661017            0    1.6975489 5.8574278e-05            0    1.6975489       53 
 6809000 0.00012630187 -0.0053655166    1.7275751 6.0319535e-05 -0.0053655166    1.7329406       48 
 6810000 0.0001521195            0    1.7576207 6.5224205e-05            0    1.7576207       57 
 6811000 0.00013033145            0    1.6506729 5.5882154e-05            0    1.6506729       52 
 6812000 0.00014211871 -0.00089548764    1.8710637 6.0818732e-05 -0.00089548764    1.8719592       50 
 6813000 0.0001440518            0    1.8602171 6.1765021e-05            0    1.8602171       51 
 6814000 0.00014361172            0    1.8545341 6.1576329e-05            0    1.8545341       51 
 6815000 0.00016323909            0    1.9197792 6.999195e-05            0    1.9197792       56 
 6816000 0.00015784302            0    1.8900697 6.7678277e-05            0    1.8900697       55 
 6817000 0.00014507533            0    1.8374069 6.220388e-05            0    1.8374069       52 
 6818000 0.00014845241            0    1.9553855 6.3651871e-05            0    1.9553855       50 
 6819000 0.00014242763            0    1.8760282 6.1068627e-05            0    1.8760282       50 
 6820000 0.00017292764            0    2.1090447 7.4146101e-05            0    2.1090447       54 
 6821000 0.00015133787            0    1.9167232 6.4889068e-05            0    1.9167232       52 
 6822000 0.00015799296            0    2.0402468 6.7742569e-05            0    2.0402468       51 
 6823000 0.00014284606            0    1.8815397 6.1248037e-05            0    1.8815397       50 
 6824000 0.00014291411            0    1.7429964 6.1277217e-05            0    1.7429964       54 
 6825000 0.0001300556            0    1.6471792 5.576388e-05            0    1.6471792       52 
 6826000 0.00013392176            0    1.6036278 5.7421568e-05            0    1.6036278       55 
 6827000 0.00013336514            0    1.7925091 5.7182909e-05            0    1.7925091       49 
 6828000 0.00014911226            0    1.8529027 6.3934794e-05            0    1.8529027       53 
 6829000 0.00012484492            0    1.6121886  5.35297e-05            0    1.6121886       51 
 6830000 0.00013056067            0    1.7548153 5.5980436e-05            0    1.7548153       49 
 6831000 0.00013103525            0      1.72597 5.6183921e-05            0      1.72597       50 
 6832000 0.00012604453            0    1.6276797 5.4044052e-05            0    1.6276797       51 
 6833000 0.00013885005            0    1.7585626 5.9534673e-05            0    1.7585626       52 
 6834000 0.00015047403            0    1.8698243 6.4518679e-05            0    1.8698243       53 
 6835000 0.00015651562            0    1.8084144 6.7109127e-05            0    1.8084144       57 
 6836000 0.00013491855            0    1.6765285 5.7848965e-05            0    1.6765285       53 
 6837000 0.00013345843 -0.019287893    1.7041315 5.7225821e-05 -0.019287893    1.7234194       51 
 6838000 0.00012827567            0    1.5085906 5.5000698e-05            0    1.5085906       56 
 6839000 0.00012219963            0    1.6424379 5.2395479e-05            0    1.6424379       49 
 6840000 0.00011630202            0     1.531907 4.9866764e-05            0     1.531907       50 
 6841000 0.00011846761            0    1.5922772 5.0795302e-05            0    1.5922772       49 
 6842000 0.00011851846            0    1.5304917 5.0817107e-05            0    1.5304917       51 
 6843000 0.00011690462            0    1.5398443 5.0125141e-05            0    1.5398443       50 
 6844000 0.00011164237 -0.00046263642    1.4135094 4.7790803e-05 -0.00046263642    1.4139721       52 
 6845000 9.8456476e-05            0    1.3796266 4.2215137e-05            0    1.3796266       47 
 6846000 0.00010999809            0    1.5092425 4.7163829e-05            0    1.5092425       48 
 6847000 0.00011601653            0    1.5918193 4.9744352e-05            0    1.5918193       48 
 6848000 0.00010597839            0    1.4540897 4.5440303e-05            0    1.4540897       48 
 6849000 8.6363106e-05            0     1.421947 3.7029869e-05            0     1.421947       40 
 6850000 9.2573527e-05            0    1.3856363 3.9692708e-05            0    1.3856363       44 
 6851000 9.3698622e-05            0    1.3414995 4.0175114e-05            0    1.3414995       46 
 6852000 9.8610303e-05            0    1.4118209 4.2281093e-05            0    1.4118209       46 
 6853000 9.374642e-05            0    1.4358245 4.0195609e-05            0    1.4358245       43 
 6854000 0.00010163298            0    1.4874326 4.3577126e-05            0    1.4874326       45 
 6855000 9.5109195e-05            0    1.4235901 4.0779925e-05            0    1.4235901       44 
 6856000 0.00011562896 -0.0052195386    1.5812821 4.9097342e-05 -0.0052195386    1.5865017       48 
 6857000 0.00012269231            0    1.8791611 5.2606722e-05            0    1.8791611       43 
 6858000 0.0001166159            0    1.6340865 5.0001345e-05            0    1.6340865       47 
 6859000 0.00011387072            0    1.5956196 4.8824297e-05            0    1.5956196       47 
 6860000 0.00010319877            0    1.6182304 4.4248488e-05            0    1.6182304       42 
 6861000 0.00011609131            0     1.699035 4.9776416e-05            0     1.699035       45 
 6862000 0.00012423681            0    1.7408749 5.3268959e-05            0    1.7408749       47 
 6863000 0.00012216428            0    1.6761702 5.238032e-05            0    1.6761702       48 
 6864000 9.8707553e-05            0    1.5478049 4.2322791e-05            0    1.5478049       42 
 6865000 0.00010369711            0    1.4846496 4.4462163e-05            0    1.4846496       46 
 6866000 0.00010796836            0    1.5129124 4.6293545e-05            0    1.5129124       47 
 6867000 9.0370762e-05            0    1.4170781 3.8748229e-05            0    1.4170781       42 
 6868000 9.4480682e-05            0    1.4815246 4.0510438e-05            0    1.4815246       42 
 6869000 0.00011155094            0    1.4993129 4.7829643e-05            0    1.4993129       49 
 6870000 9.8055802e-05            0    1.5018272 4.204334e-05            0    1.5018272       43 
 6871000 0.00011197572            0    1.5690657 4.8011776e-05            0    1.5690657       47 
 6872000 0.00011576838 -0.0017255944    1.5866889 4.9449362e-05 -0.0017255944    1.5884145       48 
 6873000 0.00012378173            0     1.598459 5.3073834e-05            0     1.598459       51 
 6874000 0.00010299222            0    1.4745575 4.4159926e-05            0    1.4745575       46 
 6875000 0.0001016233            0    1.5210929 4.3572973e-05            0    1.5210929       44 
 6876000 9.8211179e-05            0     1.504207 4.2109961e-05            0     1.504207       43 
 6877000 0.0001132029            0    1.4910859 4.8537952e-05            0    1.4910859       50 
 6878000 9.747225e-05            0    1.3955272 4.1793131e-05            0    1.3955272       46 
 6879000 8.8922608e-05            0     1.301412 3.8127305e-05            0     1.301412       45 
 6880000 9.0662992e-05            0    1.3885986 3.8873529e-05            0    1.3885986       43 
 6881000 9.3972917e-05            0    1.4735625 4.0292724e-05            0    1.4735625       42 
 6882000 9.8766746e-05            0    1.4454843 4.2348172e-05            0    1.4454843       45 
 6883000 0.00010900254            0    1.5952885 4.6736968e-05            0    1.5952885       45 
 6884000 8.9455887e-05            0    1.4027322 3.8355959e-05            0    1.4027322       42 
 6885000 9.7443934e-05            0    1.4261245 4.178099e-05            0    1.4261245       45 
 6886000 9.9791573e-05            0    1.5648031 4.2787586e-05            0    1.5648031       42 
 6887000 8.3832107e-05            0    1.3466095 3.5944653e-05            0    1.3466095       41 
 6888000 9.4667541e-05            0    1.4169794 4.0590557e-05            0    1.4169794       44 
 6889000 0.00010186867            0    1.4584715 4.3678182e-05            0    1.4584715       46 
 6890000 9.1324179e-05            0    1.3987254 3.9157026e-05            0    1.3987254       43 
 6891000 8.0429781e-05 -0.0048099219    1.2563865 3.4053544e-05 -0.0048099219    1.2611964       42 
 6892000 8.6088265e-05            0    1.3499255 3.6912025e-05            0    1.3499255       42 
 6893000 7.7422658e-05            0    1.2140426 3.3196477e-05            0    1.2140426       42 
 6894000 8.9829211e-05            0    1.3146805 3.8516029e-05            0    1.3146805       45 
 6895000 8.455397e-05            0    1.3258666 3.6254166e-05            0    1.3258666       42 
 6896000 8.1534156e-05            0    1.3424395 3.4959362e-05            0    1.3424395       40 
 6897000 9.4021497e-05            0    1.3760359 4.0313553e-05            0    1.3760359       45 
 6898000 0.00010170072            0      1.36692 4.3606171e-05            0      1.36692       49 
 6899000 8.2788764e-05            0    1.3298501  3.54973e-05            0    1.3298501       41 
 6900000 8.7239354e-05            0    1.4013406 3.7405577e-05            0    1.4013406       41 
 6901000 9.6569223e-05            0    1.4790587 4.1405941e-05            0    1.4790587       43 
 6902000 9.3416307e-05            0    1.5380761 4.0054066e-05            0    1.5380761       40 
 6903000 0.00010142282            0    1.4843567 4.3487013e-05            0    1.4843567       45 
 6904000 7.9577764e-05            0    1.2478362 3.4120521e-05            0    1.2478362       42 
 6905000 8.7201693e-05            0     1.305231 3.7389429e-05            0     1.305231       44 
 6906000 0.00010353711            0    1.4823588 4.4393558e-05            0    1.4823588       46 
 6907000 9.0116977e-05            0    1.3802358 3.8639414e-05            0    1.3802358       43 
 6908000 8.4888481e-05            0    1.3976676 3.6397594e-05            0    1.3976676       40 
 6909000 9.5872026e-05            0    1.3154241 4.1107004e-05            0    1.3154241       48 
 6910000 8.6887557e-05            0    1.2439843 3.7254737e-05            0    1.2439843       46 
 6911000 8.1478706e-05 -0.00023016451    1.1414945 3.4882954e-05 -0.00023016451    1.1417247       47 
 6912000 7.4527638e-05            0    1.0907368 3.1955181e-05            0    1.0907368       45 
 6913000 8.2887662e-05            0    1.1372705 3.5539704e-05            0    1.1372705       48 
 6914000 7.5026139e-05            0    1.0980325 3.2168922e-05            0    1.0980325       45 
 6915000 8.9666103e-05            0     1.181064 3.8446093e-05            0     1.181064       50 
 6916000 7.7704506e-05            0    1.1630775 3.3317325e-05            0    1.1630775       44 
 6917000 8.4647481e-05            0    1.1861273 3.6294261e-05            0    1.1861273       47 
 6918000 8.3529061e-05 -0.00015205938    1.2223236 3.5769748e-05 -0.00015205938    1.2224757       45 
 6919000 8.0057461e-05            0    1.1218094  3.43262e-05            0    1.1218094       47 
 6920000 7.4743608e-05            0    1.0938976 3.2047782e-05            0    1.0938976       45 
 6921000 7.2014184e-05            0    1.1029726 3.0877488e-05            0    1.1029726       43 
 6922000 7.1497745e-05            0    1.0236457 3.0656055e-05            0    1.0236457       46 
 6923000 0.00010292723            0    1.3035931 4.4132059e-05            0    1.3035931       52 
 6924000 8.4365927e-05            0    1.2078816 3.6173539e-05            0    1.2078816       46 
 6925000 9.9405008e-05            0    1.2589835 4.2621839e-05            0    1.2589835       52 
 6926000 9.6714921e-05            0    1.2739096 4.1468412e-05            0    1.2739096       50 
 6927000 9.2977569e-05            0    1.2757104 3.9865949e-05            0    1.2757104       48 
 6928000 9.7095903e-05            0    1.3050284 4.1631765e-05            0    1.3050284       49 
 6929000 8.6032541e-05            0    1.2055356 3.6888132e-05            0    1.2055356       47 
 6930000 8.6337584e-05            0    1.1846056 3.7018926e-05            0    1.1846056       48 
 6931000 9.4303377e-05            0    1.2421452 4.0434415e-05            0    1.2421452       50 
 6932000 9.9519855e-05            0    1.3108556 4.2671082e-05            0    1.3108556       50 
 6933000 8.5605672e-05            0    1.1275808 3.6705104e-05            0    1.1275808       50 
 6934000 9.7567597e-05            0    1.1899453 4.1834013e-05            0    1.1899453       54 
 6935000 9.1617317e-05            0    1.2313928 3.9282714e-05            0    1.2313928       49 
 6936000 7.8629969e-05            0    1.1257589 3.3714135e-05            0    1.1257589       46 
 6937000 8.4193247e-05            0    1.1797624 3.6099499e-05            0    1.1797624       47 
 6938000 8.2462199e-05  -0.01642817    1.1390778 3.438698e-05  -0.01642817    1.1555059       47 
 6939000 8.3841919e-05            0    1.1268867 3.594886e-05            0    1.1268867       49 
 6940000 8.4018817e-05            0    1.2575898 3.6024709e-05            0    1.2575898       44 
 6941000 8.9737425e-05            0    1.2847863 3.8476674e-05            0    1.2847863       46 
 6942000 9.5011252e-05            0    1.3602926 4.073793e-05            0    1.3602926       46 
 6943000 7.1405633e-05            0    1.1196913 3.061656e-05            0    1.1196913       42 
 6944000 0.0001012403            0     1.449475 4.3408756e-05            0     1.449475       46 
 6945000 0.00010273138            0    1.4395289 4.4048085e-05            0    1.4395289       47 
 6946000 0.0001004849            0      1.40805 4.3084862e-05            0      1.40805       47 
 6947000 0.00010758587 -0.00076152605    1.4753839 4.6027684e-05 -0.00076152605    1.4761454       48 
 6948000 0.00010176305            0    1.3677578 4.3632897e-05            0    1.3677578       49 
 6949000 0.00010962333 -0.0028030505    1.3594013 4.6695613e-05 -0.0028030505    1.3622044       53 
 6950000 0.00010900098            0      1.46504 4.6736301e-05            0      1.46504       49 
 6951000 0.00011283802            0    1.4291152 4.8381504e-05            0    1.4291152       52 
 6952000 9.2592097e-05            0    1.2444945 3.970067e-05            0    1.2444945       49 
 6953000 0.00011107843            0    1.3547248 4.7627044e-05            0    1.3547248       54 
 6954000 0.00010627771            0    1.2498828 4.5568645e-05            0    1.2498828       56 
 6955000 8.4044243e-05            0    1.1776744 3.6035611e-05            0    1.1776744       47 
 6956000 9.6805675e-05            0     1.275105 4.1507324e-05            0     1.275105       50 
 6957000 8.7457258e-05            0    1.2521408 3.7499008e-05            0    1.2521408       46 
 6958000 0.00010836303            0    1.3993492 4.6462765e-05            0    1.3993492       51 
 6959000 0.00010709291            0    1.3563523 4.5918175e-05            0    1.3563523       52 
 6960000 0.00010446208            0    1.3759536 4.4790158e-05            0    1.3759536       50 
 6961000 0.00011199517            0    1.3916774 4.8020118e-05            0    1.3916774       53 
 6962000 0.00011338445            0    1.3828493 4.8615797e-05            0    1.3828493       54 
 6963000 0.0001069752            0    1.4378122 4.5867706e-05            0    1.4378122       49 
 6964000 0.00010608485            0    1.3973285 4.5485953e-05            0    1.3973285       50 
 6965000 0.00010703785            0    1.4998736 4.5894569e-05            0    1.4998736       47 
 6966000 0.00010066087            0    1.4411791 4.3160313e-05            0    1.4411791       46 
 6967000 0.00010919989            0    1.4982907 4.6821584e-05            0    1.4982907       48 
 6968000 9.6960807e-05            0    1.3586685 4.157384e-05            0    1.3586685       47 
 6969000 0.00010768141            0     1.390547 4.6170506e-05            0     1.390547       51 
 6970000 0.00010350367            0    1.4201351 4.4379221e-05            0    1.4201351       48 
 6971000 9.8381658e-05            0    1.3223097 4.2183057e-05            0    1.3223097       49 
 6972000 9.6581073e-05            0    1.3533474 4.1411021e-05            0    1.3533474       47 
 6973000 9.6091982e-05            0    1.3757656 4.1201314e-05            0    1.3757656       46 
 6974000 0.00010362196            0    1.4217581 4.442994e-05            0    1.4217581       48 
 6975000 9.9956896e-05            0    1.4629025 4.2858472e-05            0    1.4629025       45 
 6976000 0.00011433365            0    1.5687291 4.9022784e-05            0    1.5687291       48 
 6977000 0.00010523775            0    1.5751938 4.5122739e-05            0    1.5751938       44 
 6978000 0.00010519432            0    1.5060854 4.5104121e-05            0    1.5060854       46 
 6979000 0.00013682759            0    1.9173039 5.8667501e-05            0    1.9173039       47 
 6980000 0.00010907441            0    1.5616373 4.6767784e-05            0    1.5616373       46 
 6981000 9.5471967e-05            0    1.5719221 4.0935471e-05            0    1.5719221       40 
 6982000 0.00011149925            0    1.5623892 4.7807481e-05            0    1.5623892       47 
 6983000 0.0001115748            0     1.530876 4.7839874e-05            0     1.530876       48 
 6984000 0.00010924764            0     1.673242 4.6842061e-05            0     1.673242       43 
 6985000 0.0001046005            0      1.46572 4.4849506e-05            0      1.46572       47 
 6986000 0.00011440606            0    1.5697227 4.9053833e-05            0    1.5697227       48 
 6987000 0.00010791416            0    1.4504324 4.6270305e-05            0    1.4504324       49 
 6988000 9.6297828e-05            0    1.3787127 4.1289574e-05            0    1.3787127       46 
 6989000 8.9347969e-05            0    1.4352117 3.8309687e-05            0    1.4352117       41 
 6990000 0.00010054079            0      1.43946 4.3108829e-05            0      1.43946       46 
 6991000 9.7907459e-05            0    1.3719335 4.1979735e-05            0    1.3719335       47 
 6992000 9.7260168e-05            0    1.3628633 4.1702197e-05            0    1.3628633       47 
 6993000 9.6372666e-05            0    1.3222932 4.1321663e-05            0    1.3222932       48 
 6994000 9.3692875e-05            0    1.5050046 4.017265e-05            0    1.5050046       41 
 6995000 9.9329042e-05            0    1.4867526 4.2589267e-05            0    1.4867526       44 
 6996000 0.00011106146            0     1.492734 4.7619769e-05            0     1.492734       49 
 6997000 9.821183e-05 -0.00069035594    1.3755081 4.2016189e-05 -0.00069035594    1.3761985       47 
 6998000 0.00010476904            0    1.3799968 4.4921771e-05            0    1.3799968       50 
 6999000 0.00010213162            0    1.4013096 4.3790926e-05            0    1.4013096       48 
 7000000 0.0001022993            0    1.2956404 4.3862825e-05            0    1.2956404       52 
 7001000 0.00010973233            0    1.5055962 4.704988e-05            0    1.5055962       48 
 7002000 0.00010382501            0     1.424544   4.4517e-05            0     1.424544       48 
 7003000 0.00010218911            0    1.4319304 4.3815577e-05            0    1.4319304       47 
 7004000 0.00010508591            0      1.35703 4.5057636e-05            0      1.35703       51 
 7005000 0.00010251197            0    1.4065284 4.3954011e-05            0    1.4065284       48 
 7006000 0.00010103279            0    1.3046899 4.3319782e-05            0    1.3046899       51 
 7007000 0.00010693123            0    1.3808596 4.5848855e-05            0    1.3808596       51 
 7008000 0.00010103717            0    1.3862931 4.3321658e-05            0    1.3862931       48 
 7009000 0.00011183146            0    1.4730217 4.7949925e-05            0    1.4730217       50 
 7010000 0.0001076319            0    1.5081978 4.6149281e-05            0    1.5081978       47 
 7011000 0.00010973745            0    1.5056664 4.7052075e-05            0    1.5056664       48 
 7012000 0.00010498866            0    1.4405101 4.5015939e-05            0    1.4405101       48 
 7013000 0.00012143103            0    1.5089294 5.2065924e-05            0    1.5089294       53 
 7014000 0.00011026227            0    1.4523525 4.7277101e-05            0    1.4523525       50 
 7015000 0.00011816709            0    1.3653274 5.0666446e-05            0    1.3653274       57 
 7016000 0.00010567962            0    1.3646969 4.5312202e-05            0    1.3646969       51 
 7017000 0.00012762321            0    1.6163725 5.4720945e-05            0    1.6163725       52 
 7018000 0.00011282929            0    1.5810265 4.8377763e-05            0    1.5810265       47 
 7019000 0.00012861617 -0.00065679241    1.5679603 5.5046897e-05 -0.00065679241     1.568617       54 
 7020000 0.00011861384 -0.0014459819    1.6260101 5.0694322e-05 -0.0014459819     1.627456       48 
 7021000 0.00011688916            0    1.5094516 5.0118509e-05            0    1.5094516       51 
 7022000 0.00010671293            0    1.4953206 4.5755251e-05            0    1.4953206       47 
 7023000 0.00011812351            0    1.6552119 5.0647761e-05            0    1.6552119       47 
 7024000 0.00011344625            0     1.524787 4.8642295e-05            0     1.524787       49 
 7025000 0.00010987708            0    1.4472789 4.7111943e-05            0    1.4472789       50 
 7026000 0.00011668982 -3.089754e-05    1.5369841 4.999831e-05 -3.089754e-05     1.537015       50 
 7027000 0.0001332161            0    1.7546958 5.7119004e-05            0    1.7546958       50 
 7028000 0.00011407041            0    1.5331761 4.8909916e-05            0    1.5331761       49 
 7029000 0.00012203751            0     1.575935 5.2325965e-05            0     1.575935       51 
 7030000 0.00011962522            0      1.48649 5.1291648e-05            0      1.48649       53 
 7031000 0.00011523238            0    1.4594402 4.9408132e-05            0    1.4594402       52 
 7032000 0.00010700656            0    1.4382336 4.5881151e-05            0    1.4382336       49 
 7033000 0.00011113275            0    1.3553874 4.7650338e-05            0    1.3553874       54 
 7034000 0.0001203958            0    1.4416631 5.162205e-05            0    1.4416631       55 
 7035000 0.00010089536            0    1.3560954 4.3260856e-05            0    1.3560954       49 
 7036000 0.00010873384            0    1.4322204 4.6621758e-05            0    1.4322204       50 
 7037000 0.00011890075            0    1.4501267 5.0981018e-05            0    1.4501267       54 
 7038000 0.00010511114            0    1.4421905 4.5068453e-05            0    1.4421905       48 
 7039000 0.00013068061            0    1.7564274 5.6031864e-05            0    1.7564274       49 
 7040000 0.00011624036            0    1.4444291 4.9840326e-05            0    1.4444291       53 
 7041000 0.00012872451            0    1.5699385 5.5193149e-05            0    1.5699385       54 
 7042000 0.00012006035            0    1.5205875 5.1478222e-05            0    1.5205875       52 
 7043000 0.00010323341            0    1.3331077 4.426334e-05            0    1.3331077       51 
 7044000 0.00010821507            0    1.4253872 4.6399323e-05            0    1.4253872       50 
 7045000 0.00011903299            0    1.4791309 5.1037719e-05            0    1.4791309       53 
 7046000 0.00012592609            0    1.5078848 5.3993269e-05            0    1.5078848       55 
 7047000 0.00013477226            0     1.584994 5.778624e-05            0     1.584994       56 
 7048000 0.00013147553            0    1.5462227 5.6372701e-05            0    1.5462227       56 
 7049000 0.00013526046            0    1.5628278 5.7995563e-05            0    1.5628278       57 
 7050000 0.00013882978            0    1.5496933 5.952598e-05            0    1.5496933       59 
 7051000 0.00013345488            0    1.5980373 5.7221387e-05            0    1.5980373       55 
 7052000 0.00015719748            0    1.6698175 6.7401489e-05            0    1.6698175       62 
 7053000 0.00013772307            0    1.5912813 5.9051454e-05            0    1.5912813       57 
 7054000 0.00013427094            0    1.6375833 5.7571289e-05            0    1.6375833       54 
 7055000 0.00012662625            0    1.5734865 5.4293478e-05            0    1.5734865       53 
 7056000 0.00012812349            0    1.6227086 5.4935448e-05            0    1.6227086       52 
 7057000 0.0001339177 -0.00027972071    1.5746642 5.7357873e-05 -0.00027972071    1.5749439       56 
 7058000 0.00013214049            0    1.6116001 5.6657815e-05            0    1.6116001       54 
 7059000 0.00015440012            0    1.6401028 6.6202068e-05            0    1.6401028       62 
 7060000 0.00012987027            0    1.6137973 5.5684414e-05            0    1.6137973       53 
 7061000 0.00012660808            0    1.5732607 5.4285689e-05            0    1.5732607       53 
 7062000 0.00011953786 -0.0015212726    1.6051407 5.1047851e-05 -0.0015212726     1.606662       49 
 7063000 0.00012395847            0    1.5699579 5.3149615e-05            0    1.5699579       52 
 7064000 0.00011995297            0    1.5799965 5.1432178e-05            0    1.5799965       50 
 7065000 0.00011334187            0    1.3823301 4.8597542e-05            0    1.3823301       54 
 7066000 0.00010700703            0    1.4994417 4.5881355e-05            0    1.4994417       47 
 7067000 0.0001052582            0    1.3592549 4.5131511e-05            0    1.3592549       51 
 7068000 0.00010253648            0     1.378153 4.3964517e-05            0     1.378153       49 
 7069000 0.00011650645            0    1.5985413 4.9954414e-05            0    1.5985413       48 
 7070000 9.4872083e-05 -0.0041356314    1.4159054 4.0312359e-05 -0.0041356314     1.420041       44 
 7071000 0.00012179225            0    1.4853918 5.2220807e-05            0    1.4853918       54 
 7072000 0.00011866647            0    1.6281781 5.0880565e-05            0    1.6281781       48 
 7073000 0.00011651573            0    1.4756941 4.9958394e-05            0    1.4756941       52 
 7074000 0.00011729011            0    1.6092936 5.0290426e-05            0    1.6092936       48 
 7075000 0.00014246216            0    1.7374844 6.1083435e-05            0    1.7374844       54 
 7076000 0.00012057234            0    1.6543279 5.1697747e-05            0    1.6543279       48 
 7077000 0.00012861812            0    1.6289732 5.5147531e-05            0    1.6289732       52 
 7078000 0.00014228473            0    1.6733446 6.1007357e-05            0    1.6733446       56 
 7079000 0.00016007279            0    1.7868192 6.8634333e-05            0    1.7868192       59 
 7080000 0.00014009368            0    1.7743134 6.0067903e-05            0    1.7743134       52 
 7081000 0.00013180192            0     1.702028 5.6512647e-05            0     1.702028       51 
 7082000 0.00014233801            0    1.6739713 6.1030203e-05            0    1.6739713       56 
 7083000 0.00012345712            0    1.6261525 5.2934651e-05            0    1.6261525       50 
 7084000 0.0001303924            0    1.6514448 5.5908289e-05            0    1.6514448       52 
 7085000 0.00012121842            0    1.5352546 5.1974764e-05            0    1.5352546       52 
 7086000 0.0001200546            0    1.5813351 5.1475753e-05            0    1.5813351       50 
 7087000 0.00011976974 -0.014387348    1.6638925 5.4720741e-05 -0.014387348    1.6782798       47 
 7088000 0.0001217109            0    1.5414919 5.2185925e-05            0    1.5414919       52 
 7089000 9.987253e-05            0    1.4616678 4.2822298e-05            0    1.4616678       45 
 7090000 0.00011005886            0    1.4496732 4.7189884e-05            0    1.4496732       50 
 7091000 0.00010585795            0    1.4524372 4.5388663e-05            0    1.4524372       48 
 7092000 0.00011897012            0    1.5670506 5.1010761e-05            0    1.5670506       50 
 7093000 9.4852429e-05            0    1.3580187 4.0669831e-05            0    1.3580187       46 
 7094000 0.00010053216            0    1.4087123 4.3105128e-05            0    1.4087123       47 
 7095000 9.9038629e-05            0    1.4179533 4.2464747e-05            0    1.4179533       46 
 7096000 9.6149075e-05            0     1.376583 4.1225794e-05            0     1.376583       46 
 7097000 0.00010898064            0    1.4073247 4.6727578e-05            0    1.4073247       51 
 7098000 0.00010765311            0    1.4770679 4.6158372e-05            0    1.4770679       48 
 7099000 0.00010456856            0    1.4971263 4.4835813e-05            0    1.4971263       46 
 7100000 0.00010708803            0    1.4693147 4.5916083e-05            0    1.4693147       48 
 7101000 0.00011024522            0    1.5126333 4.7269791e-05            0    1.5126333       48 
 7102000 0.00013393284            0    1.8001393 5.7426319e-05            0    1.8001393       49 
 7103000 0.00010080322            0    1.5439068 4.3221349e-05            0    1.5439068       43 
 7104000 0.00010874133            0    1.6654872 4.6624967e-05            0    1.6654872       43 
 7105000 0.00010243722            0    1.5332757 4.392196e-05            0    1.5332757       44 
 7106000 0.00010126829            0     1.587959 4.3420755e-05            0     1.587959       42 
 7107000 9.1897323e-05            0    1.5130665 3.9402772e-05            0    1.5130665       40 
 7108000 9.4474371e-05            0    1.5953814 4.0507732e-05            0    1.5953814       39 
 7109000 9.4426312e-05            0    1.5945699 4.0487125e-05            0    1.5945699       39 
 7110000 9.831072e-05            0    1.6186614 4.2152641e-05            0    1.6186614       40 
 7111000 9.5465268e-05            0    1.6545387 4.0932598e-05            0    1.6545387       38 
 7112000 8.2380968e-05            0    1.3911611 3.5322449e-05            0    1.3911611       39 
 7113000 0.00010482093            0    1.7258505 4.4944023e-05            0    1.7258505       40 
 7114000 9.4916312e-05            0    1.5627733 4.0697222e-05            0    1.5627733       40 
 7115000 8.9448214e-05            0    1.6363805 3.8352669e-05            0    1.6363805       36 
 7116000 0.00010092868            0    1.4771249 4.3275144e-05            0    1.4771249       45 
 7117000 8.7197692e-05            0    1.4006714 3.7387713e-05            0    1.4006714       41 
 7118000 9.7134076e-05            0    1.5602812 4.1648132e-05            0    1.5602812       41 
 7119000  0.000110065            0    1.6857606 4.7192518e-05            0    1.6857606       43 
 7120000 0.00010285645            0    1.6128627 4.4101713e-05            0    1.6128627       42 
 7121000 0.00011062017            0    1.7346032 4.7430556e-05            0    1.7346032       42 
 7122000 9.7643293e-05 -0.0014409741    1.5296756 4.1719395e-05 -0.0014409741    1.5311166       42 
 7123000 0.00010865673            0    1.7038152 4.6588696e-05            0    1.7038152       42 
 7124000 0.00010654199            0    1.6706546 4.5681961e-05            0    1.6706546       42 
 7125000 0.00012118726            0    1.6981429 5.1961405e-05            0    1.6981429       47 
 7126000 0.00012515109            0    1.6821073 5.3660974e-05            0    1.6821073       49 
 7127000 0.00011250157 -0.00043851955    1.6460595 4.8167482e-05 -0.00043851955     1.646498       45 
 7128000 0.00011180758            0    1.7532227 4.7939684e-05            0    1.7532227       42 
 7129000 0.00013041317            0    1.7528328 5.5917193e-05            0    1.7528328       49 
 7130000 0.00011169615            0    1.6718629 4.7891906e-05            0    1.6718629       44 
 7131000 0.00012145674            0    1.6664624 5.2076949e-05            0    1.6664624       48 
 7132000 0.00011068799            0    1.6953023 4.7459636e-05            0    1.6953023       43 
 7133000 0.0001357585            0    1.8626915 5.820911e-05            0    1.8626915       48 
 7134000 0.00011690566            0    1.6040188 5.0125586e-05            0    1.6040188       48 
 7135000 0.0001144142            0     1.603235 4.9057322e-05            0     1.603235       47 
 7136000 0.00011707249            0    1.6063077 5.0197117e-05            0    1.6063077       48 
 7137000 0.00011038204            0    1.5145106 4.7328458e-05            0    1.5145106       48 
 7138000 0.00010631912            0    1.4587648 4.5586401e-05            0    1.4587648       48 
 7139000 0.00011831398            0     1.657881 5.0729431e-05            0     1.657881       47 
 7140000 0.00011551266            0    1.6186273 4.9528309e-05            0    1.6186273       47 
 7141000 0.00012455461            0    1.6740902 5.3405222e-05            0    1.6740902       49 
 7142000 0.00012187292            0    1.6380467 5.2255397e-05            0    1.6380467       49 
 7143000 0.00011164813            0    1.5644754 4.7871316e-05            0    1.5644754       47 
 7144000 0.00012053254            0    1.6537817 5.1680679e-05            0    1.6537817       48 
 7145000 0.00011486205            0    1.6810443 4.9249345e-05            0    1.6810443       45 
 7146000 0.00011598103            0    1.6605206 4.9729133e-05            0    1.6605206       46 
 7147000 0.0001142601            0    1.5357257 4.899125e-05            0    1.5357257       49 
 7148000 0.00012558772 -0.0044783772    1.5272034 5.3381558e-05 -0.0044783772    1.5316817       54 
 7149000 0.00012400233 -0.00059501121    1.6327388 5.3079505e-05 -0.00059501121    1.6333339       50 
 7150000 0.0001359668            0    1.7909275 5.829842e-05            0    1.7909275       50 
 7151000 0.00011541637            0    1.5835848 4.9487024e-05            0    1.5835848       48 
 7152000 0.00012289373            0    1.6187316 5.2693087e-05            0    1.6187316       50 
 7153000 0.00012861161            0    1.8021771 5.5144741e-05            0    1.8021771       47 
 7154000 0.00013661678            0    1.7994889 5.8577114e-05            0    1.7994889       50 
 7155000 0.00012762732            0    1.6810816 5.4722708e-05            0    1.6810816       50 
 7156000 0.00015458064            0    1.8510047 6.6279467e-05            0    1.8510047       55 
 7157000 0.00012412246            0    1.7770828 5.3219929e-05            0    1.7770828       46 
 7158000 0.00013436539            0     1.769834 5.7611784e-05            0     1.769834       50 
 7159000 0.00013710622            0    1.8059357 5.878697e-05            0    1.8059357       50 
 7160000 0.00012165074            0    1.7803991 5.216013e-05            0    1.7803991       45 
 7161000 0.00011905366            0    1.7423899 5.104658e-05            0    1.7423899       45 
 7162000 0.00013690128            0    1.8783711 5.8699098e-05            0    1.8783711       48 
 7163000 0.00013364523            0    1.7258316 5.7303001e-05            0    1.7258316       51 
 7164000 0.00013535553 -0.0040657808    1.7788101 5.7633962e-05 -0.0040657808    1.7828759       50 
 7165000 0.00013037182            0    1.7172316 5.5899466e-05            0    1.7172316       50 
 7166000 0.00013717836            0    1.8437612 5.8817903e-05            0    1.8437612       49 
 7167000 0.0001388946            0    1.9057208 5.9553774e-05            0    1.9057208       48 
 7168000 0.00015243889            0    2.0078945 6.5361149e-05            0    2.0078945       50 
 7169000 0.00013958639            0    1.8761266 5.9850393e-05            0    1.8761266       49 
 7170000 0.0001303087            0    1.8656524 5.5872402e-05            0    1.8656524       46 
 7171000 0.00011736586            0    1.7567269 5.0322906e-05            0    1.7567269       44 
 7172000 0.00013584247            0    1.8258059 5.8245111e-05            0    1.8258059       49 
 7173000 0.00012060841            0    1.5574803 5.1713213e-05            0    1.5574803       51 
 7174000 0.00012853821            0    1.7636246 5.5113269e-05            0    1.7636246       48 
 7175000 0.00012115658            0    1.5958503 5.1948251e-05            0    1.5958503       50 
 7176000 0.00012547731            0    1.5891943 5.3800849e-05            0    1.5891943       52 
 7177000 0.00013396256            0    1.6338223 5.7439064e-05            0    1.6338223       54 
 7178000 0.00013872541            0    1.8272634 5.948123e-05            0    1.8272634       50 
 7179000 0.00013472069            0    1.5843875 5.7764126e-05            0    1.5843875       56 
 7180000 0.00011817365            0    1.6214163 5.0669259e-05            0    1.6214163       48 
 7181000 0.00013314166 -0.010668595    1.7086601 5.6214325e-05 -0.010668595    1.7193287       51 
 7182000 0.00013419836            0    1.7329745 5.7540168e-05            0    1.7329745       51 
 7183000 0.00014823468 -2.7242936e-05    1.7749887 6.3523875e-05 -2.7242936e-05    1.7750159       55 
 7184000 0.00018747832            0    2.0578557 8.038499e-05            0    2.0578557       60 
 7185000 0.00016266741            0     2.021342 6.9746828e-05            0     2.021342       53 
 7186000 0.00015299183            0    1.8659053 6.5598235e-05            0    1.8659053       54 
 7187000 0.00013932725            0    1.6992506 5.973928e-05            0    1.6992506       54 
 7188000 0.00014393394            0    1.6927402 6.1714488e-05            0    1.6927402       56 
 7189000 0.00014846815 -1.9466914e-05    1.7777922 6.3624809e-05 -1.9466914e-05    1.7778117       55 
 7190000 0.00015676675 -0.0080031865    1.8356578 6.6450099e-05 -0.0080031865     1.843661       56 
 7191000 0.00015202828            0    1.8541538 6.5185096e-05            0    1.8541538       54 
 7192000 0.00015211453            0    1.7889484 6.5222076e-05            0    1.7889484       56 
 7193000 0.00014273191 -0.0025690425    1.7065547 6.0904445e-05 -0.0025690425    1.7091238       55 
 7194000  0.000138478            0    1.6581859 5.9375147e-05            0    1.6581859       55 
 7195000 0.00013397478            0     1.664801 5.7444304e-05            0     1.664801       53 
 7196000 0.0001306223            0    1.5092375 5.6006861e-05            0    1.5092375       57 
 7197000 0.00011911073            0    1.4262752 5.1071051e-05            0    1.4262752       55 
 7198000 0.00011293682            0      1.37739 4.8423866e-05            0      1.37739       54 
 7199000 0.00010633223            0    1.2968397 4.559202e-05            0    1.2968397       54 
 7200000 0.00012894138            0    1.4393136 5.5286134e-05            0    1.4393136       59 
 7201000 0.00013266405            0    1.4808681 5.6882304e-05            0    1.4808681       59 
 7202000 0.00011636663            0    1.4192204 4.9894466e-05            0    1.4192204       54 
 7203000 0.00012495171            0    1.4694991 5.3575488e-05            0    1.4694991       56 
 7204000 0.00012635549            0    1.4104485 5.4177386e-05            0    1.4104485       59 
 7205000 0.00014115036            0    1.5493369 6.0520972e-05            0    1.5493369       60 
 7206000 0.0001516656 -0.0029108953    1.6900628 6.4648455e-05 -0.0029108953    1.6929737       59 
 7207000 0.00015933038            0    1.7202196 6.8316011e-05            0    1.7202196       61 
 7208000 0.00016888885            0    1.7112078 7.2414391e-05            0    1.7112078       65 
 7209000 0.00015371724 -0.0031736409    1.5786489 6.5507205e-05 -0.0031736409    1.5818225       64 
 7210000 0.00014305403            0    1.5702325 6.1337208e-05            0    1.5702325       60 
 7211000 0.00014252512            0    1.5387806 6.1110427e-05            0    1.5387806       61 
 7212000 0.00013736508            0    1.5077878 5.8897959e-05            0    1.5077878       60 
 7213000 0.00013909093  -0.01544298    1.4862603 5.9003385e-05  -0.01544298    1.5017033       61 
 7214000 0.00013671811            0    1.5524342 5.8620561e-05            0    1.5524342       58 
 7215000 0.00012839307            0    1.4834805 5.5051035e-05            0    1.4834805       57 
 7216000 0.00015002785            0    1.6197843 6.4327371e-05            0    1.6197843       61 
 7217000 0.00014444124 -0.0039622689    1.6649423 6.1491759e-05 -0.0039622689    1.6689045       57 
 7218000 0.00013616317            0    1.6013519 5.838262e-05            0    1.6013519       56 
 7219000 0.00014023446            0    1.6202985 6.0128264e-05            0    1.6202985       57 
 7220000 0.00016392642 -9.7864707e-06    1.6357524 7.0253666e-05 -9.7864707e-06    1.6357621       66 
 7221000 0.00016757819            0    1.7800858 7.185242e-05            0    1.7800858       62 
 7222000 0.00014286154            0    1.5424128 6.1254677e-05            0    1.5424128       61 
 7223000 0.00014858138 -0.0037931028    1.4567175 6.3220494e-05 -0.0037931028    1.4605106       67 
 7224000 0.0001580322            0    1.6012066 6.7759392e-05            0    1.6012066       65 
 7225000 0.00017228743 -0.00072037765    1.7184733 7.374893e-05 -0.00072037765    1.7191936       66 
 7226000 0.0001495873            0    1.5637571 6.4138476e-05            0    1.5637571       63 
 7227000 0.00015295014            0    1.5497143 6.5580358e-05            0    1.5497143       65 
 7228000 0.00015508483            0    1.6212273 6.6495652e-05            0    1.6212273       63 
 7229000 0.00013496249 -3.2928394e-05    1.4108392 5.7832048e-05 -3.2928394e-05    1.4108721       63 
 7230000 0.00014581645            0    1.5489235 6.2521651e-05            0    1.5489235       62 
 7231000 0.00014978623            0    1.5658367 6.4223772e-05            0    1.5658367       63 
 7232000 0.00016701223 -6.6736441e-05    1.6416136 7.1569367e-05 -6.6736441e-05    1.6416804       67 
 7233000 0.00015659701 -9.369422e-06    1.6634297 6.7111162e-05 -9.369422e-06    1.6634391       62 
 7234000 0.00014875891            0    1.6891574 6.3783287e-05            0    1.6891574       58 
 7235000 0.00017527666            0    1.7759301 7.5153292e-05            0    1.7759301       65 
 7236000 0.00016811127 -0.010273091    1.7471302 7.1129472e-05 -0.010273091    1.7574032       63 
 7237000 0.00015961469            0    1.6172406 6.8437915e-05            0    1.6172406       65 
 7238000 0.00016800469            0    1.6764577 7.2035293e-05            0    1.6764577       66 
 7239000 0.00015458977            0    1.6421173 6.6283382e-05            0    1.6421173       62 
 7240000 0.00015851656            0    1.6838293 6.796707e-05            0    1.6838293       62 
 7241000 0.00015788694            0    1.7928062 6.769711e-05            0    1.7928062       58 
 7242000 0.00015847039            0    1.6833389 6.7947274e-05            0    1.6833389       62 
 7243000 0.0001469139            0    1.6126004 6.2992203e-05            0    1.6126004       60 
 7244000 0.0001464543            0    1.6075556 6.2795142e-05            0    1.6075556       60 
 7245000 0.00013533752            0    1.5367575 5.8028604e-05            0    1.5367575       58 
 7246000 0.00014209329            0    1.5341183 6.0925272e-05            0    1.5341183       61 
 7247000 0.00013547144            0    1.5932167 5.8086026e-05            0    1.5932167       56 
 7248000 0.00012993148            0     1.614558 5.571066e-05            0     1.614558       53 
 7249000 0.00013636409            0    1.6328732 5.8468767e-05            0    1.6328732       55 
 7250000 0.00015170826            0    1.6652257 6.5047878e-05            0    1.6652257       60 
 7251000 0.0001524822            0    1.5940199 6.5379723e-05            0    1.5940199       63 
 7252000 0.00014922707            0     1.724201 6.3984023e-05            0     1.724201       57 
 7253000 0.00015946899 -0.0016342169    1.6393765 6.8146904e-05 -0.0016342169    1.6410107       64 
 7254000 0.00014400654 -0.00014064917    1.7561791 6.1699195e-05 -0.00014064917    1.7563197       54 
 7255000 0.00016468237            0    1.8699683 7.0610783e-05            0    1.8699683       58 
 7256000 0.00015185737            0    1.6951143 6.5111813e-05            0    1.6951143       59 
 7257000 0.00015972205            0    1.7244483 6.848395e-05            0    1.7244483       61 
 7258000 0.0001403792 -0.0031559309    1.6188149 5.9828017e-05 -0.0031559309    1.6219709       57 
 7259000 0.00014168128            0     1.608791 6.0748617e-05            0     1.608791       58 
 7260000 0.0001356465 -0.0083192083     1.456196 5.732566e-05 -0.0083192083    1.4645152       61 
 7261000 0.00013726731            0    1.5586703 5.8856038e-05            0    1.5586703       58 
 7262000 0.00013993271            0    1.4628299 5.9998884e-05            0    1.4628299       63 
 7263000 0.00013506402            0     1.533652 5.7911338e-05            0     1.533652       58 
 7264000 0.00015150941            0    1.6093965 6.4962617e-05            0    1.6093965       62 
 7265000 0.00015377275 -0.0011320349    1.6323066 6.576794e-05 -0.0011320349    1.6334386       62 
 7266000 0.00014946783            0      1.58771 6.4087252e-05            0      1.58771       62 
 7267000 0.00013208781            0    1.4744358 5.6635229e-05            0    1.4744358       59 
 7268000 0.00013983223            0    1.5608832 5.9955801e-05            0    1.5608832       59 
 7269000 0.00014602423 -8.0533098e-06    1.6299936 6.2578084e-05 -8.0533098e-06    1.6300017       59 
 7270000 0.0001635921            0    1.6834393 7.0143306e-05            0    1.6834393       64 
 7271000 0.00015572344            0    1.5778138 6.6769466e-05            0    1.5778138       65 
 7272000 0.00014447986            0    1.5598851 6.194856e-05            0    1.5598851       61 
 7273000 0.00014069001            0    1.4944683 6.0323592e-05            0    1.4944683       62 
 7274000 0.00014349736            0    1.5492774 6.1527294e-05            0    1.5492774       61 
 7275000 0.00016332716            0    1.5589223 7.0029712e-05            0    1.5589223       69 
 7276000 0.00014474848            0    1.5131731 6.2063739e-05            0    1.5131731       63 
 7277000 0.00015362142            0    1.5808364 6.5868184e-05            0    1.5808364       64 
 7278000 0.00014330214 -0.00090143207    1.4971519 6.1303516e-05 -0.00090143207    1.4980533       63 
 7279000 0.00015510027            0    1.5960544 6.6502268e-05            0    1.5960544       64 
 7280000 0.00016093023            0    1.6305698 6.9001977e-05            0    1.6305698       65 
 7281000 0.00014981159            0    1.6174494 6.4234645e-05            0    1.6174494       61 
 7282000 0.00015401011            0    1.4916106 6.6034843e-05            0    1.4916106       68 
 7283000 0.00015412085            0    1.4926831 6.6082327e-05            0    1.4926831       68 
 7284000 0.00013985114            0    1.3955237 5.9963909e-05            0    1.3955237       66 
 7285000 0.00013261362            0    1.3863176 5.6860682e-05            0    1.3863176       63 
 7286000 0.00014387973            0    1.4142948 6.1691243e-05            0    1.4142948       67 
 7287000 0.0001267815            0    1.2845696 5.4360044e-05            0    1.2845696       65 
 7288000 0.00013006174            0    1.3383963 5.5766513e-05            0    1.3383963       64 
 7289000 0.00013604763            0    1.4933268 5.8333077e-05            0    1.4933268       60 
 7290000 0.00012501156            0    1.2666363 5.3601147e-05            0    1.2666363       65 
 7291000 0.00013163695            0    1.4212259 5.6441912e-05            0    1.4212259       61 
 7292000 0.0001018834            0    1.1982034  4.36845e-05            0    1.1982034       56 
 7293000 0.00010624916            0    1.2276251 4.5556401e-05            0    1.2276251       57 
 7294000 0.00010461767 -0.003174817    1.2495552 4.4503691e-05 -0.003174817    1.2527301       55 
 7295000 0.00010432134            0    1.2053507 4.4729811e-05            0    1.2053507       57 
 7296000 0.00011160394            0    1.3125221 4.7852367e-05            0    1.3125221       56 
 7297000 0.00010042175            0    1.1402889 4.3057785e-05            0    1.1402889       58 
 7298000 0.00010884563            0    1.2576254 4.6669692e-05            0    1.2576254       57 
 7299000 0.00011139654            0    1.2649078 4.7763444e-05            0    1.2649078       58 
 7300000 9.4962735e-05            0    1.2027213 4.0717127e-05            0    1.2027213       52 
 7301000 9.9741467e-05            0    1.2880144 4.2766102e-05            0    1.2880144       51 
 7302000 0.00010379083            0    1.2428291 4.4502346e-05            0    1.2428291       55 
 7303000 0.00010868001            0    1.2781352 4.6598678e-05            0    1.2781352       56 
 7304000 9.8603285e-05            0    1.2987827 4.2278084e-05            0    1.2987827       50 
 7305000 0.00010060211            0    1.2741451 4.313512e-05            0    1.2741451       52 
 7306000 0.00010189205            0    1.2904824 4.3688206e-05            0    1.2904824       52 
 7307000 0.00013427747            0     1.498878 5.7574089e-05            0     1.498878       59 
 7308000 9.0672653e-05            0    1.3571842 3.8877671e-05            0    1.3571842       44 
 7309000 9.2068742e-05            0    1.2901181 3.9476271e-05            0    1.2901181       47 
 7310000 0.00011099388            0    1.5229054 4.7590793e-05            0    1.5229054       48 
 7311000 0.00011499368            0    1.5146738 4.9305786e-05            0    1.5146738       50 
 7312000 0.00010070556            0    1.4738595 4.3179477e-05            0    1.4738595       45 
 7313000 0.00011263035            0    1.5453588 4.8292462e-05            0    1.5453588       48 
 7314000 8.8036582e-05            0    1.3177276 3.7747404e-05            0    1.3177276       44 
 7315000 9.1998327e-05            0    1.3770268 3.944608e-05            0    1.3770268       44 
 7316000 9.9727716e-05            0    1.3974399 4.2760206e-05            0    1.3974399       47 
 7317000 9.5626065e-05            0    1.4646133 4.1001543e-05            0    1.4646133       43 
 7318000 9.4829908e-05            0    1.3288091 4.0660175e-05            0    1.3288091       47 
 7319000 0.00010600847 -9.205464e-05    1.3962303 4.5412559e-05 -9.205464e-05    1.3963224       50 
 7320000 8.8690809e-05            0      1.32752 3.8027917e-05            0      1.32752       44 
 7321000 7.7099585e-05            0    1.3019748 3.3057953e-05            0    1.3019748       39 
 7322000 8.4814386e-05            0    1.2694979 3.6365824e-05            0    1.2694979       44 
 7323000 0.00010909034            0    1.4369162 4.6774614e-05            0    1.4369162       50 
 7324000 9.9284612e-05            0    1.5206477 4.2570217e-05            0    1.5206477       43 
 7325000 9.4778759e-05            0     1.356964 4.0638244e-05            0     1.356964       46 
 7326000 9.9957393e-05            0    1.4961577 4.2858685e-05            0    1.4961577       44 
 7327000 0.00010505772            0    1.5041296 4.5045549e-05            0    1.5041296       46 
 7328000 9.636649e-05            0    1.4759536 4.1319015e-05            0    1.4759536       43 
 7329000 9.2286371e-05            0      1.32128 3.9569584e-05            0      1.32128       46 
 7330000 8.8945034e-05            0    1.3947217 3.813692e-05            0    1.3947217       42 
 7331000 0.00012982375            0    1.7449107 5.5664468e-05            0    1.7449107       49 
 7332000 0.00010305856            0    1.4441136 4.4188372e-05            0    1.4441136       47 
 7333000 9.5208028e-05            0    1.5675764 4.0822301e-05            0    1.5675764       40 
 7334000 0.00010001231            0    1.6065149 4.2882233e-05            0    1.6065149       41 
 7335000 0.00011156746            0    1.5973308 4.7836729e-05            0    1.5973308       46 
 7336000 9.3567574e-05            0    1.5405667 4.0118925e-05            0    1.5405667       40 
 7337000 0.00011359531            0    1.5917603 4.8706207e-05            0    1.5917603       47 
 7338000 0.00011764415            0    1.5192013 5.0442229e-05            0    1.5192013       51 
 7339000 8.991195e-05 -0.0012491656    1.4791286 3.8424264e-05 -0.0012491656    1.4803778       40 
 7340000 9.3514364e-05            0    1.4322704 4.009611e-05            0    1.4322704       43 
 7341000 9.7844656e-05            0    1.4985933 4.1952807e-05            0    1.4985933       43 
 7342000 0.00010552034            0    1.5443253 4.5243905e-05            0    1.5443253       45 
 7343000 9.3446603e-05            0    1.3987045 4.0067056e-05            0    1.3987045       44 
 7344000 8.5262493e-05 -0.0015366099     1.402289 3.6409117e-05 -0.0015366099    1.4038256       40 
 7345000 9.3857779e-05            0     1.471757 4.0243356e-05            0     1.471757       42 
 7346000 9.268779e-05            0    1.4888598  3.97417e-05            0    1.4888598       41 
 7347000 8.4855331e-05            0     1.510402 3.638338e-05            0     1.510402       37 
 7348000 8.2450061e-05            0     1.428968 3.5352074e-05            0     1.428968       38 
 7349000 9.4311148e-05            0    1.5926251 4.0437747e-05            0    1.5926251       39 
 7350000 9.2179726e-05            0    1.5975959 3.9523858e-05            0    1.5975959       38 
 7351000 9.0536425e-05            0    1.6115239 3.8819261e-05            0    1.6115239       37 
 7352000 0.00011294285            0    1.7710245 4.8426452e-05            0    1.7710245       42 
 7353000 9.498762e-05            0    1.6462604 4.0727797e-05            0    1.6462604       38 
 7354000 0.00011000863 -0.0021053734     1.764982 4.6973311e-05 -0.0021053734    1.7670874       41 
 7355000 9.8976125e-05            0    1.6714022 4.2437947e-05            0    1.6714022       39 
 7356000 0.00010337837            0    1.5473627 4.4325495e-05            0    1.5473627       44 
 7357000 9.3809504e-05            0    1.5068781 4.0222657e-05            0    1.5068781       41 
 7358000 0.00010880918            0    1.6665265 4.6654062e-05            0    1.6665265       43 
 7359000 0.00010681524            0    1.6359872 4.5799122e-05            0    1.6359872       43 
 7360000 9.0887899e-05            0      1.61778 3.8969962e-05            0      1.61778       37 
 7361000 0.0001118631            0    1.6015634 4.7963488e-05            0    1.6015634       46 
 7362000 0.00010543606            0    1.6936375 4.5207772e-05            0    1.6936375       41 
 7363000 0.0001130839            0    1.8164859 4.8486929e-05            0    1.8164859       41 
 7364000 0.00011119279            0    1.6273435 4.7676079e-05            0    1.6273435       45 
 7365000 0.00011887452            0    1.7793083 5.096977e-05            0    1.7793083       44 
 7366000 0.00011567909            0    1.7314794 4.959967e-05            0    1.7314794       44 
 7367000 0.00010703052            0    1.6392845 4.5891427e-05            0    1.6392845       43 
 7368000 0.00011436003            0    1.6736972 4.9034096e-05            0    1.6736972       45 
 7369000 0.00011433051            0     1.568686 4.9021439e-05            0     1.568686       48 
 7370000 0.00011942205            0    1.6385451 5.1204535e-05            0    1.6385451       48 
 7371000 0.00012986727            0    1.6770449 5.568313e-05            0    1.6770449       51 
 7372000 0.00012003743            0    1.7185968 5.1468392e-05            0    1.7185968       46 
 7373000 0.00012088412            0    1.6938951 5.1831427e-05            0    1.6938951       47 
 7374000 0.00012008879            0     1.719332 5.1490412e-05            0     1.719332       46 
 7375000 0.00013668442            0    1.8753956 5.8606113e-05            0    1.8753956       48 
 7376000 0.00014521027            0    1.9517149 6.2261738e-05            0    1.9517149       49 
 7377000 0.00011212466            0    1.5384204 4.8075638e-05            0    1.5384204       48 
 7378000 0.00011650035            0    1.5044307 4.9951801e-05            0    1.5044307       51 
 7379000 0.00010494969            0    1.4706131 4.4999228e-05            0    1.4706131       47 
 7380000 0.00010590866            0    1.5500085 4.5410405e-05            0    1.5500085       45 
 7381000 0.00010525613            0    1.4441798 4.513062e-05            0    1.4441798       48 
 7382000 0.00012192117            0    1.6059213 5.2276083e-05            0    1.6059213       50 
 7383000 0.00010872814            0     1.491818 4.6619314e-05            0     1.491818       48 
 7384000 0.00011544453            0    1.5516452 4.9499098e-05            0    1.5516452       49 
 7385000 0.00012398481            0    1.6331031 5.3160909e-05            0    1.6331031       50 
 7386000 0.00012879234            0    1.5707657 5.522223e-05            0    1.5707657       54 
 7387000 0.00011125656            0    1.4654491 4.7703421e-05            0    1.4654491       50 
 7388000 0.00010551943            0    1.4477925 4.5243516e-05            0    1.4477925       48 
 7389000 0.00012860081            0    1.5399129 5.5140111e-05            0    1.5399129       55 
 7390000 0.00010858354            0    1.3242969 4.6557312e-05            0    1.3242969       54 
 7391000 0.0001340003            0    1.5759153 5.7455247e-05            0    1.5759153       56 
 7392000 0.00014443619            0    1.6688462 6.1929839e-05            0    1.6688462       57 
 7393000 0.00014161974            0     1.665524 6.072223e-05            0     1.665524       56 
 7394000 0.00015033974            0    1.6502041 6.4461098e-05            0    1.6502041       60 
 7395000 0.00015019435            0    1.7054568 6.4398759e-05            0    1.7054568       58 
 7396000 0.00014260308            0    1.6770887 6.1143857e-05            0    1.6770887       56 
 7397000 0.0001503356            0    1.6501587 6.4459323e-05            0    1.6501587       60 
 7398000 0.00015813027 -0.00092841664    1.7347885 6.7663402e-05 -0.00092841664    1.7357169       60 
 7399000 0.00013759245            0    1.6181609 5.8995451e-05            0    1.6181609       56 
 7400000 0.00013565758            0    1.5674162 5.8165837e-05            0    1.5674162       57 
 7401000 0.00012722565            0    1.5234461 5.4550481e-05            0    1.5234461       55 
 7402000 0.00013347972            0    1.6279334 5.7232035e-05            0    1.6279334       54 
 7403000 0.00013855607            0    1.7217291 5.940862e-05            0    1.7217291       53 
 7404000 0.00015005889            0    1.6471214 6.4340681e-05            0    1.6471214       60 
 7405000 0.00012948846            0    1.5228537 5.5520708e-05            0    1.5228537       56 
 7406000 0.00013660374            0     1.524845 5.857152e-05            0     1.524845       59 
 7407000 0.00013931456            0    1.5041177 5.973384e-05            0    1.5041177       61 
 7408000 0.00014313757            0    1.5711495 6.1373029e-05            0    1.5711495       60 
 7409000 0.00013324111            0    1.6250234 5.712973e-05            0    1.6250234       54 
 7410000 0.00013323777            0    1.5954375 5.7128298e-05            0    1.5954375       55 
 7411000 0.00014754122            0    1.6194862 6.3261178e-05            0    1.6194862       60 
 7412000 0.0001639883            0    1.7419525 7.0313187e-05            0    1.7419525       62 
 7413000 0.00014653206            0    1.6356703 6.2828481e-05            0    1.6356703       59 
 7414000 0.00016388805 -1.5697086e-05    1.7408719 7.0236578e-05 -1.5697086e-05    1.7408876       62 
 7415000 0.00016956505            0    1.6667739 7.2704328e-05            0    1.6667739       67 
 7416000 0.0001692124 -0.0015675843    1.7129185 7.2329503e-05 -0.0015675843    1.7144861       65 
 7417000 0.00016872989            0    1.6585645 7.2346237e-05            0    1.6585645       67 
 7418000   0.00016311            0    1.5568495 6.9936597e-05            0    1.5568495       69 
 7419000 0.00016632803            0    1.6597269 7.1316392e-05            0    1.6597269       66 
 7420000 0.00017616001            0    1.7578367 7.5532046e-05            0    1.7578367       66 
 7421000 0.00016560511            0    1.6039098 7.1006426e-05            0    1.6039098       68 
 7422000 0.0001600595            0    1.5277331 6.8628636e-05            0    1.5277331       69 
 7423000 0.00017225532            0    1.6206519 7.3857834e-05            0    1.6206519       70 
 7424000 0.00014489861            0    1.4243101 6.2128111e-05            0    1.4243101       67 
 7425000 0.00015817596            0    1.5097551 6.7821031e-05            0    1.5097551       69 
 7426000 0.00016717398            0     1.508207 7.1679107e-05            0     1.508207       73 
 7427000 0.00017330779            0    1.5635449 7.4309098e-05            0    1.5635449       73 
 7428000 0.00016521553            0    1.6001367 7.0839387e-05            0    1.6001367       68 
 7429000 0.00015550906 -0.00025846388    1.5515099 6.6612912e-05 -0.00025846388    1.5517683       66 
 7430000 0.00018973204 -5.2237546e-05    1.7116687 8.1312202e-05 -5.2237546e-05    1.7117209       73 
 7431000 0.00015520399            0    1.5031735 6.6546744e-05            0    1.5031735       68 
 7432000 0.00015314847            0    1.5759696 6.5665398e-05            0    1.5759696       64 
 7433000 0.00015557659 -0.0030453893    1.5493968 6.6308028e-05 -0.0030453893    1.5524422       66 
 7434000 0.00014790931            0    1.5711547 6.3419004e-05            0    1.5711547       62 
 7435000 0.00017875263            0     1.706155 7.6643683e-05            0     1.706155       69 
 7436000 0.00015432471            0    1.5636417 6.6169733e-05            0    1.5636417       65 
 7437000 0.00013700447            0    1.4322186 5.8743341e-05            0    1.4322186       63 
 7438000 0.00014412968            0     1.483162 6.1798415e-05            0     1.483162       64 
 7439000 0.00015695283            0    1.5427994 6.729659e-05            0    1.5427994       67 
 7440000 0.00015572195            0    1.6278876 6.6768829e-05            0    1.6278876       63 
 7441000 0.00015604885 -0.0045617815    1.5293519 6.6341062e-05 -0.0045617815    1.5339136       67 
 7442000 0.00016133466            0    1.6865618 6.9175387e-05            0    1.6865618       63 
 7443000 0.00015525795            0    1.5730974 6.6569878e-05            0    1.5730974       65 
 7444000 0.00015727502            0    1.7555891 6.7434736e-05            0    1.7555891       59 
 7445000 0.00014749629 -0.011865174    1.5549022 6.2265366e-05 -0.011865174    1.5667674       62 
 7446000 0.00013426665 -0.012786323    1.4368313 5.6602131e-05 -0.012786323    1.4496176       61 
 7447000 0.00012396757 -0.0060484116    1.4016033 5.8733242e-05 -0.0060484116    1.4076517       58 
 7448000 0.00012752196            0    1.4234693 5.4677532e-05            0    1.4234693       59 
 7449000 0.0001343708            0    1.5802726 5.7614105e-05            0    1.5802726       56 
 7450000 0.00012614529            0    1.4323798 5.4087258e-05            0    1.4323798       58 
 7451000 0.00013765296            0    1.4622075 5.9021396e-05            0    1.4622075       62 
 7452000 0.00014556186            0    1.5462191 6.241249e-05            0    1.5462191       62 
 7453000 0.00014448806            0    1.5104507 6.1952078e-05            0    1.5104507       63 
 7454000 0.00014828381            0    1.4796702 6.3579581e-05            0    1.4796702       66 
 7455000 0.00012749316 -0.0066920383    1.3927366  5.39588e-05 -0.0066920383    1.3994287       60 
 7456000 0.00013499469            0    1.5068839 5.7881609e-05            0    1.5068839       59 
 7457000 0.00014900521            0    1.5576721 6.3888893e-05            0    1.5576721       63 
 7458000 0.00012663499            0    1.4379403 5.4297223e-05            0    1.4379403       58 
 7459000 0.00013149223            0    1.3967656 5.6379862e-05            0    1.3967656       62 
 7460000 0.00012418529            0     1.434863 5.324687e-05            0     1.434863       57 
 7461000 0.00013411724            0    1.4721378 5.7505384e-05            0    1.4721378       60 
 7462000 0.00010877566 -0.0023508797     1.254466 4.6324375e-05 -0.0023508797    1.2568169       57 
 7463000 0.00010538778            0    1.2853211 4.518707e-05            0    1.2853211       54 
 7464000 9.9184642e-05            0    1.2324908 4.2527353e-05            0    1.2324908       53 
 7465000 9.7070905e-05            0     1.253528 4.1621046e-05            0     1.253528       51 
 7466000 0.00010251717            0    1.2503108 4.3956241e-05            0    1.2503108       54 
 7467000 9.8355331e-05            0    1.2701145 4.2171769e-05            0    1.2701145       51 
 7468000  8.88921e-05            0    1.2196552 3.8114224e-05            0    1.2196552       48 
 7469000 9.788624e-05            0     1.315651 4.1970637e-05            0     1.315651       49 
 7470000 0.0001030042 -0.0005970397    1.1895352 4.4067997e-05 -0.0005970397    1.1901322       57 
 7471000 9.5723699e-05            0    1.1894844 4.1043406e-05            0    1.1894844       53 
 7472000 0.00010628599            0    1.2962758 4.5572196e-05            0    1.2962758       54 
 7473000 9.3046371e-05            0     1.201557 3.9895449e-05            0     1.201557       51 
 7474000 0.00012123879 -0.008948682    1.4696931 5.117501e-05 -0.008948682    1.4786418       54 
 7475000 0.00011954757            0    1.4315061 5.1258357e-05            0    1.4315061       55 
 7476000 0.00010137675            0    1.2597305 4.3467263e-05            0    1.2597305       53 
 7477000 0.00010174108 -0.012004472    1.2765659 4.268562e-05 -0.012004472    1.2885704       52 
 7478000 9.7915232e-05            0    1.3160407 4.1983068e-05            0    1.3160407       49 
 7479000 9.8552108e-05            0    1.3521965 4.2256141e-05            0    1.3521965       48 
 7480000 0.00010937139            0    1.2862661 4.6895119e-05            0    1.2862661       56 
 7481000 0.00010138939            0    1.3092949 4.3472682e-05            0    1.3092949       51 
 7482000 0.00010883109            0    1.3523597 4.6663454e-05            0    1.3523597       53 
 7483000 0.0001199761            0    1.4366375 5.1442097e-05            0    1.4366375       55 
 7484000 0.00010383716            0    1.3409042 4.452221e-05            0    1.3409042       51 
 7485000 0.00010740681            0    1.3099453 4.6052766e-05            0    1.3099453       54 
 7486000 0.00010635563 -0.0030697567     1.456196 4.529667e-05 -0.0030697567    1.4592658       48 
 7487000 0.00011359854            0    1.5268339 4.8707592e-05            0    1.5268339       49 
 7488000 0.00013215456            0    1.5824667 5.6663848e-05            0    1.5824667       55 
 7489000 0.00012081928            0    1.5602033 5.1803626e-05            0    1.5602033       51 
 7490000 0.00010517366            0    1.3853265 4.5095263e-05            0    1.3853265       50 
 7491000 0.00011096648 -0.020013141    1.5025163 4.7076008e-05 -0.020013141    1.5225295       48 
 7492000 0.00013193886            0    1.4482269 5.6571362e-05            0    1.4482269       60 
 7493000 0.00013090829            0     1.596572 5.6129485e-05            0     1.596572       54 
 7494000 0.0001219531            0    1.6391243 5.2289773e-05            0    1.6391243       49 
 7495000 0.00013500493            0    1.7433901 5.7885999e-05            0    1.7433901       51 
 7496000 0.00012421693            0    1.4608577 5.3260436e-05            0    1.4608577       56 
 7497000 0.00011858822            0    1.5019426 5.0847016e-05            0    1.5019426       52 
 7498000 0.00011468213 -0.00039018758    1.5410078 4.9103616e-05 -0.00039018758     1.541398       49 
 7499000 0.00012541774            0    1.5017976 5.3775306e-05            0    1.5017976       55 
 7500000 0.00011587187            0    1.5573889 4.9682328e-05            0    1.5573889       49 
 7501000 0.00010878947            0     1.462197 4.6645609e-05            0     1.462197       49 
 7502000 0.00011440543            0    1.5069255 4.9053564e-05            0    1.5069255       50 
 7503000 0.00011702411            0    1.5728756 5.0176371e-05            0    1.5728756       49 
 7504000 0.00011111849            0    1.3552134 4.7644222e-05            0    1.3552134       54 
 7505000 9.7326196e-05            0    1.3934361 4.1730507e-05            0    1.3934361       46 
 7506000 0.00010858385            0    1.4302448 4.6557447e-05            0    1.4302448       50 
 7507000 0.00010491608            0    1.3548369 4.4984818e-05            0    1.3548369       51 
 7508000 0.00011130463 -0.0059625189    1.4900398 4.7176934e-05 -0.0059625189    1.4960023       49 
 7509000 0.0001016349            0    1.4241645 4.357795e-05            0    1.4241645       47 
 7510000 0.00012962327            0    1.6107281 5.5578509e-05            0    1.6107281       53 
 7511000 0.00011130544 -0.00024976796    1.4658432 4.7668531e-05 -0.00024976796    1.4660929       50 
 7512000 0.00012220352            0    1.5477311 5.2397147e-05            0    1.5477311       52 
 7513000 0.00011534084            0    1.5825484 4.9454638e-05            0    1.5825484       48 
 7514000 0.00011589783            0    1.4966501 4.9693459e-05            0    1.4966501       51 
 7515000 0.00011480141            0    1.5430013 4.9223348e-05            0    1.5430013       49 
 7516000 0.0001233124            0    1.5617752 5.2872599e-05            0    1.5617752       52 
 7517000 0.00011134397            0    1.4101928 4.7740902e-05            0    1.4101928       52 
 7518000 0.00011360198            0    1.5268801 4.8709066e-05            0    1.5268801       49 
 7519000 0.00011521727            0    1.4878616 4.9401654e-05            0    1.4878616       51 
 7520000 0.0001508194            0    1.6554691 6.4666762e-05            0    1.6554691       60 
 7521000 0.00013701889            0    1.5294791 5.8749524e-05            0    1.5294791       59 
 7522000 0.0001102659            0    1.3701891 4.727866e-05            0    1.3701891       53 
 7523000 0.00011462298            0    1.4517221 4.9146843e-05            0    1.4517221       52 
 7524000 0.00013428503            0    1.5248066 5.7577331e-05            0    1.5248066       58 
 7525000 0.00010894109            0    1.3797599 4.6710622e-05            0    1.3797599       52 
 7526000 0.00010843011            0    1.3473771 4.6491527e-05            0    1.3473771       53 
 7527000 0.00011921907 -0.006166249    1.4214062 5.0499172e-05 -0.006166249    1.4275724       55 
 7528000 0.00013420198            0    1.5782872 5.7541721e-05            0    1.5782872       56 
 7529000 0.00011368452 -0.010142128    1.3511576 4.785884e-05 -0.010142128    1.3612998       55 
 7530000 0.00011423765            0    1.4195429 4.8981623e-05            0    1.4195429       53 
 7531000 0.00011827878            0    1.5273965 5.0714338e-05            0    1.5273965       51 
 7532000 0.00012616712            0    1.5979308 5.4096616e-05            0    1.5979308       52 
 7533000 0.00011618376            0    1.5303493 4.9816058e-05            0    1.5303493       50 
 7534000 0.00011437339            0    1.4769641 4.9039825e-05            0    1.4769641       51 
 7535000 0.00013865943            0    1.6603585 5.945294e-05            0    1.6603585       55 
 7536000 0.00012653459            0    1.5151712 5.4254176e-05            0    1.5151712       55 
 7537000 0.00011924972 -0.0009404024    1.4015002 5.0998329e-05 -0.0009404024    1.4024406       56 
 7538000 0.0001237971            0    1.5098432 5.3080424e-05            0    1.5098432       54 
 7539000 0.00011048666            0    1.2993823 4.7373314e-05            0    1.2993823       56 
 7540000 0.00011089335            0    1.3524676 4.754769e-05            0    1.3524676       54 
 7541000 0.00010736648            0    1.2856453 4.6035477e-05            0    1.2856453       55 
 7542000 0.00011016872            0    1.2956431 4.7236989e-05            0    1.2956431       56 
 7543000 0.00010043304            0    1.2480037 4.3062626e-05            0    1.2480037       53 
 7544000 0.00010056472            0    1.2736715 4.3119087e-05            0    1.2736715       52 
 7545000 0.00012120074            0    1.3529084 5.1967186e-05            0    1.3529084       59 
 7546000 0.00012893455            0    1.5725001 5.5283206e-05            0    1.5725001       54 
 7547000 0.00011741779            0    1.4320404 5.034517e-05            0    1.4320404       54 
 7548000 0.00013075191 -0.0012735883    1.4103969 5.5883362e-05 -0.0012735883    1.4116705       61 
 7549000 0.0001305902            0    1.6227434 5.5993097e-05            0    1.6227434       53 
 7550000 0.00012007494            0    1.4920785 5.1484478e-05            0    1.4920785       53 
 7551000 0.00012711221            0    1.5795251 5.4501844e-05            0    1.5795251       53 
 7552000 0.0001053344 -0.006498767    1.5701418 4.4576764e-05 -0.006498767    1.5766405       44 
 7553000 0.00014503914 -0.015783168    1.6032224 6.1125387e-05 -0.015783168    1.6190055       59 
 7554000 0.00010353351            0    1.4823073 4.4392015e-05            0    1.4823073       46 
 7555000 0.00011690624            0    1.5096722 5.0125836e-05            0    1.5096722       51 
 7556000 0.00010510268            0    1.4126444 4.5064827e-05            0    1.4126444       49 
 7557000 0.00010606679            0    1.3970906 4.547821e-05            0    1.3970906       50 
 7558000 9.8019396e-05            0    1.3174407 4.2027731e-05            0    1.3174407       49 
 7559000 0.00010536195            0    1.4763899 4.5175994e-05            0    1.4763899       47 
 7560000 0.00012317704            0    1.6224634 5.2814562e-05            0    1.6224634       50 
 7561000 0.00011800141            0    1.5860112 5.0595408e-05            0    1.5860112       49 
 7562000 0.00011849669            0    1.5302104 5.0807768e-05            0    1.5302104       51 
 7563000 0.00012666318            0    1.5447982 5.4309313e-05            0    1.5447982       54 
 7564000 9.758764e-05            0     1.367452 4.1842607e-05            0     1.367452       47 
 7565000 0.00011200048            0     1.475248 4.8022394e-05            0     1.475248       50 
 7566000 0.00011932332            0    1.5408851 5.1162202e-05            0    1.5408851       51 
 7567000 0.00011930198            0    1.3784402 5.1153055e-05            0    1.3784402       57 
 7568000 0.00013253266            0    1.4794014 5.6825967e-05            0    1.4794014       59 
 7569000 0.00011207752 -0.00011481411    1.4193685 4.801214e-05 -0.00011481411    1.4194833       52 
 7570000 0.00011163717            0    1.3872287 4.7866616e-05            0    1.3872287       53 
 7571000 0.00010836002            0    1.3465061 4.6461474e-05            0    1.3465061       53 
 7572000 0.00011481383            0    1.4267027 4.9228673e-05            0    1.4267027       53 
 7573000 0.00010844404            0    1.3734646  4.64975e-05            0    1.3734646       52 
 7574000 0.00011862269            0    1.4740325 5.0861797e-05            0    1.4740325       53 
 7575000 0.00011099124            0    1.3792022 4.7589661e-05            0    1.3792022       53 
 7576000 0.0001041431            0    1.3997471 4.465339e-05            0    1.3997471       49 
 7577000 9.4941518e-05            0    1.2505507 4.070803e-05            0    1.2505507       50 
 7578000 9.7196527e-05            0    1.2551502 4.1674909e-05            0    1.2551502       51 
 7579000 9.6432414e-05            0    1.2701885 4.1347281e-05            0    1.2701885       50 
 7580000 9.8277348e-05 -0.00075230438    1.2439492 4.2031601e-05 -0.00075230438    1.2447015       52 
 7581000 0.00010159213 -0.00012345984    1.2622833 4.3515219e-05 -0.00012345984    1.2624068       53 
 7582000 9.6307284e-05            0    1.2944289 4.1293629e-05            0    1.2944289       49 
 7583000 9.7094055e-05            0    1.4210039 4.1630972e-05            0    1.4210039       45 
 7584000 9.5379838e-05            0    1.3655697 4.0895968e-05            0    1.3655697       46 
 7585000 8.3055734e-05            0    1.2720855 3.5611768e-05            0    1.2720855       43 
 7586000 8.724391e-05            0    1.2768437 3.740753e-05            0    1.2768437       45 
 7587000 8.4845036e-05            0    1.2417354 3.6378966e-05            0    1.2417354       45 
 7588000 9.7342797e-05            0    1.2821799 4.1737626e-05            0    1.2821799       50 
 7589000 0.00010340104            0    1.3897733 4.4335217e-05            0    1.3897733       49 
 7590000 8.9242852e-05            0    1.2777054 3.8264616e-05            0    1.2777054       46 
 7591000 8.8137214e-05            0    1.2350274 3.7790552e-05            0    1.2350274       47 
 7592000 9.7463064e-05            0    1.3372542 4.1789192e-05            0    1.3372542       48 
 7593000 7.7595895e-05            0    1.1614518 3.3270756e-05            0    1.1614518       44 
 7594000 9.4488016e-05            0    1.3240184 4.0513582e-05            0    1.3240184       47 
 7595000 0.00010271484            0    1.2763578 4.4040993e-05            0    1.2763578       53 
 7596000 0.0001024314            0    1.4054228 4.3919463e-05            0    1.4054228       48 
 7597000 9.1321733e-05            0    1.3074691 3.9155977e-05            0    1.3074691       46 
 7598000 9.5010168e-05            0    1.2769948 4.0737465e-05            0    1.2769948       49 
 7599000 7.7763761e-05            0    1.1380986 3.3342731e-05            0    1.1380986       45 
 7600000 8.0725029e-05            0    1.1557543 3.4612433e-05            0    1.1557543       46 
 7601000 7.853677e-05            0    1.1755348 3.3674174e-05            0    1.1755348       44 
 7602000 8.4810837e-05 -0.019475623    1.2499691 3.5468709e-05 -0.019475623    1.2694447       44 
 7603000 8.1369536e-05            0    1.1401949 3.4888778e-05            0    1.1401949       47 
 7604000 9.1359782e-05 -0.019882998    1.2336303 3.8618108e-05 -0.019882998    1.2535133       48 
 7605000 9.1636466e-05            0    1.3716105 3.9290925e-05            0    1.3716105       44 
 7606000 0.00011005339            0    1.4496012 4.7187541e-05            0    1.4496012       50 
 7607000 8.8569033e-05            0    1.2152225 3.7975703e-05            0    1.2152225       48 
 7608000 8.0860597e-05            0    1.2384647 3.467056e-05            0    1.2384647       43 
 7609000 8.9714823e-05            0    1.3130063 3.8466983e-05            0    1.3130063       45 
 7610000 7.1889474e-05            0    1.1010625 3.0824016e-05            0    1.1010625       43 
 7611000 7.7224215e-05            0    1.2714774 3.311139e-05            0    1.2714774       40 
 7612000 9.3721047e-05 -0.002989823    1.4666231 3.9918198e-05 -0.002989823     1.469613       42 
 7613000 9.5521371e-05            0    1.3106129 4.0956653e-05            0    1.3106129       48 
 7614000 7.8106655e-05            0    1.2247681 3.3489754e-05            0    1.2247681       42 
 7615000 8.7674747e-05            0    1.2285471 3.759226e-05            0    1.2285471       47 
 7616000 8.0589502e-05            0    1.2343126 3.4554323e-05            0    1.2343126       43 
 7617000 8.2985169e-05            0    1.3330049 3.5581512e-05            0    1.3330049       41 
 7618000 9.0049494e-05            0    1.2892543 3.8610479e-05            0    1.2892543       46 
 7619000 9.7733357e-05 -0.011176239    1.5213526 4.1112692e-05 -0.011176239    1.5325288       42 
 7620000 9.2397351e-05            0    1.4841944 3.9617169e-05            0    1.4841944       41 
 7621000 9.4897205e-05            0      1.45345 4.068903e-05            0      1.45345       43 
 7622000 8.6875758e-05            0    1.4303876 3.7249678e-05            0    1.4303876       40 
 7623000 9.5183917e-05            0    1.4247085 4.0811964e-05            0    1.4247085       44 
 7624000 8.3644158e-05            0    1.4496633 3.5864067e-05            0    1.4496633       38 
 7625000 0.00011425521            0    1.5676529 4.8989155e-05            0    1.5676529       48 
 7626000 0.00010286113            0    1.5396207 4.4103718e-05            0    1.5396207       44 
 7627000 9.6912525e-05            0    1.3875135 4.1553138e-05            0    1.3875135       46 
 7628000 0.00010380564            0    1.5192302 4.4508696e-05            0    1.5192302       45 
 7629000 8.2756853e-05            0    1.3293375 3.5483617e-05            0    1.3293375       41 
 7630000 9.6363683e-05            0    1.3796556 4.1317811e-05            0    1.3796556       46 
 7631000 8.7975566e-05 -0.00062541043    1.4850112 3.764256e-05 -0.00062541043    1.4856366       39 
 7632000 8.9194895e-05            0    1.4685717 3.8244053e-05            0    1.4685717       40 
 7633000 9.5203278e-05            0    1.4928554 4.0820265e-05            0    1.4928554       42 
 7634000 7.4451311e-05            0    1.2572536 3.1922454e-05            0    1.2572536       39 
 7635000 7.2527616e-05            0    1.3268323 3.1097632e-05            0    1.3268323       36 
 7636000 7.0554466e-05            0    1.2907352 3.0251605e-05            0    1.2907352       36 
 7637000 6.797064e-05            0    1.2434662 2.9143739e-05            0    1.2434662       36 
 7638000 8.0718791e-05            0    1.4367727 3.4609758e-05            0    1.4367727       37 
 7639000 8.1149946e-05            0    1.4444471 3.4794624e-05            0    1.4444471       37 
 7640000 8.2251917e-05            0    1.4640619 3.5267116e-05            0    1.4640619       37 
 7641000 7.9793719e-05            0    1.4203066 3.4213116e-05            0    1.4203066       37 
 7642000 8.154878e-05            0    1.4515462 3.4965632e-05            0    1.4515462       37 
 7643000 8.365847e-05            0    1.4499114 3.5870203e-05            0    1.4499114       38 
 7644000 6.813907e-05            0    1.2821631 2.9215957e-05            0    1.2821631       35 
 7645000 5.3869284e-05            0     1.075084 2.3097508e-05            0     1.075084       33 
 7646000 6.1549805e-05            0    1.0955699 2.6390681e-05            0    1.0955699       37 
 7647000 6.6822105e-05            0    1.1894154 2.8651283e-05            0    1.1894154       37 
 7648000 7.4021809e-05            0    1.2500006 3.1738296e-05            0    1.2500006       39 
 7649000 6.6555325e-05            0    1.1846668 2.8536896e-05            0    1.1846668       37 
 7650000 7.9079253e-05            0    1.3354053 3.3906774e-05            0    1.3354053       39 
 7651000 9.2407807e-05            0    1.3524191 3.9621652e-05            0    1.3524191       45 
 7652000 9.0416999e-05            0    1.4886933 3.8768054e-05            0    1.4886933       40 
 7653000 9.1883872e-05            0    1.4072977 3.9397005e-05            0    1.4072977       43 
 7654000 7.7338506e-05            0    1.2423016 3.3160395e-05            0    1.2423016       41 
 7655000 9.0443026e-05            0    1.3852296 3.8779214e-05            0    1.3852296       43 
 7656000 9.2242868e-05            0    1.3806871 3.9550931e-05            0    1.3806871       44 
 7657000 9.1648805e-05            0    1.4721704 3.9296215e-05            0    1.4721704       41 
 7658000 9.7591827e-05            0     1.494721 4.1844402e-05            0     1.494721       43 
 7659000 9.0332007e-05            0    1.3520854 3.8731612e-05            0    1.3520854       44 
 7660000 8.3590816e-05            0    1.3427335 3.5841195e-05            0    1.3427335       41 
 7661000 8.1172097e-05            0    1.3364783 3.4804122e-05            0    1.3364783       40 
 7662000 8.7442961e-05            0    1.3392805 3.7492877e-05            0    1.3392805       43 
 7663000 9.5300056e-05            0    1.3644275 4.086176e-05            0    1.3644275       46 
 7664000 7.6137803e-05            0    1.2535899 3.264557e-05            0    1.2535899       40 
 7665000 7.6008697e-05 -0.014967407    1.2685856 3.1682146e-05 -0.014967407     1.283553       39 
 7666000 8.0807742e-05            0    1.2980286 3.4647898e-05            0    1.2980286       41 
 7667000 8.3595168e-05            0    1.3428035 3.5843061e-05            0    1.3428035       41 
 7668000 7.6883167e-05            0    1.2658621 3.2965159e-05            0    1.2658621       40 
 7669000 7.383225e-05            0    1.2156295 3.1657019e-05            0    1.2156295       40 
 7670000 7.9954233e-05            0    1.2843185 3.4281939e-05            0    1.2843185       41 
 7671000 7.2383351e-05            0    1.1627061 3.1035775e-05            0    1.1627061       41 
 7672000 7.0053299e-05            0    1.2469298 3.003672e-05            0    1.2469298       37 
 7673000 7.5263395e-05            0    1.1801838 3.2270651e-05            0    1.1801838       42 
 7674000 8.035731e-05            0    1.2907932 3.4454766e-05            0    1.2907932       41 
 7675000 8.9180161e-05            0    1.5059785 3.8237736e-05            0    1.5059785       39 
 7676000 9.3681714e-05            0    1.4348335 4.0167864e-05            0    1.4348335       43 
 7677000 9.0693018e-05            0    1.4932379 3.8886403e-05            0    1.4932379       40 
 7678000 9.6791016e-05            0    1.5547706 4.1501038e-05            0    1.5547706       41 
 7679000 0.00011830978            0    1.6578221 5.0727631e-05            0    1.6578221       47 
 7680000 0.00011988345            0    1.6448759 5.1402372e-05            0    1.6448759       48 
 7681000 0.0001078461            0    1.5783637 4.6241123e-05            0    1.5783637       45 
 7682000 0.00011719727            0    1.6080197 5.0250617e-05            0    1.6080197       48 
 7683000 9.6470897e-05            0    1.5496285 4.1363781e-05            0    1.5496285       41 
 7684000 0.00010060638            0    1.5058717 4.3136949e-05            0    1.5058717       44 
 7685000 0.00010083316            0    1.5443654 4.3234188e-05            0    1.5443654       43 
 7686000 0.00011269931            0     1.546305 4.832203e-05            0     1.546305       48 
 7687000 0.00010876249            0    1.5917753 4.6634042e-05            0    1.5917753       45 
 7688000 0.00010929871            0    1.5996231 4.6863957e-05            0    1.5996231       45 
 7689000 0.00010852379            0     1.553754 4.6531694e-05            0     1.553754       46 
 7690000 0.00011521004            0    1.7645623 4.9398553e-05            0    1.7645623       43 
 7691000 0.00010823209            0    1.6576878 4.6406624e-05            0    1.6576878       43 
 7692000 0.00011560198            0    1.5861315 4.9566609e-05            0    1.5861315       48 
 7693000 0.00010673651            0    1.5976273 4.5765364e-05            0    1.5976273       44 
 7694000 0.00011244002 -0.00021205701    1.4808254 4.8158636e-05 -0.00021205701    1.4810375       50 
 7695000 0.00010417904            0    1.4294016 4.4668799e-05            0    1.4294016       48 
 7696000 0.00011848299            0    1.6256607 5.0801895e-05            0    1.6256607       48 
 7697000 0.00010954813            0    1.6397115 4.6970902e-05            0    1.6397115       44 
 7698000 0.00010692314            0    1.5308372 4.5845386e-05            0    1.5308372       46 
 7699000 0.0001188882            0    1.5979302 5.0975638e-05            0    1.5979302       49 
 7700000 0.00011947048            0    1.6392096  5.12253e-05            0    1.6392096       48 
 7701000 0.00013028435            0    1.7511014 5.5861958e-05            0    1.7511014       49 
 7702000 0.00010882127            0    1.4333721 4.6659246e-05            0    1.4333721       50 
 7703000 0.00011354963            0    1.5261766 4.8686622e-05            0    1.5261766       49 
 7704000 0.00015241367            0    1.8250567 6.5350339e-05            0    1.8250567       55 
 7705000 0.00014005018            0    1.7737625 6.0049251e-05            0    1.7737625       52 
 7706000 0.00012767609            0    1.7517958 5.4743619e-05            0    1.7517958       48 
 7707000 0.00015355531 -0.0004845595     1.872293 6.5757763e-05 -0.0004845595    1.8727776       54 
 7708000 0.00013302161            0    1.8251396 5.7035611e-05            0    1.8251396       48 
 7709000 0.0001448417            0    1.8704175 6.2103706e-05            0    1.8704175       51 
 7710000 0.00014702251            0    1.9760726 6.3038775e-05            0    1.9760726       49 
 7711000 0.00014143301            0    1.8263993 6.0642165e-05            0    1.8263993       51 
 7712000 0.00015033106 -0.018602423    1.8853693 6.4021682e-05 -0.018602423    1.9039717       52 
 7713000 0.00012319544            0    1.6903184 5.2822449e-05            0    1.6903184       48 
 7714000 0.0001355867            0    1.8223682 5.8135445e-05            0    1.8223682       49 
 7715000 0.00014087236            0    1.9328568 6.0401775e-05            0    1.9328568       48 
 7716000 0.00013391282            0    1.7638729 5.7417736e-05            0    1.7638729       50 
 7717000 0.00012830528 -0.00036117001    1.7975234 5.4948923e-05 -0.00036117001    1.7978846       47 
 7718000 0.00012863195            0    1.7288922 5.5153461e-05            0    1.7288922       49 
 7719000 0.00012808883            0    1.6871605 5.4920589e-05            0    1.6871605       50 
 7720000 0.00013678554            0    1.7324152 5.8649473e-05            0    1.7324152       52 
 7721000 0.00013860699            0    1.8629628 5.9430454e-05            0    1.8629628       49 
 7722000 0.0001583596            0    1.9313713 6.7899773e-05            0    1.9313713       54 
 7723000 0.00013778335            0    1.7792693 5.9077302e-05            0    1.7792693       51 
 7724000 0.00013010513            0    1.6478065 5.5785116e-05            0    1.6478065       52 
 7725000 0.00012481359            0    1.6775711 5.3516265e-05            0    1.6775711       49 
 7726000 0.0001189681            0    1.7807091 5.1009896e-05            0    1.7807091       44 
 7727000 0.00014083573            0      1.85506 6.0386068e-05            0      1.85506       50 
 7728000 0.00011951836            0    1.7491911 5.1245833e-05            0    1.7491911       45 
 7729000 0.00012583211            0    1.8015602 5.3952976e-05            0    1.8015602       46 
 7730000 0.00012567984            0    1.8393663 5.3887685e-05            0    1.8393663       45 
 7731000 0.00011034379            0    1.6516209 4.7312057e-05            0    1.6516209       44 
 7732000 0.00010834046            0    1.6988559 4.645309e-05            0    1.6988559       42 
 7733000 0.00011668801            0    1.6706425 5.0032263e-05            0    1.6706425       46 
 7734000 0.0001108299            0     1.586771 4.7520486e-05            0     1.586771       46 
 7735000 0.00013280137            0    1.8608862 5.6941179e-05            0    1.8608862       47 
 7736000 0.00012001775            0    1.8381975 5.1459956e-05            0    1.8381975       43 
 7737000 0.00011302361            0    1.7310748 4.8461079e-05            0    1.7310748       43 
 7738000 0.00012846685            0    1.8001485 5.5082669e-05            0    1.8001485       47 
 7739000 0.00012648934            0    1.8512136 5.4234774e-05            0    1.8512136       45 
 7740000 0.00011722797            0     1.795469 5.0263782e-05            0     1.795469       43 
 7741000 0.00012454885 -0.00092786564    1.7443195 5.3255287e-05 -0.00092786564    1.7452474       47 
 7742000 0.00010959596            0    1.6039734 4.6991408e-05            0    1.6039734       45 
 7743000 0.00010699733            0    1.7187164 4.5877196e-05            0    1.7187164       41 
 7744000 0.00010742712            0    1.7256202 4.6061475e-05            0    1.7256202       41 
 7745000 0.00010594232            0    1.7017696 4.542484e-05            0    1.7017696       41 
 7746000 9.3171744e-05            0    1.5340495 3.9949205e-05            0    1.5340495       40 
 7747000 0.00010165941            0    1.5216334 4.3588457e-05            0    1.5216334       44 
 7748000 8.1056208e-05            0    1.3687899 3.4754432e-05            0    1.3687899       39 
 7749000 8.6601113e-05            0    1.5009112 3.7131918e-05            0    1.5009112       38 
 7750000 7.3813284e-05            0    1.3138565 3.1648887e-05            0    1.3138565       37 
 7751000 0.00010023708            0    1.6101254 4.2978608e-05            0    1.6101254       41 
 7752000 9.5198208e-05            0    1.4249224 4.0818091e-05            0    1.4249224       44 
 7753000 7.5818023e-05            0    1.2483248 3.2508458e-05            0    1.2483248       40 
 7754000 8.0432159e-05            0    1.2612337 3.4486859e-05            0    1.2612337       42 
 7755000 8.0692612e-05            0    1.2358918 3.4598533e-05            0    1.2358918       43 
 7756000 8.4128784e-05            0    1.3851594 3.6071859e-05            0    1.3851594       40 
 7757000 9.3738635e-05            0    1.3135176 4.0192271e-05            0    1.3135176       47 
 7758000 9.2157632e-05            0    1.3794112 3.9514385e-05            0    1.3794112       44 
 7759000 9.9076999e-05 -0.00099387649     1.449031 4.2363854e-05 -0.00099387649    1.4500249       45 
 7760000 9.3942548e-05            0    1.3748805 4.0279702e-05            0    1.3748805       45 
 7761000 0.0001043916            0    1.4945927 4.4759938e-05            0    1.4945927       46 
 7762000 0.00010070665            0    1.5073726 4.3179943e-05            0    1.5073726       44 
 7763000 0.00010319561            0    1.5103021 4.4247133e-05            0    1.5103021       45 
 7764000 0.00012167485            0     1.780752 5.217047e-05            0     1.780752       45 
 7765000 0.00011820688            0    1.7299971 5.0683508e-05            0    1.7299971       45 
 7766000 0.00010936129            0    1.5657446 4.6890789e-05            0    1.5657446       46 
 7767000 0.00012730692            0    1.6768613 5.4585329e-05            0    1.6768613       50 
 7768000 0.00011509146            0    1.6477844 4.934771e-05            0    1.6477844       46 
 7769000 0.00010982651 -0.00091752646    1.5380323 4.6944105e-05 -0.00091752646    1.5389498       47 
 7770000 0.00010083121            0    1.4756984 4.323335e-05            0    1.4756984       45 
 7771000 0.00011661328            0    1.5360067 5.000022e-05            0    1.5360067       50 
 7772000 0.00010665476            0    1.5269947 4.573031e-05            0    1.5269947       46 
 7773000 0.00013240797            0    1.7440514 5.6772505e-05            0    1.7440514       50 
 7774000 0.00010104539            0    1.5476158 4.3325183e-05            0    1.5476158       43 
 7775000 0.00010745326            0    1.4442376 4.6072685e-05            0    1.4442376       49 
 7776000 0.0001034869            0    1.3631088 4.4372031e-05            0    1.3631088       50 
 7777000 0.00011654572            0    1.5664458 4.9971253e-05            0    1.5664458       49 
 7778000 8.9398629e-05            0    1.2266051 3.8331408e-05            0    1.2266051       48 
 7779000 9.2089806e-05 -0.0044149058    1.3140509 3.9083284e-05 -0.0044149058    1.3184658       46 
 7780000 9.4243629e-05            0    1.3792869 4.0408797e-05            0    1.3792869       45 
 7781000 8.7678083e-05            0     1.283198 3.7593691e-05            0     1.283198       45 
 7782000 0.00010246339            0     1.323164 4.3933181e-05            0     1.323164       51 
 7783000  9.64563e-05            0    1.4116701 4.1357522e-05            0    1.4116701       45 
 7784000 9.3921727e-05            0    1.3160832 4.0270775e-05            0    1.3160832       47 
 7785000 9.6692995e-05            0    1.2996131 4.145901e-05            0    1.2996131       49 
 7786000 9.2146677e-05            0      1.26431 3.9509687e-05            0      1.26431       48 
 7787000 9.8793691e-05            0    1.3012907 4.2359724e-05            0    1.3012907       50 
 7788000 0.00010886878            0    1.4339978 4.6679616e-05            0    1.4339978       50 
 7789000 0.0001030903            0    1.4144633 4.4201978e-05            0    1.4144633       48 
 7790000 0.00011268171            0    1.5145111 4.8314482e-05            0    1.5145111       49 
 7791000 9.9871525e-05            0    1.3702997 4.2821867e-05            0    1.3702997       48 
 7792000 0.00010264484            0    1.4083514 4.401098e-05            0    1.4083514       48 
 7793000 0.00010542008            0    1.5428581 4.520092e-05            0    1.5428581       45 
 7794000 0.00010326654            0    1.3879655 4.4277545e-05            0    1.3879655       49 
 7795000 0.00010764227            0    1.4467779 4.6153724e-05            0    1.4467779       49 
 7796000 0.00010830503            0    1.4556859 4.6437898e-05            0    1.4556859       49 
 7797000 9.225946e-05            0    1.3809354 3.9558045e-05            0    1.3809354       44 
 7798000 9.9448468e-05            0    1.3935269 4.2640473e-05            0    1.3935269       47 
 7799000 9.4816532e-05            0    1.4192095 4.065444e-05            0    1.4192095       44 
 7800000 9.8628942e-05            0    1.2991207 4.2289085e-05            0    1.2991207       50 
 7801000 0.00011291663            0    1.5822502 4.8415209e-05            0    1.5822502       47 
 7802000 9.1968977e-05            0    1.3765875 3.9433495e-05            0    1.3765875       44 
 7803000 0.00010530226            0    1.4448128  4.51504e-05            0    1.4448128       48 
 7804000 0.00011148275            0    1.4396358 4.7800408e-05            0    1.4396358       51 
 7805000 9.7476424e-05            0       1.4266 4.1794921e-05            0       1.4266       45 
 7806000 8.6267039e-05            0    1.2912411 3.6988678e-05            0    1.2912411       44 
 7807000 9.9926705e-05 -0.0071462562     1.393082 4.2232023e-05 -0.0071462562    1.4002283       47 
 7808000 9.9542064e-05 -0.020166285     1.436665 4.1899965e-05 -0.020166285    1.4568313       45 
 7809000 8.2921316e-05 -0.019292201    1.2507345 3.4622646e-05 -0.019292201    1.2700267       43 
 7810000 8.4995802e-05 -0.018275523    1.2835241 3.5478956e-05 -0.018275523    1.3017997       43 
 7811000 0.00010406319 -0.013661608    1.4445293 4.3670423e-05 -0.013661608    1.4581909       47 
 7812000 9.4279137e-05 -0.015701893    1.3641047 3.9450182e-05 -0.015701893    1.3798066       45 
 7813000 8.1705842e-05 -0.016817179    1.2643888 3.4059188e-05 -0.016817179     1.281206       42 
 7814000 8.3938027e-05 -0.013963121    1.1877922 3.5041251e-05 -0.013963121    1.2017553       46 
 7815000 9.8906472e-05 -0.015710651    1.2870656 4.1443275e-05 -0.015710651    1.3027763       50 
 7816000 0.00010110142 -0.011618296    1.2939579 4.2434093e-05 -0.011618296    1.3055762       51 
 7817000 0.0001027064 -0.016824817    1.2839715 4.3173919e-05 -0.016824817    1.3007963       52 
 7818000 0.00010963501 -0.010681167    1.3778673 4.6124733e-05 -0.010681167    1.3885485       52 
 7819000 9.3082773e-05 -0.020322719    1.2840046 3.9362817e-05 -0.020322719    1.3043273       47 
 7820000 9.7079523e-05 -0.010798343    1.2940099 4.0766736e-05 -0.010798343    1.3048082       49 
 7821000 9.1915588e-05 -0.020040825    1.2153609 3.9577414e-05 -0.020040825    1.2354018       49 
 7822000 8.9729425e-05 -0.010670633    1.2204732 3.7632773e-05 -0.010670633    1.2311438       48 
 7823000 0.00010156301 -0.019484149    1.4036729 4.4830554e-05 -0.019484149     1.423157       47 
 7824000 0.0001008231  -0.01071667    1.4020724 4.2398543e-05  -0.01071667     1.412789       47 
 7825000 0.00011542949 -0.016227604    1.4457091 5.1499719e-05 -0.016227604    1.4619367       52 
 7826000 0.00012070138 -0.0094927648    1.4903699 5.092236e-05 -0.0094927648    1.4998626       53 
 7827000 0.00011845487 -0.017672575    1.5119979 5.2232823e-05 -0.017672575    1.5296704       51 
 7828000 0.00012549493 -0.0098164896     1.579601 5.2969778e-05 -0.0098164896    1.5894175       52 
 7829000 0.00012091993 -0.018456667    1.4841217 5.2157347e-05 -0.018456667    1.5025784       53 
 7830000 0.00013845558 -0.010924059     1.888773 5.8512372e-05 -0.010924059    1.8996971       48 
 7831000 0.00011620546            0    1.5618726 4.9825362e-05            0    1.5618726       49 
 7832000 0.00011528325            0    1.4325358 4.9429947e-05            0    1.4325358       53 
 7833000 9.5376498e-05            0    1.3958668 4.0894536e-05            0    1.3958668       45 
 7834000 9.7833878e-05            0    1.3709024 4.1948186e-05            0    1.3709024       47 
 7835000 0.00010738557            0    1.4433278 4.6043661e-05            0    1.4433278       49 
 7836000 9.0887558e-05            0     1.301253 3.8969815e-05            0     1.301253       46 
 7837000 8.9376548e-05            0    1.2263021 3.832194e-05            0    1.2263021       48 
 7838000 9.9036488e-05            0    1.3877541 4.2463829e-05            0    1.3877541       47 
 7839000 9.7256997e-05 -0.0020102087    1.1841469 4.1465083e-05 -0.0020102087    1.1861571       54 
 7840000 0.00010787483            0    1.2917325 4.6253441e-05            0    1.2917325       55 
 7841000 0.00011291587            0    1.4301013 4.8414886e-05            0    1.4301013       52 
 7842000 7.8693814e-05            0     1.057693 3.374151e-05            0     1.057693       49 
 7843000 9.0794609e-05            0    1.1959284 3.8929962e-05            0    1.1959284       50 
 7844000 0.00011015508 -0.0028007757    1.3660112 4.6923824e-05 -0.0028007757     1.368812       53 
 7845000 9.5463347e-05            0    1.3098168 4.0931775e-05            0    1.3098168       48 
 7846000 9.2743901e-05            0    1.2725043 3.9765759e-05            0    1.2725043       48 
 7847000 0.00010274368            0     1.380938 4.4053359e-05            0     1.380938       49 
 7848000 0.00010091166            0    1.3031256 4.3267843e-05            0    1.3031256       51 
 7849000 0.00010650751            0    1.2989774 4.5667175e-05            0    1.2989774       54 
 7850000 0.00011970889            0    1.3592945 5.1327526e-05            0    1.3592945       58 
 7851000 0.00010581434            0    1.3148729 4.5369965e-05            0    1.3148729       53 
 7852000 9.6407261e-05            0    1.2210165 4.1336496e-05            0    1.2210165       52 
 7853000 0.00010229901            0    1.3210413 4.3862698e-05            0    1.3210413       51 
 7854000 9.4844353e-05            0    1.1567323 4.0666369e-05            0    1.1567323       54 
 7855000 0.00010226952            0    1.1816436 4.3850054e-05            0    1.1816436       57 
 7856000 9.1666522e-05            0    1.0780474 3.9303812e-05            0    1.0780474       56 
 7857000 0.00011047432            0    1.2544359 4.7368024e-05            0    1.2544359       58 
 7858000 0.00011875085            0    1.2614213 5.0916746e-05            0    1.2614213       62 
 7859000 0.00011951949            0    1.2695861 5.1246314e-05            0    1.2695861       62 
 7860000 0.00011653137            0    1.1991624 4.9965102e-05            0    1.1991624       64 
 7861000 0.00011014437            0    1.2089997 4.722655e-05            0    1.2089997       60 
 7862000 0.00011461517            0    1.2174904 4.9143494e-05            0    1.2174904       62 
 7863000 9.9826479e-05            0    1.1534162 4.2802553e-05            0    1.1534162       57 
 7864000 0.00010592551            0    1.2683906 4.5417632e-05            0    1.2683906       55 
 7865000 9.4082836e-05            0    1.0683106 4.0339853e-05            0    1.0683106       58 
 7866000 9.5571567e-05            0    1.1239728 4.0978176e-05            0    1.1239728       56 
 7867000 0.00010629496            0     1.186522 4.5576041e-05            0     1.186522       59 
 7868000 0.00010611887            0    1.1093464 4.5500537e-05            0    1.1093464       63 
 7869000 0.00011675594            0    1.2205443 5.0061389e-05            0    1.2205443       63 
 7870000 0.0001153631            0    1.2254352 4.9464182e-05            0    1.2254352       62 
 7871000 0.00011097517            0    1.1244175 4.7582771e-05            0    1.1244175       65 
 7872000 0.00010470068            0    1.1687257 4.489246e-05            0    1.1687257       59 
 7873000 9.8439466e-05 -0.00048899984    1.0623183 4.2118779e-05 -0.00048899984    1.0628073       61 
 7874000 9.5866388e-05            0     1.035027 4.1104586e-05            0     1.035027       61 
 7875000 8.8231602e-05            0    1.0194465 3.7831022e-05            0    1.0194465       57 
 7876000 8.5035638e-05            0   0.94921391 3.646069e-05            0   0.94921391       59 
 7877000 9.1109659e-05            0    1.0170154 3.9065046e-05            0    1.0170154       59 
 7878000 9.3919734e-05            0     1.048383 4.026992e-05            0     1.048383       59 
 7879000 0.00011903124            0    1.2643997 5.1036968e-05            0    1.2643997       62 
 7880000 0.00011641644            0    1.1979798 4.9915824e-05            0    1.1979798       64 
 7881000 9.8555312e-05 -0.0045003391    1.0956275 4.1752507e-05 -0.0045003391    1.1001278       59 
 7882000 9.6719678e-05            0    1.0616435 4.1470451e-05            0    1.0616435       60 
 7883000 0.00010847213            0    1.1522365 4.6509546e-05            0    1.1522365       62 
 7884000 0.00010197693            0    1.1993033 4.3724599e-05            0    1.1993033       56 
 7885000 0.00011283859            0    1.2385728 4.8381748e-05            0    1.2385728       60 
 7886000 0.00012359725            0    1.3796596 5.2994736e-05            0    1.3796596       59 
 7887000 0.00011952759            0    1.3119946 5.1249787e-05            0    1.3119946       60 
 7888000 0.00010317152            0    1.2354133 4.4236804e-05            0    1.2354133       55 
 7889000 0.00011899679            0    1.4249108 5.1022197e-05            0    1.4249108       55 
 7890000 0.00013494191            0    1.4811899 5.785898e-05            0    1.4811899       60 
 7891000 0.00013199006            0    1.5522738 5.6593317e-05            0    1.5522738       56 
 7892000 0.00014158574            0    1.6077061 6.0707651e-05            0    1.6077061       58 
 7893000 0.0001329438            0    1.4839908 5.700225e-05            0    1.4839908       59 
 7894000 0.00014358795            0    1.5760931 6.1566138e-05            0    1.5760931       60 
 7895000 0.00012579708            0    1.4042152 5.3937953e-05            0    1.4042152       59 
 7896000 0.00012504967 -0.00027672951    1.4971135 5.3556385e-05 -0.00027672951    1.4973902       55 
 7897000 0.00012602651            0    1.4821393 5.4036327e-05            0    1.4821393       56 
 7898000 0.00011423843            0    1.3932645 4.8981956e-05            0    1.3932645       54 
 7899000 0.0001156648            0    1.4106608 4.9593544e-05            0    1.4106608       54 
 7900000 0.00012526123            0    1.4999235  5.37082e-05            0    1.4999235       55 
 7901000 0.00012393264            0    1.4575143 5.313854e-05            0    1.4575143       56 
 7902000 0.00013645308            0    1.4977772 5.8506921e-05            0    1.4977772       60 
 7903000 0.00012833901            0    1.4087132 5.5027857e-05            0    1.4087132       60 
 7904000 0.00013779552 -0.0028945433    1.5617736 5.8701451e-05 -0.0028945433    1.5646681       58 
 7905000 0.00010739776            0    1.2408963 4.6048888e-05            0    1.2408963       57 
 7906000 0.00012588468            0    1.5353035 5.3975514e-05            0    1.5353035       54 
 7907000 0.00011100625            0    1.5230751 4.7596097e-05            0    1.5230751       48 
 7908000 0.00011817394            0    1.4412625 5.0669386e-05            0    1.4412625       54 
 7909000 0.0001148611            0    1.4008587 4.924894e-05            0    1.4008587       54 
 7910000 0.0001071662            0    1.3838939 4.5949602e-05            0    1.3838939       51 
 7911000 0.00010122704            0    1.2820599 4.340307e-05            0    1.2820599       52 
 7912000 9.5007839e-05 -0.00056061653    1.2508636 4.0650832e-05 -0.00056061653    1.2514242       50 
 7913000 9.0809689e-05            0    1.1726736 3.8936428e-05            0    1.1726736       51 
 7914000 8.3319169e-05            0    1.0974634 3.5724721e-05            0    1.0974634       50 
 7915000 8.5817317e-05            0    1.1534373 3.6795851e-05            0    1.1534373       49 
 7916000 8.7165728e-05            0    1.1715608 3.7374009e-05            0    1.1715608       49 
 7917000 9.7512703e-05            0    1.3379352 4.1810476e-05            0    1.3379352       48 
 7918000 0.00010675338            0    1.3520521 4.5772598e-05            0    1.3520521       52 
 7919000 9.498397e-05            0    1.2766427 4.0726232e-05            0    1.2766427       49 
 7920000 0.00010685336            0    1.3533184 4.5815467e-05            0    1.3533184       52 
 7921000 0.00010008923 -0.0044847337    1.3138705 4.2438819e-05 -0.0044847337    1.3183553       50 
 7922000 9.0319904e-05            0    1.1896757 3.8726423e-05            0    1.1896757       50 
 7923000 0.00011224176            0    1.3947416 4.8125849e-05            0    1.3947416       53 
 7924000 0.0001022927            0     1.347379 4.3859992e-05            0     1.347379       50 
 7925000 8.7956439e-05            0    1.2068173 3.7713041e-05            0    1.2068173       48 
 7926000 0.00011352268            0    1.3845352 4.8675066e-05            0    1.3845352       54 
 7927000 9.8089586e-05            0    1.2188834 4.2057826e-05            0    1.2188834       53 
 7928000 9.735551e-05            0    1.2330263 4.1743076e-05            0    1.2330263       52 
 7929000 9.4856289e-05            0    1.2013731 4.0671487e-05            0    1.2013731       52 
 7930000 0.00010800898 -0.00088499311    1.3164045 4.6187825e-05 -0.00088499311    1.3172895       54 
 7931000 9.125755e-05            0    1.2020262 3.9128457e-05            0    1.2020262       50 
 7932000 9.2606718e-05            0    1.1728819 3.9706939e-05            0    1.1728819       52 
 7933000 9.9668919e-05            0    1.3396113 4.2734996e-05            0    1.3396113       49 
 7934000 0.00010827948            0    1.2965779 4.6426943e-05            0    1.2965779       55 
 7935000 9.6482591e-05            0    1.2459308 4.1368795e-05            0    1.2459308       51 
 7936000 0.00010026092            0    1.2947223 4.2988826e-05            0    1.2947223       51 
 7937000  0.000101092            0    1.3587384 4.334517e-05            0    1.3587384       49 
 7938000 9.7794811e-05            0    1.3144221 4.1931435e-05            0    1.3144221       49 
 7939000 9.9931025e-05            0    1.3431342 4.2847379e-05            0    1.3431342       49 
 7940000 8.2047685e-05            0    1.2007952 3.5179547e-05            0    1.2007952       45 
 7941000 8.8546957e-05            0    1.2407689 3.7966237e-05            0    1.2407689       47 
 7942000 8.5344042e-05            0    1.1241346 3.6592925e-05            0    1.1241346       50 
 7943000 7.7878682e-05            0    1.0912792 3.3392006e-05            0    1.0912792       47 
 7944000 7.8142895e-05            0    1.0949815 3.3505293e-05            0    1.0949815       47 
 7945000 9.2795685e-05            0     1.328572 3.9787962e-05            0     1.328572       46 
 7946000 8.4251876e-05            0    1.2904057 3.6124638e-05            0    1.2904057       43 
 7947000 7.9086163e-05            0    1.1081991 3.3909737e-05            0    1.1081991       47 
 7948000 5.9457566e-05            0    0.9323371 2.5493593e-05            0    0.9323371       42 
 7949000 7.2117895e-05            0    0.9895026 3.0921956e-05            0    0.9895026       48 
 7950000 9.145739e-05            0    1.2548526 3.9214142e-05            0    1.2548526       48 
 7951000 9.6897853e-05            0    1.3873034 4.1546847e-05            0    1.3873034       46 
 7952000 9.3252792e-05            0    1.3067097 3.9983956e-05            0    1.3067097       47 
 7953000 9.1230851e-05            0    1.2783771 3.9117009e-05            0    1.2783771       47 
 7954000 9.9395348e-05            0    1.2588612 4.2617697e-05            0    1.2588612       52 
 7955000 0.0001107743            0    1.4590969 4.7496644e-05            0    1.4590969       50 
 7956000 0.00010272211            0     1.353035 4.4044109e-05            0     1.353035       50 
 7957000 9.9533816e-05            0    1.3377954 4.2677068e-05            0    1.3377954       49 
 7958000 0.00010923814            0     1.383522 4.6837984e-05            0     1.383522       52 
 7959000 9.9687114e-05            0    1.3130587 4.2742797e-05            0    1.3130587       50 
 7960000 8.8270325e-05            0     1.211124 3.7847626e-05            0     1.211124       48 
 7961000 0.00010942295            0    1.3102702 4.6917226e-05            0    1.3102702       55 
 7962000 9.2351282e-05            0    1.1696467 3.9597416e-05            0    1.1696467       52 
 7963000 0.00010275046            0    1.3534085 4.4056265e-05            0    1.3534085       50 
 7964000 8.7368999e-05            0     1.150807 3.7461165e-05            0     1.150807       50 
 7965000 0.00010538231            0    1.3346872 4.5184722e-05            0    1.3346872       52 
 7966000 9.1980372e-05            0    1.1649491 3.9438381e-05            0    1.1649491       52 
 7967000 0.00010428082 -0.00063853021    1.2711819 4.4614515e-05 -0.00063853021    1.2718204       54 
 7968000 0.00012042808            0    1.4964666 5.1635891e-05            0    1.4964666       53 
 7969000 0.0001165859            0     1.347058 4.9988481e-05            0     1.347058       57 
 7970000 9.6844092e-05            0    1.1811213 4.1523796e-05            0    1.1811213       54 
 7971000 0.00011611741            0    1.3185132 4.9787609e-05            0    1.3185132       58 
 7972000  0.000117943            0      1.25284 5.0570363e-05            0      1.25284       62 
 7973000 0.00012400751            0     1.484911 5.3170642e-05            0     1.484911       55 
 7974000 0.00010569209            0    1.2890325 4.531755e-05            0    1.2890325       54 
 7975000 0.00012080195            0    1.3717062 5.1796196e-05            0    1.3717062       58 
 7976000 0.00011167389            0    1.2465645 4.7882362e-05            0    1.2465645       59 
 7977000 0.00012486581            0    1.4178513 5.3538655e-05            0    1.4178513       58 
 7978000 0.00012612625            0    1.3617293 5.4079094e-05            0    1.3617293       61 
 7979000 0.00010666454            0      1.27724 4.5734506e-05            0      1.27724       55 
 7980000 9.8278493e-05            0     1.244716 4.2138823e-05            0     1.244716       52 
 7981000 0.00011388272            0    1.2712207 4.8829441e-05            0    1.2712207       59 
 7982000 0.00011146557            0    1.3347292 4.7793039e-05            0    1.3347292       55 
 7983000 0.00011630821 -0.00034449381    1.4181634 4.9801821e-05 -0.00034449381    1.4185079       54 
 7984000 0.00012011989            0    1.3639613 5.1503747e-05            0    1.3639613       58 
 7985000 0.00012377087            0    1.3815976 5.3069177e-05            0    1.3815976       59 
 7986000 0.00010328784            0    1.2834781 4.4286679e-05            0    1.2834781       53 
 7987000 9.6616134e-05            0    1.1362575 4.1426054e-05            0    1.1362575       56 
 7988000 0.00011450496            0    1.3002039 4.909624e-05            0    1.3002039       58 
 7989000 0.00013430581            0    1.4500404 5.7586241e-05            0    1.4500404       61 
 7990000 0.00013382768            0    1.4215738 5.7381233e-05            0    1.4215738       62 
 7991000 0.00010676723            0    1.2784697 4.5778537e-05            0    1.2784697       55 
 7992000 0.00011053415            0    1.2771348 4.7393675e-05            0    1.2771348       57 
 7993000 0.00011560664 -0.00034282128    1.3592531 4.9499865e-05 -0.00034282128     1.359596       56 
 7994000 0.00010600947 -0.00077307206    1.2686229 4.534046e-05 -0.00077307206     1.269396       55 
 7995000 0.00011123492            0    1.2416645 4.7694144e-05            0    1.2416645       59 
 7996000 0.00011853279            0    1.3010752 5.0823248e-05            0    1.3010752       60 
 7997000 0.00011862064            0    1.3950422 5.0860915e-05            0    1.3950422       56 
 7998000 0.00011812974            0    1.4679068 5.0650431e-05            0    1.4679068       53 
 7999000 0.00011422973            0    1.3434028 4.8978227e-05            0    1.3434028       56 
 8000000 0.00011145766            0    1.3108017 4.7789647e-05            0    1.3108017       56 
Loop time of 3824.93 on 192 procs for 5000000 steps with 56 atoms

Performance: 564715.970 tau/day, 1307.213 timesteps/s
98.6% CPU use with 192 MPI tasks x 1 OpenMP threads

MPI task timing breakdown:
Section |  min time  |  avg time  |  max time  |%varavg|  %CPU | %total
-----------------------------------------------------------------------
Pair    | 109.61     | 279.69     | 640.6      | 456.8 |  98.9 |  7.31
Bond    | 3.1438     | 3.2874     | 3.3903     |   2.8 | 100.0 |  0.09
Neigh   | 67.103     | 141.47     | 324.32     | 286.2 |  99.3 |  3.70
Comm    | 255.55     | 777.98     | 1049.8     | 421.2 |  98.5 | 20.34
Output  | 261.46     | 263.19     | 263.21     |   0.8 |  98.0 |  6.88
Modify  | 2239.3     | 2251.6     | 2314.6     |  33.0 |  98.8 | 58.87
Other   |            | 107.7      |            |       |       |  2.82

Nlocal:       0.291667 ave           3 max           0 min
Histogram: 143 0 0 43 0 0 5 0 0 1
Nghost:       0.364583 ave           3 max           0 min
Histogram: 131 0 0 54 0 0 5 0 0 2
Neighs:         0.00000 ave           0 max           0 min
Histogram: 192 0 0 0 0 0 0 0 0 0

Total # of neighbors = 0
Ave neighs/atom = 0.0000000
Ave special neighs/atom = 0.0000000
Neighbor list builds = 443139
Dangerous builds = 107859

write_restart   restart_write.dat
System init for write_restart ...
write_data	data.write
System init for write_data ...
WARNING: Not all mixed pair coeffs generated from mixing. Use write_data with 'pair ij' option to store all pair coeffs. (src/write_data.cpp:312)

Total wall time: 1:03:55
