LAMMPS (24 Dec 2020)
OMP_NUM_THREADS environment is not set. Defaulting to 1 thread. (src/comm.cpp:94)
  using 1 OpenMP thread(s) per MPI task
# Simple rigid body system
# needed variables: startTemp, temp

units		lj
atom_style	full
dimension 	3
boundary	p p f
pair_style	lj/cut/opt 2.5

variable 	gcmcdisplace	equal 0
variable 	sigma		equal 1.0
variable 	epsilon 	equal 1.0


read_restart	restart.dat.3000000
Reading restart file ...
  restart file = 24 Dec 2020, LAMMPS = 24 Dec 2020
WARNING: Restart file used different # of processors: 48 vs. 192 (src/read_restart.cpp:697)
  restoring atom style full from restart
  orthogonal box = (0.0000000 0.0000000 0.0000000) to (80.000000 80.000000 160.00000)
  6 by 4 by 8 MPI processor grid
  restoring pair style lj/cut/opt from restart
  439061 atoms
Finding 1-2 1-3 1-4 neighbors ...
  special bond factors lj:    0        0        0       
  special bond factors coul:  0        0        0       
     0 = max # of 1-2 neighbors
     0 = max # of 1-3 neighbors
     0 = max # of 1-4 neighbors
     1 = max # of special neighbors
  special bonds CPU = 1.400 seconds
  read_restart CPU = 1.722 seconds

mass		1 1.0
mass		2 1.0
mass		3 1.0


group		solvent type 1
439061 atoms in group solvent


neighbor 	0.4 bin

pair_coeff	1 1 1.0 1.0
pair_coeff	2 2 0.0 0.0
pair_coeff	3 3 0.0 0.0
pair_coeff	2 3 0.0 0.0
pair_coeff	1 2*3 0.0 0.0

pair_modify 	shift yes


balance 	1.05 shift z 10 1.05
Balancing ...
Neighbor list info ...
  update every 1 steps, delay 10 steps, check yes
  max neighbors/atom: 2000, page size: 100000
  master list distance cutoff = 2.9
  ghost atom cutoff = 2.9
  binsize = 1.45, bins = 56 56 111
  1 neighbor lists, perpetual/occasional/extra = 1 0 0
  (1) pair lj/cut/opt, perpetual
      attributes: half, newton on
      pair build: half/bin/newton
      stencil: half/bin/3d/newton
      bin: standard
 rebalancing time: 0.026 seconds
  iteration count = 5
  initial/final maximal load/proc = 3162.0000 2575.0000
  initial/final imbalance factor  = 1.3827327 1.1260394
  x cuts: 0.0000000 0.16666667 0.33333333 0.50000000 0.66666667 0.83333333 1.0000000
  y cuts: 0.0000000 0.25000000 0.50000000 0.75000000 1.0000000
  z cuts: 0.0000000 0.097656250 0.18359375 0.27734375 0.37890625 0.47656250 0.57031250 0.67968750 1.0000000


####################### WALLS ###########################


variable       epsilonWall equal 2*${epsilon}
variable       epsilonWall equal 2*1

variable       cutoffTop   equal   0.7147*${sigma}
variable       cutoffTop   equal   0.7147*1

variable       cutoffLow   equal   3*${sigma}
variable       cutoffLow   equal   3*1


fix            topWall all wall/lj93 zhi EDGE                ${epsilonWall} ${sigma} ${cutoffTop} units box
fix            topWall all wall/lj93 zhi EDGE                2 ${sigma} ${cutoffTop} units box
fix            topWall all wall/lj93 zhi EDGE                2 1 ${cutoffTop} units box
fix            topWall all wall/lj93 zhi EDGE                2 1 0.7147 units box

fix            lowWall all wall/lj93 zlo EDGE                ${epsilonWall} ${sigma} ${cutoffLow} units box
fix            lowWall all wall/lj93 zlo EDGE                2 ${sigma} ${cutoffLow} units box
fix            lowWall all wall/lj93 zlo EDGE                2 1 ${cutoffLow} units box
fix            lowWall all wall/lj93 zlo EDGE                2 1 3 units box


###################### COMPUTES ##########################

compute        bin1 solvent chunk/atom bin/1d z upper 1.0



######################	FIXES ############################


fix 		peclet solvent ave/chunk 1000 1 1000 bin1 density/number norm 		 none ave one file density.profile

fix 		 temp solvent ave/chunk 1000 1 1000 bin1 temp norm none ave one file temp.profile

fix 		2 solvent nve

## Thermostat


region		regthermo block EDGE EDGE EDGE EDGE 0 20

group 		thermo dynamic solvent region regthermo every 1000
dynamic group thermo defined

fix 		3 thermo langevin ${startTemp} ${temp} 10 156453
fix 		3 thermo langevin 1.0 ${temp} 10 156453
fix 		3 thermo langevin 1.0 1.0 10 156453


## Evaporation

region		regevap block EDGE EDGE EDGE EDGE 140 158
fix 		gcmc solvent gcmc 100 100 0 1 780493 ${temp} ${mu} ${gcmcdisplace} region regevap
fix 		gcmc solvent gcmc 100 100 0 1 780493 1.0 ${mu} ${gcmcdisplace} region regevap
fix 		gcmc solvent gcmc 100 100 0 1 780493 1.0 -2.7 ${gcmcdisplace} region regevap
fix 		gcmc solvent gcmc 100 100 0 1 780493 1.0 -2.7 0 region regevap


#### Load balancing

fix 		bal all balance 1000 1.05 shift z 10 1.05

############### Diagnostics and computes ###################
#compute 	com cube	  rigid/local	1 mol x y z
#compute 	quat cube	  rigid/local	1 mol quatw quati quatj quatk

thermo 		1000
thermo_style 	custom step temp epair etotal press pe ke atoms

dump		1 all custom 100000 dump.lammpstrj id mol type x y z
dump 		2 all image 10000 image.*.png type type
dump 		3 all movie 1000 movie.avi type type
#dump 		com cube local 1000 dump.*.xyz c_com[*]
#dump		quat cube      local 1000 dump.*.quat c_quat[*]


restart 	1000000 restart.dat
timestep 	0.005
timer 		full
New timer settings: style=full  mode=nosync  timeout=off


run		5000000
Per MPI rank memory allocation (min/avg/max) = 9.923 | 9.986 | 10.01 Mbytes
Step Temp E_pair TotEng Press PotEng KinEng Atoms 
 3000000     1.016004   -3.1352716   -1.6112691  0.079025997   -3.1352716    1.5240025   439061 
 3001000    1.0153174   -3.1342254   -1.6115683  0.074213924   -3.1342254    1.5226571   439152 
 3002000    1.0166839    -3.137754   -1.6133948  0.072696802    -3.137754    1.5243592   439252 
 3003000    1.0142594   -3.1333071   -1.6128427  0.081085219   -3.1333071    1.5204645   439327 
 3004000    1.0149496   -3.1344482   -1.6132676  0.078692931   -3.1344482    1.5211806   439419 
 3005000    1.0168976   -3.1358509    -1.612101  0.072932313   -3.1358509    1.5237499   439520 
 3006000    1.0190185   -3.1354322   -1.6087474  0.073101879   -3.1354322    1.5266848   439590 
 3007000     1.016824   -3.1320013   -1.6088537  0.073388189   -3.1320013    1.5231477   439662 
 3008000    1.0171947   -3.1326179    -1.609057   0.07482048   -3.1326179    1.5235608   439703 
 3009000    1.0167478   -3.1321817   -1.6094911  0.073318008   -3.1321817    1.5226906   439761 
 3010000    1.0157332   -3.1314517   -1.6105504  0.076055517   -3.1314517    1.5209013   439839 
 3011000    1.0170973   -3.1313438   -1.6087046   0.07731458   -3.1313438    1.5226393   439927 
 3012000     1.019205    -3.134347   -1.6086531  0.077630623    -3.134347     1.525694   439956 
 3013000    1.0184023   -3.1326593   -1.6084545   0.07796757   -3.1326593    1.5242048   440039 
 3014000    1.0197416   -3.1323519   -1.6064581  0.076833096   -3.1323519    1.5258938   440130 
 3015000    1.0213304   -3.1334174   -1.6055386   0.07839678   -3.1334174    1.5278788   440243 
 3016000    1.0204345   -3.1299733   -1.6035977  0.084507099   -3.1299733    1.5263756   440290 
 3017000    1.0211548   -3.1314886   -1.6043406  0.079588619   -3.1314886     1.527148   440378 
 3018000    1.0197829   -3.1304916   -1.6055928  0.080422065   -3.1304916    1.5248989   440435 
 3019000    1.0193597   -3.1296073    -1.605632  0.081075219   -3.1296073    1.5239754   440519 
 3020000    1.0206299   -3.1325506    -1.606832  0.079568805   -3.1325506    1.5257186   440564 
 3021000    1.0203634   -3.1307374   -1.6055384  0.076962588   -3.1307374     1.525199   440599 
 3022000    1.0203733   -3.1305546   -1.6056765  0.079011757   -3.1305546    1.5248781   440696 
 3023000    1.0211349   -3.1307329   -1.6049001  0.075941579   -3.1307329    1.5258327   440749 
 3024000    1.0225865   -3.1339007   -1.6060931  0.074941642   -3.1339007    1.5278076   440805 
 3025000    1.0212757   -3.1307794    -1.605259  0.074007853   -3.1307794    1.5255204   440900 
 3026000    1.0230512   -3.1302886   -1.6023482  0.080988975   -3.1302886    1.5279404   440967 
 3027000    1.0219874   -3.1296661   -1.6035291  0.079689059   -3.1296661     1.526137   441029 
 3028000    1.0234794   -3.1310808    -1.602941  0.081037993   -3.1310808    1.5281398   441094 
 3029000    1.0244955   -3.1331262   -1.6036669  0.076334051   -3.1331262    1.5294593   441151 
 3030000    1.0237999   -3.1324478    -1.604363  0.079999942   -3.1324478    1.5280848   441248 
 3031000     1.024646   -3.1312631   -1.6021337  0.086277778   -3.1312631    1.5291294   441311 
 3032000    1.0240715    -3.131211   -1.6031225  0.074286807    -3.131211    1.5280885   441364 
 3033000    1.0228688   -3.1303829   -1.6043517  0.075899656   -3.1303829    1.5260312   441440 
 3034000    1.0238077   -3.1302809   -1.6031362  0.076802429   -3.1302809    1.5271447   441523 
 3035000    1.0239357   -3.1302593   -1.6031797  0.076235443   -3.1302593    1.5270796   441597 
 3036000    1.0230803   -3.1293991   -1.6039094  0.076235615   -3.1293991    1.5254896   441688 
 3037000    1.0231097   -3.1299836   -1.6046263  0.077260026   -3.1299836    1.5253573   441739 
 3038000    1.0221489   -3.1281198   -1.6044674  0.080135452   -3.1281198    1.5236524   441818 
 3039000    1.0222961   -3.1266294   -1.6029679    0.0771989   -3.1266294    1.5236614   441879 
 3040000    1.0243877   -3.1295277   -1.6030944  0.079205079   -3.1295277    1.5264333   441979 
 3041000    1.0243792   -3.1301259   -1.6040815  0.078015795   -3.1301259    1.5260444   442088 
 3042000    1.0248019   -3.1294505   -1.6030355  0.080282112   -3.1294505    1.5264151   442163 
 3043000    1.0250657   -3.1285168   -1.6020125  0.080616234   -3.1285168    1.5265042   442251 
 3044000    1.0248953   -3.1291302   -1.6030834  0.079438466   -3.1291302    1.5260468   442310 
 3045000    1.0279084   -3.1326107   -1.6022296  0.078531956   -3.1326107    1.5303811   442354 
 3046000     1.027321   -3.1311702   -1.6018676  0.078476675   -3.1311702    1.5293026   442413 
 3047000    1.0262457   -3.1298241   -1.6024433   0.08562883   -3.1298241    1.5273808   442506 
 3048000    1.0284684   -3.1332835   -1.6028195  0.080744203   -3.1332835     1.530464   442571 
 3049000     1.027731   -3.1310154   -1.6019079  0.091420068   -3.1310154    1.5291076   442646 
 3050000    1.0294154    -3.133382   -1.6020034  0.082535496    -3.133382    1.5313785   442714 
 3051000    1.0289027   -3.1323735    -1.602017   0.08246471   -3.1323735    1.5303565   442789 
 3052000    1.0290416   -3.1331584   -1.6027508  0.078826383   -3.1331584    1.5304076   442834 
 3053000    1.0274704   -3.1319705   -1.6040721   0.08209489   -3.1319705    1.5278984   442884 
 3054000    1.0295226   -3.1340974   -1.6034756  0.085993463   -3.1340974    1.5306218   442979 
 3055000    1.0300365   -3.1330755   -1.6020043  0.086776662   -3.1330755    1.5310713   443070 
 3056000    1.0286846   -3.1317321   -1.6029602  0.084590064   -3.1317321    1.5287719   443154 
 3057000    1.0294982   -3.1311431   -1.6015072  0.092661163   -3.1311431    1.5296358   443254 
 3058000    1.0298158   -3.1305981   -1.6007837  0.084443756   -3.1305981    1.5298144   443339 
 3059000    1.0304739   -3.1305744    -1.600024   0.08184634   -3.1305744    1.5305504   443409 
 3060000    1.0299835   -3.1306466   -1.6011247  0.080730548   -3.1306466    1.5295219   443496 
 3061000    1.0302118   -3.1303202   -1.6006628  0.084741196   -3.1303202    1.5296574   443555 
 3062000    1.0297531   -3.1303055   -1.6016084  0.075350924   -3.1303055    1.5286972   443636 
 3063000    1.0311092   -3.1315481   -1.6010931  0.081910874   -3.1315481     1.530455   443710 
 3064000    1.0297031   -3.1297078    -1.601605  0.083682917   -3.1297078    1.5281029   443787 
 3065000    1.0307862   -3.1290316   -1.5994731   0.08363565   -3.1290316    1.5295585   443831 
 3066000    1.0322249   -3.1311916   -1.5997743  0.085996163   -3.1311916    1.5314173   443911 
 3067000    1.0300592   -3.1292241   -1.6013262  0.086577328   -3.1292241    1.5278979   444000 
 3068000    1.0313067   -3.1293892   -1.5997923  0.083757289   -3.1293892    1.5295968   444044 
 3069000    1.0313378   -3.1278878   -1.5985274  0.083442745   -3.1278878    1.5293605   444126 
 3070000    1.0307829   -3.1285786   -1.6000616  0.086365769   -3.1285786     1.528517   444132 
 3071000    1.0308509   -3.1269851   -1.5986081  0.084169518   -3.1269851     1.528377   444202 
 3072000    1.0318117   -3.1267424   -1.5972439  0.084780333   -3.1267424    1.5294985   444290 
 3073000      1.03133    -3.126768    -1.598183  0.080537666    -3.126768    1.5285849   444348 
 3074000    1.0328021   -3.1277478   -1.5971395  0.076608323   -3.1277478    1.5306083   444394 
 3075000    1.0320426   -3.1259589   -1.5967755  0.079908319   -3.1259589    1.5291834   444481 
 3076000    1.0319036    -3.125377   -1.5966163  0.078771005    -3.125377    1.5287607   444544 
 3077000    1.0334133   -3.1270807   -1.5963417  0.085056236   -3.1270807     1.530739   444619 
 3078000    1.0331656   -3.1261189   -1.5959394  0.078015871   -3.1261189    1.5301795   444675 
 3079000    1.0332879   -3.1264198   -1.5962796  0.081083786   -3.1264198    1.5301403   444739 
 3080000    1.0336063    -3.125641   -1.5953905  0.081029738    -3.125641    1.5302505   444844 
 3081000    1.0328088   -3.1243708   -1.5954282  0.082239706   -3.1243708    1.5289427   444881 
 3082000    1.0326161   -3.1246113   -1.5961428  0.082605135   -3.1246113    1.5284685   444936 
 3083000    1.0322066   -3.1238032    -1.596164  0.086011422   -3.1238032    1.5276392   445001 
 3084000    1.0325071   -3.1251562    -1.597275  0.080990701   -3.1251562    1.5278813   445060 
 3085000    1.0332521   -3.1271209   -1.5984223  0.082464262   -3.1271209    1.5286986   445143 
 3086000    1.0345074   -3.1286419   -1.5982752  0.083775593   -3.1286419    1.5303667   445198 
 3087000    1.0347928   -3.1284414   -1.5977796  0.076182485   -3.1284414    1.5306618   445235 
 3088000    1.0339805   -3.1274888   -1.5982277  0.079045941   -3.1274888     1.529261   445293 
 3089000    1.0343029   -3.1282797   -1.5987961  0.085289197   -3.1282797    1.5294837   445367 
 3090000    1.0348409    -3.127632   -1.5976997  0.085507767    -3.127632    1.5299323   445468 
 3091000    1.0347311   -3.1268943   -1.5974093  0.087129665   -3.1268943    1.5294849   445551 
 3092000    1.0359009   -3.1285577   -1.5974192  0.085107159   -3.1285577    1.5311385   445573 
 3093000    1.0361347   -3.1291993   -1.5979454  0.081618049   -3.1291993    1.5312539   445640 
 3094000    1.0351889   -3.1270652   -1.5973945  0.084692982   -3.1270652    1.5296707   445694 
 3095000    1.0373268   -3.1297566   -1.5970746  0.080435417   -3.1297566     1.532682   445737 
 3096000    1.0390251   -3.1312889   -1.5963008  0.084124391   -3.1312889    1.5349881   445796 
 3097000    1.0387549   -3.1297781   -1.5953269  0.085725758   -3.1297781    1.5344513   445836 
 3098000    1.0382238   -3.1298518   -1.5964603  0.088324177   -3.1298518    1.5333915   445916 
 3099000    1.0368391   -3.1272142   -1.5962351   0.08941947   -3.1272142     1.530979   446023 
 3100000    1.0366012   -3.1272283   -1.5969266  0.082749289   -3.1272283    1.5303018   446118 
 3101000    1.0381083   -3.1296015   -1.5971537  0.084834627   -3.1296015    1.5324478   446141 
 3102000     1.036656   -3.1265004   -1.5963407   0.08226437   -3.1265004    1.5301597   446183 
 3103000    1.0372666   -3.1266414   -1.5957726  0.086101214   -3.1266414    1.5308689   446239 
 3104000    1.0366386   -3.1266288   -1.5967827  0.083451434   -3.1266288    1.5298461   446267 
 3105000    1.0356566   -3.1261319   -1.5977967  0.088458901   -3.1261319    1.5283352   446285 
 3106000    1.0378729   -3.1278705   -1.5964705  0.084726758   -3.1278705       1.5314   446345 
 3107000    1.0366137   -3.1272142   -1.5978983  0.087340881   -3.1272142    1.5293158   446411 
 3108000    1.0361136   -3.1257815   -1.5974157  0.083236528   -3.1257815    1.5283658   446473 
 3109000    1.0367329   -3.1255427   -1.5964517  0.081569339   -3.1255427     1.529091   446528 
 3110000    1.0382689   -3.1259812    -1.594834  0.089486437   -3.1259812    1.5311473   446589 
 3111000    1.0365272   -3.1242307   -1.5958676  0.083576911   -3.1242307    1.5283631   446652 
 3112000     1.036798   -3.1241606   -1.5954631  0.084239637   -3.1241606    1.5286974   446671 
 3113000    1.0375627   -3.1260695   -1.5964569  0.081798527   -3.1260695    1.5296127   446733 
 3114000    1.0372148   -3.1240384   -1.5950243  0.079792941   -3.1240384    1.5290141   446758 
 3115000    1.0396264   -3.1268782   -1.5945011  0.081662679   -3.1268782    1.5323771   446814 
 3116000    1.0383441    -3.123003   -1.5926118  0.086441059    -3.123003    1.5303912   446842 
 3117000    1.0390077   -3.1257284    -1.594486  0.082906732   -3.1257284    1.5312424   446879 
 3118000    1.0393014   -3.1254001   -1.5938859  0.082088543   -3.1254001    1.5315142   446926 
 3119000    1.0382002   -3.1242417   -1.5945145  0.088266677   -3.1242417    1.5297272   446974 
 3120000    1.0395527    -3.125729   -1.5941529  0.083411715    -3.125729    1.5315761   447016 
 3121000    1.0385404    -3.124422   -1.5946454  0.080832732    -3.124422    1.5297766   447106 
 3122000    1.0369339   -3.1223485   -1.5951056  0.088147206   -3.1223485    1.5272429   447155 
 3123000    1.0392437   -3.1246063   -1.5941222   0.07618322   -3.1246063    1.5304841   447202 
 3124000    1.0391274   -3.1240828   -1.5938111  0.084590696   -3.1240828    1.5302716   447214 
 3125000    1.0390222   -3.1239784   -1.5939712  0.085260829   -3.1239784    1.5300072   447246 
 3126000    1.0393392    -3.122409   -1.5922121  0.080344382    -3.122409    1.5301969   447327 
 3127000    1.0395621   -3.1234485   -1.5930841  0.081507134   -3.1234485    1.5303643   447374 
 3128000    1.0389451   -3.1241386   -1.5947441  0.077927821   -3.1241386    1.5293945   447392 
 3129000    1.0384518    -3.124304   -1.5957383  0.076709655    -3.124304    1.5285657   447422 
 3130000     1.039268   -3.1242407    -1.594682  0.082173917   -3.1242407    1.5295587   447483 
 3131000    1.0401687   -3.1251811    -1.594567   0.08332099   -3.1251811    1.5306141   447562 
 3132000    1.0395441   -3.1228438   -1.5932719   0.08879883   -3.1228438    1.5295719   447598 
 3133000    1.0396214   -3.1230298     -1.59358  0.086499687   -3.1230298    1.5294499   447667 
 3134000    1.0402577    -3.124502   -1.5944066  0.086228071    -3.124502    1.5300954   447752 
 3135000    1.0392421   -3.1231939   -1.5947732  0.087567519   -3.1231939    1.5284207   447805 
 3136000    1.0409484   -3.1242977   -1.5936102  0.082562624   -3.1242977    1.5306875   447876 
 3137000    1.0424091   -3.1254432   -1.5928508  0.080012459   -3.1254432    1.5325925   447947 
 3138000    1.0406975   -3.1228587   -1.5929875  0.081912284   -3.1228587    1.5298712   448007 
 3139000     1.042117   -3.1234744   -1.5918106  0.082773968   -3.1234744    1.5316638   448093 
 3140000    1.0423508   -3.1245839   -1.5926585  0.084271659   -3.1245839    1.5319254   448117 
 3141000    1.0416116   -3.1225538   -1.5919163  0.086661267   -3.1225538    1.5306375   448176 
 3142000    1.0413965   -3.1218603   -1.5918462  0.088300863   -3.1218603    1.5300141   448266 
 3143000    1.0422255   -3.1219471   -1.5908652  0.088241958   -3.1219471    1.5310819   448310 
 3144000    1.0424051   -3.1223996   -1.5913545  0.086902646   -3.1223996    1.5310451   448398 
 3145000     1.043974   -3.1253756   -1.5922074  0.082142601   -3.1253756    1.5331682   448451 
 3146000     1.042565   -3.1241966   -1.5933195   0.08464524   -3.1241966    1.5308771   448516 
 3147000    1.0430122   -3.1236459    -1.592375  0.081785451   -3.1236459    1.5312709   448593 
 3148000    1.0413462   -3.1232319   -1.5945125    0.0833785   -3.1232319    1.5287193   448624 
 3149000     1.041774   -3.1228626   -1.5936891  0.079715926   -3.1228626    1.5291735   448675 
 3150000     1.041796   -3.1215846   -1.5925595  0.082483894   -3.1215846    1.5290252   448728 
 3151000    1.0443859   -3.1240309   -1.5913548   0.08025453   -3.1240309     1.532676   448772 
 3152000    1.0441303   -3.1218617   -1.5897416  0.082474495   -3.1218617      1.53212   448825 
 3153000    1.0447917   -3.1236158   -1.5906925  0.081700805   -3.1236158    1.5329232   448874 
 3154000    1.0451899    -3.123144   -1.5899029  0.082412744    -3.123144    1.5332411   448952 
 3155000    1.0434019   -3.1206165   -1.5901178  0.087990298   -3.1206165    1.5304988   448987 
 3156000    1.0445227   -3.1218509    -1.589906  0.084149086   -3.1218509    1.5319449   449045 
 3157000    1.0452798   -3.1224715   -1.5896347  0.084484109   -3.1224715    1.5328368   449109 
 3158000    1.0459243   -3.1229029   -1.5893805  0.081752959   -3.1229029    1.5335224   449185 
 3159000    1.0458951   -3.1227515   -1.5894971  0.082556608   -3.1227515    1.5332544   449251 
 3160000    1.0436791   -3.1208171   -1.5910294  0.085628697   -3.1208171    1.5297878   449315 
 3161000    1.0446408   -3.1209463   -1.5898681  0.085120662   -3.1209463    1.5310781   449350 
 3162000    1.0440488   -3.1213803    -1.591357  0.079859159   -3.1213803    1.5300233   449405 
 3163000    1.0422761   -3.1209656   -1.5937101  0.083921701   -3.1209656    1.5272555   449455 
 3164000     1.043692   -3.1227225    -1.593525  0.076740563   -3.1227225    1.5291975   449494 
 3165000    1.0433513   -3.1223053   -1.5937566  0.081309204   -3.1223053    1.5285487   449538 
 3166000    1.0440319   -3.1220788    -1.592703  0.085309329   -3.1220788    1.5293757   449588 
 3167000    1.0432025   -3.1198255   -1.5918993  0.086148842   -3.1198255    1.5279262   449657 
 3168000        1.045   -3.1226347   -1.5922936  0.084432079   -3.1226347    1.5303411   449721 
 3169000    1.0451596   -3.1245305   -1.5941768  0.080091416   -3.1245305    1.5303537   449786 
 3170000     1.043989   -3.1237198   -1.5951006   0.08309031   -3.1237198    1.5286192   449792 
 3171000    1.0455029   -3.1238536   -1.5932013  0.089961655   -3.1238536    1.5306522   449846 
 3172000    1.0463135    -3.125368   -1.5937537  0.078725699    -3.125368    1.5316143   449912 
 3173000    1.0452651   -3.1237579   -1.5939164  0.077362922   -3.1237579    1.5298415   449982 
 3174000    1.0446764   -3.1215291   -1.5927361   0.08254812   -3.1215291     1.528793   450037 
 3175000     1.046201   -3.1246546   -1.5937665  0.086059397   -3.1246546    1.5308881   450077 
 3176000    1.0487444   -3.1282288   -1.5938372  0.085160986   -3.1282288    1.5343916   450141 
 3177000    1.0460482   -3.1251887   -1.5950274  0.086492453   -3.1251887    1.5301613   450225 
 3178000    1.0472992   -3.1261781   -1.5942413  0.083775594   -3.1261781    1.5319368   450241 
 3179000    1.0463899   -3.1247007    -1.594325   0.08846409   -3.1247007    1.5303757   450309 
 3180000    1.0474941   -3.1266218   -1.5946992   0.08642935   -3.1266218    1.5319225   450329 
 3181000    1.0471663   -3.1256171   -1.5943882  0.085873259   -3.1256171     1.531229   450392 
 3182000    1.0482943   -3.1274226   -1.5948336  0.084286654   -3.1274226    1.5325891   450477 
 3183000    1.0499018   -3.1280517   -1.5933816  0.083027558   -3.1280517      1.53467   450556 
 3184000    1.0483538   -3.1260884    -1.593936  0.082947897   -3.1260884    1.5321524   450631 
 3185000    1.0472897   -3.1253942   -1.5949906  0.085906514   -3.1253942    1.5304036   450688 
 3186000    1.0491906   -3.1260689   -1.5931257  0.085860632   -3.1260689    1.5329432   450758 
 3187000    1.0494682    -3.125501   -1.5924038  0.081771176    -3.125501    1.5330971   450832 
 3188000    1.0476975   -3.1237454   -1.5935403  0.085849122   -3.1237454    1.5302051   450922 
 3189000    1.0487005   -3.1235162   -1.5918769  0.084794567   -3.1235162    1.5316393   450931 
 3190000    1.0494998   -3.1239569   -1.5913201  0.091842834   -3.1239569    1.5326368   450981 
 3191000    1.0496056   -3.1241678   -1.5915159  0.091057315   -3.1241678    1.5326519   451022 
 3192000    1.0495507   -3.1238952   -1.5915816  0.086793061   -3.1238952    1.5323136   451098 
 3193000     1.051272   -3.1261899   -1.5915129  0.080241784   -3.1261899     1.534677   451142 
 3194000    1.0492947   -3.1238352   -1.5922213  0.084828359   -3.1238352    1.5316139   451194 
 3195000    1.0492562   -3.1242937   -1.5928752  0.085440039   -3.1242937    1.5314185   451235 
 3196000    1.0496113   -3.1240841   -1.5923679  0.087405655   -3.1240841    1.5317162   451300 
 3197000    1.0502773   -3.1246461   -1.5921549  0.086459643   -3.1246461    1.5324912   451358 
 3198000    1.0484756   -3.1206254   -1.5908852  0.089202292   -3.1206254    1.5297402   451394 
 3199000    1.0483578    -3.121004   -1.5915305  0.084747499    -3.121004    1.5294735   451422 
 3200000    1.0502136   -3.1231614   -1.5912792   0.08633713   -3.1231614    1.5318823   451510 
 3201000    1.0502005   -3.1220787   -1.5903681  0.090775062   -3.1220787    1.5317106   451555 
 3202000    1.0495905   -3.1217285   -1.5910703  0.085803273   -3.1217285    1.5306582   451603 
 3203000    1.0507476   -3.1240856   -1.5919605  0.081450926   -3.1240856    1.5321251   451668 
 3204000    1.0504284   -3.1232625   -1.5918435  0.080917634   -3.1232625     1.531419   451739 
 3205000    1.0509109   -3.1216809   -1.5897417  0.081817717   -3.1216809    1.5319392   451793 
 3206000    1.0505156    -3.120526   -1.5894172   0.08412683    -3.120526    1.5311088   451868 
 3207000     1.051608   -3.1217056   -1.5891404  0.084301284   -3.1217056    1.5325652   451908 
 3208000    1.0518061   -3.1191659   -1.5866374  0.082609316   -3.1191659    1.5325285   452004 
 3209000    1.0514624   -3.1194236   -1.5875383  0.090954015   -3.1194236    1.5318853   452046 
 3210000    1.0526769   -3.1215671   -1.5879972  0.080429182   -3.1215671    1.5335699   452071 
 3211000    1.0511012   -3.1186777   -1.5875625  0.084805301   -3.1186777    1.5311151   452118 
 3212000    1.0526699   -3.1203114    -1.586962  0.087194303   -3.1203114    1.5333494   452133 
 3213000     1.052997   -3.1207153   -1.5871066  0.085697325   -3.1207153    1.5336087   452197 
 3214000    1.0519972   -3.1194214   -1.5873737  0.088271597   -3.1194214    1.5320477   452228 
 3215000     1.052397   -3.1197039   -1.5871757  0.089178511   -3.1197039    1.5325282   452258 
 3216000    1.0527943   -3.1209836   -1.5881039  0.080874944   -3.1209836    1.5328797   452325 
 3217000    1.0529783   -3.1212998   -1.5883895  0.086496589   -3.1212998    1.5329103   452395 
 3218000    1.0512169   -3.1184796   -1.5883703  0.079381012   -3.1184796    1.5301094   452465 
 3219000    1.0521824   -3.1190047    -1.587649  0.083828686   -3.1190047    1.5313557   452512 
 3220000    1.0528752   -3.1212612   -1.5889921  0.081967342   -3.1212612    1.5322691   452540 
 3221000    1.0510404   -3.1177634   -1.5882558  0.086598452   -3.1177634    1.5295077   452567 
 3222000    1.0521593   -3.1190834   -1.5881573  0.077749591   -3.1190834    1.5309261   452629 
 3223000    1.0533741   -3.1193517   -1.5867493  0.085847014   -3.1193517    1.5326024   452656 
 3224000    1.0531253   -3.1202513   -1.5881937  0.086371614   -3.1202513    1.5320575   452710 
 3225000    1.0538958   -3.1210832   -1.5880875  0.086660122   -3.1210832    1.5329957   452764 
 3226000    1.0544542    -3.121766    -1.588114  0.083995428    -3.121766     1.533652   452810 
 3227000    1.0533457   -3.1188748   -1.5870143  0.087135099   -3.1188748    1.5318605   452863 
 3228000    1.0534197   -3.1199903   -1.5882791  0.085835099   -3.1199903    1.5317111   452939 
 3229000       1.0564   -3.1242078   -1.5883227   0.08270822   -3.1242078    1.5358852   452986 
 3230000    1.0546538   -3.1211595   -1.5880602  0.083292273   -3.1211595    1.5330993   453059 
 3231000    1.0554745   -3.1221488   -1.5880934  0.086334367   -3.1221488    1.5340553   453129 
 3232000    1.0561642   -3.1231926   -1.5883923  0.083570124   -3.1231926    1.5348003   453205 
 3233000    1.0567388   -3.1234782   -1.5880529  0.082923266   -3.1234782    1.5354253   453267 
 3234000    1.0552563   -3.1217127   -1.5887356  0.083121712   -3.1217127     1.532977   453354 
 3235000    1.0551267   -3.1208129   -1.5881222  0.086302171   -3.1208129    1.5326907   453383 
 3236000    1.0566794   -3.1234249   -1.5885871  0.080396238   -3.1234249    1.5348378   453415 
 3237000    1.0563832   -3.1218796   -1.5876277  0.090076334   -3.1218796    1.5342519   453461 
 3238000    1.0577913   -3.1236501   -1.5875766  0.085308421   -3.1236501    1.5360735   453527 
 3239000    1.0583721    -3.125417   -1.5887305  0.083376338    -3.125417    1.5366865   453595 
 3240000    1.0559187   -3.1214182   -1.5885406  0.091245616   -3.1214182    1.5328776   453668 
 3241000    1.0568613   -3.1229965   -1.5889771  0.079960397   -3.1229965    1.5340194   453735 
 3242000    1.0563854   -3.1224219   -1.5893264  0.082737724   -3.1224219    1.5330955   453804 
 3243000    1.0564018   -3.1222053   -1.5891434  0.086585248   -3.1222053    1.5330619   453821 
 3244000    1.0584465   -3.1233515   -1.5875525  0.089555427   -3.1233515     1.535799   453889 
 3245000    1.0570817   -3.1204295   -1.5867865   0.09202617   -3.1204295     1.533643   453941 
 3246000    1.0586633   -3.1232317   -1.5874464  0.088272709   -3.1232317    1.5357854   453986 
 3247000    1.0585985   -3.1228297   -1.5873684  0.086384654   -3.1228297    1.5354614   454054 
 3248000    1.0587942   -3.1225375   -1.5869039  0.091253809   -3.1225375    1.5356336   454087 
 3249000    1.0591728   -3.1235398   -1.5874145  0.091963117   -3.1235398    1.5361253   454104 
 3250000    1.0569393   -3.1202247   -1.5875514  0.090096056   -3.1202247    1.5326733   454167 
 3251000    1.0585711    -3.122284   -1.5874539  0.085266749    -3.122284    1.5348301   454229 
 3252000    1.0590522   -3.1218505   -1.5866168  0.086476308   -3.1218505    1.5352337   454316 
 3253000    1.0578024   -3.1192792   -1.5861307  0.090853175   -3.1192792    1.5331485   454397 
 3254000    1.0583734   -3.1182212   -1.5844408   0.08690763   -3.1182212    1.5337803   454455 
 3255000    1.0594817    -3.121695   -1.5864706  0.088651559    -3.121695    1.5352243   454503 
 3256000    1.0584248   -3.1210959   -1.5875515  0.085972511   -3.1210959    1.5335443   454547 
 3257000    1.0592945   -3.1210212   -1.5864767  0.084148157   -3.1210212    1.5345445   454624 
 3258000    1.0587684   -3.1194379   -1.5857128  0.084858055   -3.1194379    1.5337251   454641 
 3259000    1.0592994   -3.1208412   -1.5865258  0.086035993   -3.1208412    1.5343154   454694 
 3260000    1.0585604   -3.1188495   -1.5857225  0.089144723   -3.1188495     1.533127   454729 
 3261000    1.0600673   -3.1206749   -1.5855983  0.084331812   -3.1206749    1.5350766   454798 
 3262000    1.0590518   -3.1183808   -1.5849063  0.083303784   -3.1183808    1.5334745   454837 
 3263000    1.0597758   -3.1192834   -1.5848989  0.082275311   -3.1192834    1.5343845   454878 
 3264000    1.0598829   -3.1206923   -1.5862235  0.087510787   -3.1206923    1.5344688   454899 
 3265000     1.057272   -3.1183562   -1.5877616  0.084218024   -3.1183562    1.5305946   454927 
 3266000      1.05834   -3.1209091   -1.5889368  0.086326536   -3.1209091    1.5319723   454977 
 3267000    1.0603614   -3.1241278   -1.5894117  0.085708729   -3.1241278    1.5347161   455031 
 3268000    1.0590801   -3.1216185   -1.5888882  0.086528815   -3.1216185    1.5327302   455070 
 3269000    1.0579366   -3.1199214   -1.5890714  0.087212794   -3.1199214      1.53085   455137 
 3270000    1.0583408   -3.1210309   -1.5898382  0.082893225   -3.1210309    1.5311927   455209 
 3271000    1.0595765   -3.1212612   -1.5883784   0.08958779   -3.1212612    1.5328828   455238 
 3272000    1.0596477   -3.1212002   -1.5883659  0.088917135   -3.1212002    1.5328343   455283 
 3273000    1.0595092   -3.1212114   -1.5885944  0.082219395   -3.1212114    1.5326171   455288 
 3274000    1.0613322    -3.121923   -1.5869251  0.087102566    -3.121923    1.5349979   455364 
 3275000    1.0624848   -3.1238531   -1.5873165   0.09155393   -3.1238531    1.5365366   455402 
 3276000    1.0621857   -3.1230735   -1.5872358  0.091607234   -3.1230735    1.5358377   455481 
 3277000    1.0620303   -3.1232182   -1.5878479   0.08823331   -3.1232182    1.5353703   455553 
 3278000    1.0620288   -3.1228258   -1.5876902  0.084186353   -3.1228258    1.5351356   455622 
 3279000    1.0629263   -3.1240123   -1.5876502  0.087528946   -3.1240123     1.536362   455643 
 3280000    1.0646479   -3.1256637   -1.5869381    0.0921248   -3.1256637    1.5387256   455680 
 3281000    1.0639779   -3.1247415   -1.5870854  0.086982519   -3.1247415     1.537656   455710 
 3282000     1.063335   -3.1237212   -1.5872472  0.091058596   -3.1237212    1.5364739   455785 
 3283000     1.063107   -3.1228237   -1.5867836  0.082847596   -3.1228237    1.5360401   455816 
 3284000    1.0631969   -3.1231821   -1.5871435  0.086404471   -3.1231821    1.5360386   455855 
 3285000    1.0627144   -3.1219524   -1.5867625  0.087135246   -3.1219524    1.5351898   455900 
 3286000    1.0621512    -3.122088   -1.5878866  0.084071184    -3.122088    1.5342014   455952 
 3287000    1.0613946   -3.1205425    -1.587693  0.091351757   -3.1205425    1.5328496   456029 
 3288000    1.0627696   -3.1221434   -1.5874191  0.086586014   -3.1221434    1.5347243   456062 
 3289000    1.0626253   -3.1217713   -1.5873899  0.086008674   -3.1217713    1.5343814   456102 
 3290000    1.0632292   -3.1220414   -1.5870236  0.085994713   -3.1220414    1.5350178   456172 
 3291000    1.0641124   -3.1227022   -1.5866282  0.087112967   -3.1227022     1.536074   456237 
 3292000    1.0620447   -3.1194964   -1.5864341  0.093728582   -3.1194964    1.5330623   456245 
 3293000    1.0642535    -3.121579   -1.5855437  0.083493897    -3.121579    1.5360353   456309 
 3294000    1.0655387   -3.1225491   -1.5846623  0.092509195   -3.1225491    1.5378868   456310 
 3295000    1.0649767   -3.1221598   -1.5852896  0.082914525   -3.1221598    1.5368702   456371 
 3296000    1.0644863   -3.1208529   -1.5847273  0.085918641   -3.1208529    1.5361255   456382 
 3297000     1.063551   -3.1193685   -1.5847743   0.09133045   -3.1193685    1.5345942   456436 
 3298000    1.0637741   -3.1197847   -1.5850602    0.0853948   -3.1197847    1.5347245   456493 
 3299000    1.0631824   -3.1190883   -1.5853921  0.088272418   -3.1190883    1.5336962   456545 
 3300000     1.064929   -3.1214736   -1.5854262  0.083120702   -3.1214736    1.5360474   456595 
 3301000    1.0641581   -3.1190528   -1.5843425  0.087857084   -3.1190528    1.5347104   456662 
 3302000    1.0644693   -3.1196428   -1.5846819  0.088070847   -3.1196428    1.5349609   456721 
 3303000     1.064636   -3.1212783   -1.5861477  0.085881777   -3.1212783    1.5351306   456742 
 3304000    1.0637357    -3.119315   -1.5858249  0.090054242    -3.119315      1.53349   456844 
 3305000    1.0634726    -3.118686   -1.5858135  0.085567083    -3.118686    1.5328725   456915 
 3306000    1.0644841   -3.1211893   -1.5870537  0.076357626   -3.1211893    1.5341357   456973 
 3307000    1.0644288   -3.1202896   -1.5864116  0.082976016   -3.1202896    1.5338781   457026 
 3308000    1.0661392   -3.1211996   -1.5850518  0.088512613   -3.1211996    1.5361479   457084 
 3309000    1.0675044   -3.1206645   -1.5828188  0.086180171   -3.1206645    1.5378457   457164 
 3310000    1.0659661   -3.1199205   -1.5845326  0.086494236   -3.1199205    1.5353879   457236 
 3311000    1.0674145   -3.1219367   -1.5845937  0.091556507   -3.1219367     1.537343   457275 
 3312000    1.0661341   -3.1219771   -1.5866326  0.084836324   -3.1219771    1.5353445   457321 
 3313000    1.0656723   -3.1210404   -1.5864282  0.087915616   -3.1210404    1.5346123   457341 
 3314000    1.0667046   -3.1226381    -1.586855  0.090423471   -3.1226381    1.5357832   457435 
 3315000    1.0653529   -3.1200487   -1.5863861  0.085099773   -3.1200487    1.5336627   457487 
 3316000    1.0657951   -3.1215455   -1.5873736  0.088314735   -3.1215455    1.5341719   457525 
 3317000     1.065464   -3.1214617   -1.5877563  0.087274382   -3.1214617    1.5337054   457522 
 3318000    1.0665371   -3.1242875   -1.5891616   0.08832403   -3.1242875    1.5351259   457559 
 3319000    1.0669254   -3.1254593   -1.5898316  0.086797428   -3.1254593    1.5356277   457576 
 3320000    1.0656188   -3.1240183   -1.5903315  0.092054079   -3.1240183    1.5336868   457594 
 3321000    1.0658021    -3.123927   -1.5900636  0.092337361    -3.123927    1.5338634   457620 
 3322000    1.0647372   -3.1222591   -1.5901425   0.08977116   -3.1222591    1.5321166   457684 
 3323000     1.066951   -3.1236735   -1.5884451  0.087336968   -3.1236735    1.5352284   457706 
 3324000    1.0669638   -3.1246143   -1.5895553  0.087277409   -3.1246143     1.535059   457762 
 3325000    1.0666215   -3.1232246   -1.5888825  0.087371658   -3.1232246     1.534342   457829 
 3326000    1.0660912   -3.1231354   -1.5897471  0.087679009   -3.1231354    1.5333883   457886 
 3327000    1.0680665   -3.1241021   -1.5880874    0.0866308   -3.1241021    1.5360147   457950 
 3328000    1.0687587   -3.1244242   -1.5876623  0.084694804   -3.1244242    1.5367619   458024 
 3329000    1.0670257   -3.1210489    -1.586933  0.092326582   -3.1210489    1.5341159   458070 
 3330000      1.06679   -3.1220609   -1.5885049  0.085697799   -3.1220609     1.533556   458136 
 3331000    1.0678665   -3.1230095   -1.5880467  0.084920096   -3.1230095    1.5349628   458178 
 3332000    1.0667823   -3.1217962   -1.5885726  0.088282003   -3.1217962    1.5332236   458232 
 3333000    1.0664562   -3.1204958   -1.5878947  0.086103153   -3.1204958    1.5326011   458278 
 3334000    1.0681169   -3.1217568   -1.5869734  0.082352294   -3.1217568    1.5347834   458339 
 3335000    1.0667119   -3.1195499   -1.5868421  0.090766854   -3.1195499    1.5327078   458356 
 3336000    1.0684951   -3.1192177   -1.5842123  0.088063491   -3.1192177    1.5350053   458435 
 3337000    1.0698334   -3.1214804   -1.5845893  0.087957955   -3.1214804    1.5368911   458446 
 3338000    1.0679495   -3.1198652   -1.5859582  0.081233443   -3.1198652     1.533907   458529 
 3339000    1.0685545   -3.1196025   -1.5849737  0.083316442   -3.1196025    1.5346288   458573 
 3340000    1.0697508   -3.1211922   -1.5848822  0.083264032   -3.1211922      1.53631   458584 
 3341000    1.0694472   -3.1204332   -1.5848706  0.082390724   -3.1204332    1.5355626   458677 
 3342000    1.0704053   -3.1214205   -1.5846866  0.083465161   -3.1214205    1.5367339   458738 
 3343000    1.0706716   -3.1216287   -1.5845527  0.084966471   -3.1216287    1.5370759   458750 
 3344000    1.0720432    -3.122802   -1.5838676  0.086912701    -3.122802    1.5389344   458783 
 3345000    1.0712223   -3.1206233   -1.5830683  0.090456791   -3.1206233    1.5375549   458843 
 3346000     1.070781   -3.1212123   -1.5844482  0.086988446   -3.1212123    1.5367641   458890 
 3347000    1.0696547    -3.119985   -1.5850882  0.086565387    -3.119985    1.5348967   458965 
 3348000    1.0701022   -3.1189189   -1.5836008  0.089144231   -3.1189189    1.5353181   459031 
 3349000    1.0712198   -3.1194966   -1.5829031  0.091301966   -3.1194966    1.5365935   459129 
 3350000    1.0708601   -3.1195687   -1.5836752  0.086640651   -3.1195687    1.5358935   459184 
 3351000    1.0715588   -3.1213833   -1.5847118  0.085034743   -3.1213833    1.5366714   459251 
 3352000    1.0719379   -3.1210255   -1.5838841  0.087273249   -3.1210255    1.5371414   459273 
 3353000    1.0714394   -3.1200352   -1.5836821  0.088808869   -3.1200352    1.5363531   459295 
 3354000    1.0715736   -3.1203565   -1.5839046  0.092314799   -3.1203565    1.5364519   459323 
 3355000    1.0718168   -3.1218734   -1.5853706  0.089993558   -3.1218734    1.5365027   459412 
 3356000    1.0719526   -3.1219032   -1.5853127  0.091349283   -3.1219032    1.5365905   459444 
 3357000    1.0736346   -3.1219614   -1.5830571  0.084310621   -3.1219614    1.5389043   459473 
 3358000    1.0737831   -3.1227555   -1.5838023  0.084551071   -3.1227555    1.5389532   459522 
 3359000    1.0747364   -3.1241854   -1.5840538  0.086007902   -3.1241854    1.5401316   459578 
 3360000    1.0722739   -3.1208924   -1.5843899  0.088501457   -3.1208924    1.5365026   459608 
 3361000    1.0748998   -3.1234358   -1.5833514  0.085955126   -3.1234358    1.5400844   459662 
 3362000    1.0739017   -3.1209919   -1.5825786  0.093277832   -3.1209919    1.5384134   459734 
 3363000    1.0750968   -3.1214968   -1.5814953  0.089660138   -3.1214968    1.5400015   459771 
 3364000     1.075337   -3.1219826   -1.5817778  0.093253301   -3.1219826    1.5402048   459813 
 3365000    1.0744165   -3.1196252   -1.5808726  0.092882231   -3.1196252    1.5387526   459853 
 3366000    1.0762083   -3.1224601   -1.5813593  0.087152614   -3.1224601    1.5411008   459918 
 3367000    1.0750318   -3.1210432   -1.5817476  0.093774094   -3.1210432    1.5392956   459954 
 3368000    1.0743372   -3.1205964   -1.5824927  0.089977932   -3.1205964    1.5381037   460013 
 3369000    1.0765551   -3.1219431    -1.580855  0.090348688   -3.1219431    1.5410881   460070 
 3370000    1.0756335   -3.1208777   -1.5812595  0.090151657   -3.1208777    1.5396182   460115 
 3371000    1.0749128   -3.1193319   -1.5809258  0.087276343   -3.1193319    1.5384061   460169 
 3372000    1.0745937    -3.118717   -1.5808511  0.092109809    -3.118717    1.5378658   460194 
 3373000    1.0751199   -3.1207211   -1.5824297  0.086864122   -3.1207211    1.5382914   460292 
 3374000    1.0720321   -3.1167374   -1.5830706  0.083272169   -3.1167374    1.5336668   460354 
 3375000    1.0739386   -3.1174679    -1.581344  0.084106973   -3.1174679    1.5361239   460435 
 3376000    1.0748052   -3.1182623   -1.5809089  0.084076473   -3.1182623    1.5373534   460438 
 3377000    1.0751851   -3.1179624   -1.5803061  0.086990206   -3.1179624    1.5376564   460510 
 3378000    1.0751864   -3.1186931   -1.5812685  0.083666958   -3.1186931    1.5374246   460580 
 3379000    1.0715267   -3.1136724   -1.5816805  0.089794229   -3.1136724    1.5319919   460640 
 3380000    1.0745443   -3.1153838   -1.5793543  0.082992937   -3.1153838    1.5360295   460723 
 3381000     1.075357   -3.1156324   -1.5785779  0.086230919   -3.1156324    1.5370545   460764 
 3382000    1.0754651   -3.1166999   -1.5796177   0.08190384   -3.1166999    1.5370821   460802 
 3383000    1.0768043    -3.117405   -1.5785824  0.092472821    -3.117405    1.5388226   460854 
 3384000     1.077719   -3.1176482   -1.5777021  0.091881908   -3.1176482     1.539946   460909 
 3385000    1.0764008   -3.1177089   -1.5797766  0.085588692   -3.1177089    1.5379323   460948 
 3386000    1.0751058   -3.1150576    -1.578999  0.092886873   -3.1150576    1.5360587   460955 
 3387000    1.0782242   -3.1192383   -1.5789246  0.083874313   -3.1192383    1.5403136   461015 
 3388000     1.076698   -3.1167001   -1.5787268  0.086854455   -3.1167001    1.5379732   461063 
 3389000    1.0779695   -3.1182191   -1.5785332  0.091332899   -3.1182191    1.5396859   461094 
 3390000    1.0770544   -3.1170283   -1.5787262  0.094074712   -3.1170283    1.5383021   461117 
 3391000    1.0777743   -3.1182848   -1.5790847  0.089257804   -3.1182848    1.5392001   461156 
 3392000    1.0770526   -3.1182987   -1.5802593  0.086622995   -3.1182987    1.5380394   461195 
 3393000    1.0766427    -3.117451   -1.5801703  0.086474199    -3.117451    1.5372807   461247 
 3394000    1.0781436   -3.1191633   -1.5799231  0.084706927   -3.1191633    1.5392402   461302 
 3395000     1.077283   -3.1186703   -1.5808821   0.08701793   -3.1186703    1.5377882   461369 
 3396000    1.0780485   -3.1194619   -1.5807411  0.091633415   -3.1194619    1.5387208   461417 
 3397000    1.0759664   -3.1178165   -1.5823536  0.093606117   -3.1178165    1.5354629   461503 
 3398000    1.0776602   -3.1210373   -1.5833305  0.086393542   -3.1210373    1.5377068   461555 
 3399000    1.0782078   -3.1204296   -1.5820648  0.087434412   -3.1204296    1.5383647   461592 
 3400000    1.0766559    -3.118554   -1.5825265  0.087372229    -3.118554    1.5360275   461629 
 3401000    1.0789982    -3.119707   -1.5804212  0.086927069    -3.119707    1.5392858   461654 
 3402000    1.0786551    -3.120641   -1.5819713  0.093018998    -3.120641    1.5386697   461692 
 3403000    1.0792837   -3.1203076   -1.5808579  0.093737707   -3.1203076    1.5394496   461727 
 3404000    1.0795438   -3.1206404   -1.5810566  0.088770751   -3.1206404    1.5395838   461798 
 3405000    1.0783193   -3.1193812   -1.5817034  0.091114659   -3.1193812    1.5376778   461846 
 3406000    1.0790133   -3.1199227   -1.5813885   0.08774178   -3.1199227    1.5385342   461886 
 3407000    1.0792227   -3.1203233   -1.5816072  0.091177932   -3.1203233    1.5387162   461921 
 3408000    1.0796835   -3.1203766   -1.5812401  0.087723242   -3.1203766    1.5391364   461992 
 3409000    1.0802683   -3.1204413   -1.5805812   0.08867285   -3.1204413    1.5398601   462025 
 3410000    1.0817572   -3.1211344   -1.5793355  0.091423976   -3.1211344    1.5417989   462080 
 3411000     1.080893   -3.1207643   -1.5804004  0.085939965   -3.1207643     1.540364   462141 
 3412000    1.0811472    -3.121075   -1.5803922  0.090075226    -3.121075    1.5406828   462154 
 3413000    1.0802926   -3.1186317   -1.5793465  0.091456134   -3.1186317    1.5392852   462208 
 3414000    1.0809791   -3.1194569   -1.5794002  0.091779498   -3.1194569    1.5400567   462270 
 3415000    1.0814834     -3.11964   -1.5790814  0.094818712     -3.11964    1.5405586   462335 
 3416000    1.0802232   -3.1180608   -1.5796134  0.087789284   -3.1180608    1.5384473   462430 
 3417000    1.0796507   -3.1183026   -1.5808602  0.084690332   -3.1183026    1.5374424   462487 
 3418000    1.0793368   -3.1185671   -1.5816581  0.089525186   -3.1185671     1.536909   462513 
 3419000    1.0792761   -3.1192028   -1.5825496  0.085384679   -3.1192028    1.5366533   462564 
 3420000    1.0787499   -3.1174074   -1.5815797  0.084573042   -3.1174074    1.5358276   462587 
 3421000    1.0783038   -3.1172275   -1.5822739  0.086419533   -3.1172275    1.5349536   462659 
 3422000    1.0787652   -3.1172472   -1.5818094  0.088460379   -3.1172472    1.5354378   462711 
 3423000    1.0815171   -3.1199443   -1.5808091   0.08382978   -3.1199443    1.5391352   462777 
 3424000    1.0799771   -3.1175463   -1.5807289  0.089969395   -3.1175463    1.5368174   462815 
 3425000    1.0822029   -3.1203758   -1.5805375  0.085701442   -3.1203758    1.5398383   462859 
 3426000    1.0808628   -3.1178855     -1.58015  0.091519135   -3.1178855    1.5377355   462918 
 3427000    1.0808139   -3.1178558   -1.5803626  0.087581814   -3.1178558    1.5374932   462970 
 3428000    1.0800853   -3.1180496   -1.5817356  0.088625889   -3.1180496    1.5363141   463013 
 3429000    1.0824977   -3.1211074   -1.5814551  0.085821769   -3.1211074    1.5396523   463041 
 3430000    1.0801715   -3.1198469   -1.5835496   0.08563179   -3.1198469    1.5362973   463055 
 3431000    1.0806859    -3.119481   -1.5826047  0.085499348    -3.119481    1.5368763   463101 
 3432000    1.0818315   -3.1202052    -1.581816  0.088962107   -3.1202052    1.5383892   463136 
 3433000    1.0822003   -3.1202299   -1.5813396   0.08886416   -3.1202299    1.5388903   463143 
 3434000    1.0809815   -3.1207271   -1.5837988  0.092674282   -3.1207271    1.5369282   463212 
 3435000    1.0825605     -3.12243   -1.5832833  0.089572971     -3.12243    1.5391467   463220 
 3436000    1.0818687   -3.1219929   -1.5839826  0.097876281   -3.1219929    1.5380103   463266 
 3437000    1.0831556   -3.1217909   -1.5821969  0.089072942   -3.1217909     1.539594   463340 
 3438000    1.0838382    -3.123062   -1.5825877   0.09113897    -3.123062    1.5404743   463367 
 3439000    1.0849831      -3.1245   -1.5824814  0.083896151      -3.1245    1.5420185   463392 
 3440000    1.0843512   -3.1249031   -1.5839589  0.091108092   -3.1249031    1.5409441   463445 
 3441000    1.0841747   -3.1259711   -1.5854673  0.097164967   -3.1259711    1.5405039   463502 
 3442000    1.0863409   -3.1276078   -1.5841891   0.09106628   -3.1276078    1.5434187   463551 
 3443000    1.0842524   -3.1251818   -1.5849562   0.09229722   -3.1251818    1.5402255   463619 
 3444000    1.0830388   -3.1251507   -1.5867554  0.090008225   -3.1251507    1.5383952   463651 
 3445000    1.0841049   -3.1261925    -1.586429  0.091539879   -3.1261925    1.5397635   463695 
 3446000    1.0844904   -3.1255503   -1.5853222  0.092883013   -3.1255503     1.540228   463720 
 3447000    1.0838096   -3.1237215   -1.5845799   0.09270432   -3.1237215    1.5391416   463756 
 3448000    1.0856753   -3.1263329   -1.5847046  0.089368056   -3.1263329    1.5416283   463805 
 3449000    1.0844747   -3.1249034   -1.5851127   0.08759917   -3.1249034    1.5397907   463845 
 3450000    1.0847133    -3.126962   -1.5870815  0.086321488    -3.126962    1.5398805   463920 
 3451000    1.0832347   -3.1243816    -1.586809  0.087704272   -3.1243816    1.5375725   463983 
 3452000    1.0841917   -3.1243928   -1.5855845  0.090388959   -3.1243928    1.5388083   464020 
 3453000    1.0836498   -3.1245255   -1.5866323  0.089934033   -3.1245255    1.5378933   464064 
 3454000    1.0844977   -3.1231699   -1.5842887  0.092483047   -3.1231699    1.5388811   464129 
 3455000    1.0846558   -3.1236134   -1.5845511  0.087689709   -3.1236134    1.5390623   464142 
 3456000    1.0835439   -3.1224078   -1.5851981  0.092783734   -3.1224078    1.5372097   464225 
 3457000    1.0838014   -3.1210511   -1.5835854  0.087879514   -3.1210511    1.5374657   464258 
 3458000    1.0830744   -3.1194227   -1.5831539  0.090684634   -3.1194227    1.5362689   464308 
 3459000    1.0839466   -3.1206621   -1.5833082   0.09442902   -3.1206621    1.5373539   464354 
 3460000    1.0864325   -3.1239053   -1.5832514  0.087729361   -3.1239053    1.5406539   464422 
 3461000    1.0854649   -3.1231306    -1.583882  0.084864382   -3.1231306    1.5392486   464432 
 3462000    1.0865328   -3.1232416   -1.5826643  0.087424507   -3.1232416    1.5405773   464488 
 3463000    1.0838634   -3.1196431   -1.5829632  0.093963919   -3.1196431    1.5366799   464522 
 3464000    1.0854487   -3.1199868   -1.5812217   0.08463557   -3.1199868    1.5387651   464571 
 3465000    1.0857391   -3.1211469   -1.5821456  0.087741503   -3.1211469    1.5390013   464624 
 3466000    1.0833175   -3.1168644   -1.5814213  0.085530999   -3.1168644    1.5354431   464662 
 3467000    1.0837578    -3.118281   -1.5822832  0.085331505    -3.118281    1.5359978   464683 
 3468000    1.0843679   -3.1181816   -1.5815208  0.089145315   -3.1181816    1.5366607   464744 
 3469000    1.0850496   -3.1197863   -1.5822754  0.085851867   -3.1197863    1.5375109   464779 
 3470000    1.0851567   -3.1201837   -1.5826963  0.088403253   -3.1201837    1.5374874   464832 
 3471000    1.0847541   -3.1200851   -1.5833301  0.084573086   -3.1200851     1.536755   464881 
 3472000    1.0851974    -3.120368   -1.5831106  0.087571273    -3.120368    1.5372574   464919 
 3473000    1.0854131   -3.1195842   -1.5822262  0.083528247   -3.1195842     1.537358   464981 
 3474000    1.0862966   -3.1204395   -1.5820387    0.0888454   -3.1204395    1.5384008   465044 
 3475000    1.0863026   -3.1212495   -1.5829625  0.089793305   -3.1212495     1.538287   465081 
 3476000    1.0869826   -3.1212734   -1.5822122  0.089644662   -3.1212734    1.5390612   465138 
 3477000    1.0872308   -3.1212359   -1.5819655  0.086580215   -3.1212359    1.5392704   465181 
 3478000    1.0869841   -3.1220121   -1.5832961  0.084843444   -3.1220121     1.538716   465243 
 3479000    1.0868566   -3.1224511   -1.5840214  0.092039335   -3.1224511    1.5384297   465275 
 3480000    1.0844358   -3.1197002   -1.5847433  0.088924896   -3.1197002    1.5349569   465289 
 3481000    1.0872262   -3.1234388   -1.5846645  0.091861897   -3.1234388    1.5387743   465329 
 3482000    1.0870723   -3.1234035   -1.5849858  0.085384029   -3.1234035    1.5384177   465371 
 3483000     1.087013   -3.1222334   -1.5841079  0.091758491   -3.1222334    1.5381255   465434 
 3484000     1.086321   -3.1215028   -1.5845547  0.090276532   -3.1215028    1.5369481   465494 
 3485000    1.0891836   -3.1234279   -1.5825919  0.086205093   -3.1234279     1.540836   465543 
 3486000    1.0878653   -3.1221522    -1.583168  0.088997994   -3.1221522    1.5389842   465539 
 3487000    1.0876793   -3.1224893   -1.5839102  0.095864666   -3.1224893    1.5385791   465582 
 3488000    1.0876432   -3.1230174   -1.5845918  0.092670968   -3.1230174    1.5384256   465613 
 3489000    1.0889364   -3.1238497   -1.5837703  0.092636674   -3.1238497    1.5400794   465666 
 3490000     1.087313   -3.1234068   -1.5856069  0.092693197   -3.1234068    1.5377999   465661 
 3491000    1.0869657   -3.1230785   -1.5858424  0.088991497   -3.1230785    1.5372361   465683 
 3492000    1.0872217   -3.1240883   -1.5864637  0.085387058   -3.1240883    1.5376246   465675 
 3493000    1.0868997   -3.1236259   -1.5864798  0.087757407   -3.1236259    1.5371461   465682 
 3494000    1.0860405   -3.1215775   -1.5857389  0.086587397   -3.1215775    1.5358386   465710 
 3495000    1.0860353   -3.1217854   -1.5861026  0.089589635   -3.1217854    1.5356829   465755 
 3496000    1.0880432   -3.1233249   -1.5849348  0.086998165   -3.1233249    1.5383901   465795 
 3497000     1.086946    -3.123254   -1.5865407  0.086771842    -3.123254    1.5367134   465833 
 3498000    1.0860565   -3.1216946   -1.5863872  0.086324803   -3.1216946    1.5353075   465878 
 3499000    1.0859256     -3.12153   -1.5863845  0.091918697     -3.12153    1.5351455   465871 
 3500000    1.0878507    -3.124324   -1.5864902  0.085493906    -3.124324    1.5378338   465881 
 3501000    1.0873682   -3.1238415   -1.5867953  0.084283587   -3.1238415    1.5370462   465913 
 3502000    1.0865793   -3.1216961   -1.5859991  0.091328485   -3.1216961     1.535697   465984 
 3503000    1.0866994   -3.1217704   -1.5859266  0.086058232   -3.1217704    1.5358438   465991 
 3504000    1.0869328   -3.1217921   -1.5858327   0.08013289   -3.1217921    1.5359594   466056 
 3505000    1.0866982   -3.1208229   -1.5854092  0.088640478   -3.1208229    1.5354137   466121 
 3506000    1.0882008   -3.1224438   -1.5850125  0.091970312   -3.1224438    1.5374313   466153 
 3507000    1.0875724   -3.1217468    -1.585388  0.090322928   -3.1217468    1.5363588   466209 
 3508000     1.087386   -3.1210489   -1.5850523  0.092346084   -3.1210489    1.5359966   466239 
 3509000    1.0868042   -3.1208608   -1.5858012  0.085204033   -3.1208608    1.5350596   466274 
 3510000     1.088748   -3.1222629   -1.5845996    0.0892479   -3.1222629    1.5376634   466317 
 3511000    1.0887906   -3.1206629   -1.5831108  0.085498012   -3.1206629    1.5375521   466369 
 3512000    1.0894748   -3.1219964   -1.5835573  0.086517089   -3.1219964    1.5384391   466393 
 3513000    1.0893087    -3.122148   -1.5841018  0.090958153    -3.122148    1.5380462   466441 
 3514000    1.0884419   -3.1212109   -1.5845631  0.086747044   -3.1212109    1.5366478   466494 
 3515000    1.0878999   -3.1196188   -1.5838844  0.087430556   -3.1196188    1.5357344   466539 
 3516000      1.08935    -3.121706   -1.5840465  0.084305551    -3.121706    1.5376594   466576 
 3517000    1.0895073   -3.1223016   -1.5846244  0.087682332   -3.1223016    1.5376772   466638 
 3518000    1.0879767    -3.120208   -1.5848358  0.094053308    -3.120208    1.5353722   466682 
 3519000    1.0890324   -3.1217683   -1.5850676  0.087778202   -3.1217683    1.5367007   466731 
 3520000    1.0881313   -3.1216488   -1.5863545  0.090348912   -3.1216488    1.5352943   466772 
 3521000     1.090597   -3.1228436   -1.5842779  0.093108466   -3.1228436    1.5385657   466835 
 3522000    1.0895433   -3.1210056    -1.584068  0.089090427   -3.1210056    1.5369376   466878 
 3523000     1.090192   -3.1221617   -1.5844639  0.093503535   -3.1221617    1.5376978   466925 
 3524000    1.0913332   -3.1239235   -1.5847414  0.090701227   -3.1239235    1.5391821   466963 
 3525000    1.0923151   -3.1243059   -1.5837685   0.08890993   -3.1243059    1.5405374   466972 
 3526000    1.0898812   -3.1214918   -1.5845483   0.08977615   -3.1214918    1.5369435   467021 
 3527000     1.090243   -3.1234351   -1.5860538  0.083821094   -3.1234351    1.5373813   467043 
 3528000    1.0899242   -3.1226847   -1.5859407  0.085891759   -3.1226847    1.5367441   467100 
 3529000     1.091784   -3.1236445   -1.5844001  0.091970647   -3.1236445    1.5392444   467137 
 3530000    1.0917461   -3.1240749   -1.5850354  0.085453475   -3.1240749    1.5390394   467183 
 3531000    1.0911519   -3.1228604   -1.5847606   0.08795357   -3.1228604    1.5380998   467214 
 3532000    1.0904178   -3.1222861   -1.5853462  0.082595105   -3.1222861    1.5369399   467252 
 3533000    1.0900151   -3.1214893   -1.5853141  0.088961949   -3.1214893    1.5361751   467312 
 3534000    1.0917651   -3.1224179   -1.5839017  0.093954843   -3.1224179    1.5385162   467350 
 3535000    1.0918458   -3.1220142   -1.5835028  0.087836995   -3.1220142    1.5385114   467386 
 3536000    1.0916799   -3.1219016   -1.5837556  0.093239265   -3.1219016     1.538146   467426 
 3537000    1.0911258   -3.1216437   -1.5844067  0.086881823   -3.1216437    1.5372371   467465 
 3538000    1.0922038   -3.1226229   -1.5840251   0.08647192   -3.1226229    1.5385978   467513 
 3539000    1.0929637   -3.1229235   -1.5834626  0.085733784   -3.1229235    1.5394609   467576 
 3540000    1.0934555   -3.1227462   -1.5827804  0.089057811   -3.1227462    1.5399658   467633 
 3541000    1.0936203    -3.121613   -1.5816258  0.088831736    -3.121613    1.5399872   467697 
 3542000     1.093482   -3.1222652   -1.5825287  0.088958892   -3.1222652    1.5397365   467714 
 3543000     1.093057   -3.1224295   -1.5833935  0.088602233   -3.1224295    1.5390361   467745 
 3544000    1.0932316   -3.1224605   -1.5833465  0.083951078   -3.1224605     1.539114   467796 
 3545000    1.0924294   -3.1230092   -1.5850903  0.082946075   -3.1230092    1.5379189   467816 
 3546000    1.0928043   -3.1227405   -1.5845469  0.086827978   -3.1227405    1.5381935   467893 
 3547000    1.0912054   -3.1205447   -1.5847658  0.083702418   -3.1205447    1.5357789   467943 
 3548000    1.0909061   -3.1195721   -1.5844114  0.089394634   -3.1195721    1.5351608   468003 
 3549000    1.0927703   -3.1198941   -1.5822086  0.091463481   -3.1198941    1.5376855   468033 
 3550000     1.091485   -3.1203406   -1.5846375  0.091247697   -3.1203406    1.5357031   468086 
 3551000    1.0928074   -3.1211679   -1.5838966  0.087181021   -3.1211679    1.5372713   468175 
 3552000    1.0915899   -3.1201833   -1.5848115  0.086887816   -3.1201833    1.5353718   468232 
 3553000    1.0940729   -3.1226275    -1.583921  0.085552288   -3.1226275    1.5387065   468280 
 3554000    1.0937763   -3.1214684   -1.5833565  0.085873255   -3.1214684    1.5381119   468334 
 3555000    1.0933919   -3.1210241   -1.5835479  0.090445829   -3.1210241    1.5374762   468363 
 3556000    1.0954951   -3.1241296   -1.5838012  0.088925676   -3.1241296    1.5403284   468395 
 3557000    1.0940316   -3.1226802   -1.5844753  0.087704239   -3.1226802    1.5382049   468415 
 3558000    1.0941315   -3.1219089   -1.5837769  0.086029216   -3.1219089     1.538132   468480 
 3559000    1.0936014   -3.1216251   -1.5842876  0.083404529   -3.1216251    1.5373375   468495 
 3560000    1.0942833   -3.1222504   -1.5841086  0.089493415   -3.1222504    1.5381419   468542 
 3561000    1.0944434   -3.1216492    -1.583417  0.090465238   -3.1216492    1.5382322   468583 
 3562000    1.0951121   -3.1223975   -1.5832649  0.088876569   -3.1223975    1.5391326   468595 
 3563000    1.0949209   -3.1227097   -1.5839376  0.088544952   -3.1227097    1.5387721   468623 
 3564000     1.095457   -3.1240363   -1.5846226  0.087299843   -3.1240363    1.5394138   468657 
 3565000    1.0953879   -3.1239306   -1.5848209  0.087379533   -3.1239306    1.5391097   468720 
 3566000    1.0955725   -3.1231474   -1.5839982  0.090491493   -3.1231474    1.5391491   468787 
 3567000    1.0954074   -3.1223814   -1.5836481  0.089358869   -3.1223814    1.5387333   468843 
 3568000    1.0946325   -3.1214509   -1.5840125  0.089079602   -3.1214509    1.5374383   468906 
 3569000     1.096078   -3.1227585   -1.5833819  0.086864224   -3.1227585    1.5393765   468934 
 3570000    1.0957641    -3.122948   -1.5841797  0.086838391    -3.122948    1.5387684   468985 
 3571000    1.0947799   -3.1215999   -1.5842923  0.087562525   -3.1215999    1.5373076   469009 
 3572000    1.0954556   -3.1222604   -1.5840499  0.088426665   -3.1222604    1.5382105   469023 
 3573000    1.0959625   -3.1225228   -1.5836531  0.088784982   -3.1225228    1.5388697   469039 
 3574000    1.0967126   -3.1246425   -1.5849198  0.089134491   -3.1246425    1.5397227   469100 
 3575000    1.0945784   -3.1204682   -1.5839023  0.088912539   -3.1204682    1.5365659   469149 
 3576000    1.0953201   -3.1216332    -1.584157   0.08593964   -3.1216332    1.5374761   469189 
 3577000     1.094607   -3.1216003   -1.5853675  0.084455794   -3.1216003    1.5362328   469263 
 3578000    1.0949781   -3.1222739   -1.5857265   0.08535454   -3.1222739    1.5365474   469326 
 3579000    1.0935747   -3.1208481   -1.5863518  0.087663327   -3.1208481    1.5344962   469351 
 3580000    1.0964295   -3.1234203   -1.5851247  0.084513146   -3.1234203    1.5382956   469414 
 3581000    1.0969733   -3.1243388   -1.5854146  0.085259265   -3.1243388    1.5389241   469455 
 3582000    1.0947994   -3.1207479   -1.5850043  0.093308538   -3.1207479    1.5357435   469495 
 3583000    1.0952092   -3.1230293   -1.5867468  0.086910893   -3.1230293    1.5362825   469506 
 3584000    1.0966811    -3.124703   -1.5864444  0.087882797    -3.124703    1.5382586   469533 
 3585000    1.0968704   -3.1237894   -1.5854356  0.084672546   -3.1237894    1.5383538   469585 
 3586000    1.0983858    -3.124381   -1.5840101  0.093981764    -3.124381    1.5403709   469618 
 3587000    1.0980923   -3.1234752   -1.5836634   0.08373944   -3.1234752    1.5398118   469663 
 3588000    1.0976988   -3.1233311   -1.5842382  0.089803502   -3.1233311    1.5390929   469714 
 3589000    1.0985966   -3.1242076   -1.5839773  0.090328616   -3.1242076    1.5402303   469751 
 3590000    1.0981641    -3.124003   -1.5845331  0.094758428    -3.124003    1.5394699   469798 
 3591000    1.0990511   -3.1242185   -1.5836396  0.089239644   -3.1242185    1.5405789   469839 
 3592000    1.0979902   -3.1225985   -1.5836541   0.09164385   -3.1225985    1.5389444   469884 
 3593000    1.0973502   -3.1243121   -1.5863989  0.089257325   -3.1243121    1.5379132   469925 
 3594000    1.0982781   -3.1249625    -1.585752  0.083081008   -3.1249625    1.5392104   469926 
 3595000    1.0970288   -3.1226605   -1.5854626  0.083527623   -3.1226605    1.5371978   470006 
 3596000    1.0972621   -3.1228597   -1.5854037  0.086477217   -3.1228597     1.537456   470027 
 3597000    1.0981251   -3.1233109     -1.58477   0.08409516   -3.1233109    1.5385409   470065 
 3598000    1.0969319   -3.1205135   -1.5839288  0.084956357   -3.1205135    1.5365847   470152 
 3599000    1.0964843   -3.1204479   -1.5847025  0.088324756   -3.1204479    1.5357454   470217 
 3600000    1.0965135   -3.1211745   -1.5855744   0.09132581   -3.1211745    1.5356001   470274 
 3601000    1.0984796   -3.1235381   -1.5853023   0.08566002   -3.1235381    1.5382357   470310 
 3602000    1.0964567   -3.1213986   -1.5861098  0.083544721   -3.1213986    1.5352888   470345 
 3603000    1.0996148   -3.1248601   -1.5852833  0.087635914   -3.1248601    1.5395767   470386 
 3604000    1.0974414   -3.1229316   -1.5865874  0.083794003   -3.1229316    1.5363442   470444 
 3605000    1.0978971   -3.1233867   -1.5865058  0.084286524   -3.1233867    1.5368809   470475 
 3606000    1.0987207   -3.1239762   -1.5861744  0.081752925   -3.1239762    1.5378017   470546 
 3607000    1.0978789     -3.12138   -1.5848805  0.089488967     -3.12138    1.5364995   470584 
 3608000    1.0989399   -3.1222765   -1.5845503  0.088871987   -3.1222765    1.5377262   470663 
 3609000    1.0998683    -3.123616   -1.5848294  0.081875035    -3.123616    1.5387866   470736 
 3610000     1.100577   -3.1236349   -1.5840759  0.089673523   -3.1236349    1.5395591   470803 
 3611000    1.1005886   -3.1223006   -1.5829542  0.086744345   -3.1223006    1.5393464   470873 
 3612000    1.1001944    -3.121754   -1.5832433  0.088737314    -3.121754    1.5385108   470960 
 3613000      1.10119   -3.1222237   -1.5824907  0.087873782   -3.1222237     1.539733   471012 
 3614000    1.1010026   -3.1213358   -1.5819465  0.092311225   -3.1213358    1.5393892   471037 
 3615000    1.1007861   -3.1206496   -1.5817787  0.086967529   -3.1206496     1.538871   471103 
 3616000    1.1017044   -3.1231258   -1.5832359  0.086448531   -3.1231258    1.5398899   471184 
 3617000    1.1021182   -3.1237915   -1.5834735  0.090547382   -3.1237915    1.5403179   471230 
 3618000    1.1028109   -3.1226995   -1.5815444  0.090702436   -3.1226995    1.5411552   471270 
 3619000    1.1021096   -3.1213936   -1.5813262  0.089615998   -3.1213936    1.5400674   471303 
 3620000    1.1022684   -3.1218379   -1.5816664  0.091790959   -3.1218379    1.5401716   471339 
 3621000     1.101499   -3.1220083   -1.5830783  0.085325541   -3.1220083    1.5389301   471390 
 3622000    1.1019767   -3.1226593   -1.5832153  0.089464614   -3.1226593     1.539444   471437 
 3623000    1.1029488   -3.1246064    -1.583994  0.087607974   -3.1246064    1.5406124   471495 
 3624000    1.1018853   -3.1229294   -1.5840538  0.089888447   -3.1229294    1.5388756   471572 
 3625000    1.1028322   -3.1238901   -1.5838587  0.087020555   -3.1238901    1.5400314   471623 
 3626000    1.1016251   -3.1215623   -1.5833697  0.093175897   -3.1215623    1.5381926   471670 
 3627000    1.1031335   -3.1228928   -1.5826888  0.090134832   -3.1228928     1.540204   471699 
 3628000    1.1016991   -3.1208963   -1.5828484  0.090950186   -3.1208963     1.538048   471746 
 3629000    1.1033664   -3.1234822    -1.583299  0.093896384   -3.1234822    1.5401831   471805 
 3630000    1.1028785   -3.1223458   -1.5830101  0.087584564   -3.1223458    1.5393357   471856 
 3631000    1.1030923    -3.122701   -1.5833247  0.086627205    -3.122701    1.5393763   471935 
 3632000    1.1034562   -3.1219321   -1.5821557  0.092680478   -3.1219321    1.5397765   471968 
 3633000    1.1026929   -3.1216489   -1.5831755  0.092180823   -3.1216489    1.5384734   472041 
 3634000    1.1036087    -3.122638   -1.5830761  0.086872302    -3.122638    1.5395619   472099 
 3635000     1.103248   -3.1204368   -1.5815443  0.091181742   -3.1204368    1.5388926   472150 
 3636000     1.103878   -3.1228348   -1.5832102  0.089053249   -3.1228348    1.5396246   472195 
 3637000    1.1043939   -3.1230636   -1.5828891  0.082987318   -3.1230636    1.5401745   472247 
 3638000    1.1032839   -3.1219435   -1.5834897  0.091528448   -3.1219435    1.5384538   472300 
 3639000    1.1037795   -3.1213507   -1.5823394  0.090362328   -3.1213507    1.5390113   472341 
 3640000    1.1050595   -3.1232757    -1.582708  0.087988911   -3.1232757    1.5405677   472411 
 3641000    1.1032566   -3.1237063   -1.5857496  0.086174089   -3.1237063    1.5379567   472441 
 3642000    1.1036573   -3.1226164   -1.5842055  0.090564002   -3.1226164    1.5384109   472473 
 3643000    1.1044299   -3.1233959   -1.5839926  0.086456026   -3.1233959    1.5394033   472499 
 3644000     1.103444   -3.1220206   -1.5842455  0.090813902   -3.1220206    1.5377751   472577 
 3645000    1.1037742   -3.1218275   -1.5836605  0.088381745   -3.1218275     1.538167   472598 
 3646000    1.1048304   -3.1227869   -1.5833044  0.083493561   -3.1227869    1.5394824   472646 
 3647000    1.1064999   -3.1246909   -1.5830159  0.091661979   -3.1246909     1.541675   472687 
 3648000     1.105149    -3.121908    -1.582291  0.086002145    -3.121908     1.539617   472741 
 3649000    1.1062422   -3.1230254   -1.5820876  0.087492247   -3.1230254    1.5409379   472803 
 3650000    1.1078323   -3.1243335   -1.5813602  0.088864266   -3.1243335    1.5429734   472858 
 3651000     1.105331    -3.122309     -1.58294  0.086667303    -3.122309     1.539369   472895 
 3652000    1.1058498   -3.1221006   -1.5821458  0.095274967   -3.1221006    1.5399548   472937 
 3653000    1.1064789   -3.1218441   -1.5811272  0.087270539   -3.1218441    1.5407169   472972 
 3654000    1.1058611   -3.1219419   -1.5823197  0.089997785   -3.1219419    1.5396222   473044 
 3655000    1.1062911   -3.1218896   -1.5820073  0.087941561   -3.1218896    1.5398823   473148 
 3656000    1.1058928   -3.1210569   -1.5818688  0.090479547   -3.1210569    1.5391881   473191 
 3657000    1.1069946   -3.1233737   -1.5828313  0.087821537   -3.1233737    1.5405425   473246 
 3658000     1.104887   -3.1200663    -1.582642  0.089668051   -3.1200663    1.5374243   473303 
 3659000    1.1065818   -3.1229865   -1.5833958  0.086775091   -3.1229865    1.5395907   473362 
 3660000    1.1069734   -3.1222254   -1.5822038  0.092361901   -3.1222254    1.5400216   473397 
 3661000    1.1090513   -3.1247511   -1.5820081  0.085660073   -3.1247511     1.542743   473449 
 3662000    1.1072888   -3.1225964   -1.5824158  0.091871774   -3.1225964    1.5401806   473483 
 3663000    1.1070843   -3.1232492   -1.5834604  0.089055692   -3.1232492    1.5397889   473516 
 3664000    1.1056748   -3.1209492   -1.5832312  0.091000565   -3.1209492     1.537718   473550 
 3665000    1.1074309   -3.1235642    -1.583547  0.087791301   -3.1235642    1.5400172   473594 
 3666000    1.1090429   -3.1252908   -1.5832598  0.086411814   -3.1252908     1.542031   473664 
 3667000    1.1064597   -3.1222575   -1.5839872  0.087562348   -3.1222575    1.5382703   473716 
 3668000     1.106186   -3.1235115   -1.5857451  0.087967074   -3.1235115    1.5377664   473754 
 3669000    1.1090238   -3.1262422   -1.5847878  0.090838311   -3.1262422    1.5414544   473833 
 3670000    1.1091618   -3.1261067   -1.5845158  0.091384395   -3.1261067    1.5415909   473850 
 3671000    1.1072145   -3.1237157    -1.585013  0.090605351   -3.1237157    1.5387027   473906 
 3672000    1.1098222   -3.1249987    -1.582913  0.087044752   -3.1249987    1.5420857   473980 
 3673000    1.1099202   -3.1243353   -1.5823997  0.091357372   -3.1243353    1.5419356   474068 
 3674000    1.1109569   -3.1250363   -1.5817452  0.092072869   -3.1250363    1.5432911   474094 
 3675000    1.1088997   -3.1231176   -1.5827621  0.093998532   -3.1231176    1.5403555   474118 
 3676000    1.1091597    -3.123146    -1.582504  0.092183026    -3.123146    1.5406419   474141 
 3677000     1.109086   -3.1235974   -1.5832788   0.09224983   -3.1235974    1.5403186   474209 
 3678000    1.1107453   -3.1265567   -1.5840768  0.088034099   -3.1265567    1.5424799   474253 
 3679000    1.1103407   -3.1248161    -1.583145  0.094098078   -3.1248161    1.5416711   474329 
 3680000    1.1104985   -3.1262489   -1.5845408   0.09154763   -3.1262489    1.5417081   474385 
 3681000    1.1090537   -3.1242138   -1.5846056  0.088832428   -3.1242138    1.5396082   474414 
 3682000    1.1083665   -3.1233151   -1.5848944   0.09543743   -3.1233151    1.5384207   474486 
 3683000     1.109622   -3.1244544   -1.5844794  0.087050052   -3.1244544    1.5399751   474544 
 3684000    1.1122156   -3.1270717   -1.5837019  0.092579002   -3.1270717    1.5433698   474607 
 3685000    1.1112599   -3.1242292   -1.5824196  0.095754591   -3.1242292    1.5418097   474679 
 3686000    1.1124378    -3.126287   -1.5830706  0.091055555    -3.126287    1.5432164   474749 
 3687000    1.1122347   -3.1252861   -1.5826213  0.093407429   -3.1252861    1.5426648   474832 
 3688000    1.1115517   -3.1248679   -1.5833159  0.091432258   -3.1248679     1.541552   474883 
 3689000    1.1108954   -3.1246316   -1.5841358  0.089172719   -3.1246316    1.5404958   474928 
 3690000     1.111312   -3.1249131   -1.5839759  0.086933066   -3.1249131    1.5409372   474970 
 3691000    1.1137585   -3.1270887   -1.5829802  0.091821303   -3.1270887    1.5441085   475038 
 3692000    1.1102059   -3.1220176     -1.58287  0.091755234   -3.1220176    1.5391476   475049 
 3693000    1.1103686   -3.1224079   -1.5832032  0.091030829   -3.1224079    1.5392047   475101 
 3694000    1.1107193   -3.1228131   -1.5833491  0.087647678   -3.1228131     1.539464   475171 
 3695000    1.1120263    -3.123432   -1.5825035  0.090503819    -3.123432    1.5409285   475278 
 3696000    1.1130317   -3.1259926   -1.5837877  0.086921734   -3.1259926    1.5422048   475314 
 3697000    1.1123793   -3.1245374   -1.5833208  0.093574989   -3.1245374    1.5412166   475340 
 3698000    1.1119745   -3.1250475    -1.584502  0.089177038   -3.1250475    1.5405455   475374 
 3699000    1.1113496   -3.1236689   -1.5841997  0.082194734   -3.1236689    1.5394692   475439 
 3700000    1.1117175   -3.1239297   -1.5840966  0.084665096   -3.1239297    1.5398331   475484 
 3701000    1.1121728   -3.1236587   -1.5833698  0.089286713   -3.1236587    1.5402888   475538 
 3702000    1.1122136   -3.1243083   -1.5840666  0.083322051   -3.1243083    1.5402417   475570 
 3703000    1.1124451   -3.1257527   -1.5853425  0.089985474   -3.1257527    1.5404101   475617 
 3704000    1.1123367   -3.1251528   -1.5849931  0.088349745   -3.1251528    1.5401596   475648 
 3705000    1.1119609   -3.1238047   -1.5842463  0.087594074   -3.1238047    1.5395583   475673 
 3706000    1.1122281   -3.1243051   -1.5845128  0.091505453   -3.1243051    1.5397923   475715 
 3707000    1.1116766   -3.1215269   -1.5826308  0.097640022   -3.1215269    1.5388961   475756 
 3708000    1.1156146   -3.1274431   -1.5832157  0.084203848   -3.1274431    1.5442275   475793 
 3709000    1.1150451   -3.1249656   -1.5817307   0.10027121   -3.1249656    1.5432349   475856 
 3710000    1.1151038   -3.1258333   -1.5826372  0.092411931   -3.1258333    1.5431961   475893 
 3711000    1.1139999   -3.1259242   -1.5843497  0.091097329   -3.1259242    1.5415745   475922 
 3712000    1.1157118   -3.1281148   -1.5842686  0.091906358   -3.1281148    1.5438462   475952 
 3713000    1.1161396   -3.1280983   -1.5838224  0.096147861   -3.1280983    1.5442759   476002 
 3714000     1.115849    -3.129026    -1.585204  0.090309229    -3.129026    1.5438219   476018 
 3715000    1.1158693   -3.1280562   -1.5843555  0.092749742   -3.1280562    1.5437007   476064 
 3716000    1.1143802   -3.1268902   -1.5853596  0.092354742   -3.1268902    1.5415306   476098 
 3717000    1.1143323   -3.1274209   -1.5861281  0.094250948   -3.1274209    1.5412928   476151 
 3718000     1.116061   -3.1283433   -1.5848247   0.08859512   -3.1283433    1.5435186   476202 
 3719000     1.117259   -3.1296463   -1.5845553  0.090045379   -3.1296463     1.545091   476228 
 3720000    1.1165583   -3.1294304    -1.585529  0.090568359   -3.1294304    1.5439015   476296 
 3721000    1.1169709   -3.1279796   -1.5836404  0.092519956   -3.1279796    1.5443392   476337 
 3722000    1.1143998   -3.1241573   -1.5835219  0.097544031   -3.1241573    1.5406354   476383 
 3723000    1.1160109     -3.12534    -1.582597  0.086741237     -3.12534     1.542743   476420 
 3724000    1.1158946   -3.1257856   -1.5833522  0.090352517   -3.1257856    1.5424333   476466 
 3725000    1.1159127   -3.1254735   -1.5831155  0.092782149   -3.1254735     1.542358   476497 
 3726000    1.1146221   -3.1237453   -1.5831388  0.091246719   -3.1237453    1.5406065   476487 
 3727000    1.1153867   -3.1249842   -1.5835182  0.088858861   -3.1249842     1.541466   476548 
 3728000    1.1168493    -3.126059     -1.58274  0.092202502    -3.126059    1.5433189   476600 
 3729000    1.1142225   -3.1233798   -1.5839556  0.094179719   -3.1233798    1.5394242   476682 
 3730000    1.1151817   -3.1243886   -1.5838913  0.085643985   -3.1243886    1.5404973   476760 
 3731000    1.1144566   -3.1243282   -1.5850102  0.086802115   -3.1243282    1.5393181   476815 
 3732000    1.1145724   -3.1224741   -1.5831284  0.098026721   -3.1224741    1.5393457   476856 
 3733000    1.1152304   -3.1239419    -1.583807  0.088762713   -3.1239419    1.5401349   476893 
 3734000    1.1154973   -3.1227755   -1.5823591  0.092050325   -3.1227755    1.5404164   476920 
 3735000    1.1163633   -3.1236066   -1.5821689  0.090181549   -3.1236066    1.5414377   476974 
 3736000    1.1174409   -3.1252521   -1.5824267  0.090129522   -3.1252521    1.5428254   477005 
 3737000     1.115638   -3.1241726   -1.5837977  0.085982205   -3.1241726    1.5403749   476993 
 3738000     1.115065    -3.123474   -1.5839678  0.092293704    -3.123474    1.5395062   477017 
 3739000    1.1150204   -3.1244713   -1.5850589  0.090729089   -3.1244713    1.5394125   477027 
 3740000    1.1190203   -3.1280452   -1.5832109  0.087243124   -3.1280452    1.5448343   477058 
 3741000    1.1169419   -3.1250406   -1.5831886  0.091333431   -3.1250406     1.541852   477093 
 3742000    1.1160063   -3.1249076   -1.5845732  0.091985128   -3.1249076    1.5403344   477163 
 3743000    1.1175672     -3.12669   -1.5843564  0.093808455     -3.12669    1.5423336   477211 
 3744000    1.1181695   -3.1273447   -1.5843675  0.090743944   -3.1273447    1.5429773   477269 
 3745000     1.118169   -3.1269859   -1.5842161  0.088607613   -3.1269859    1.5427698   477333 
 3746000    1.1191247    -3.128362   -1.5845065  0.089926397    -3.128362    1.5438555   477405 
 3747000    1.1184031   -3.1279426   -1.5851504  0.091082955   -3.1279426    1.5427922   477426 
 3748000     1.118708   -3.1287593   -1.5856985  0.092939717   -3.1287593    1.5430608   477473 
 3749000    1.1191538   -3.1288452   -1.5852535  0.090720297   -3.1288452    1.5435917   477499 
 3750000    1.1188429   -3.1284023   -1.5854689  0.094291124   -3.1284023    1.5429334   477570 
 3751000    1.1189517   -3.1290222   -1.5860486  0.092730035   -3.1290222    1.5429737   477604 
 3752000    1.1202667   -3.1312966    -1.586681  0.094509179   -3.1312966    1.5446156   477657 
 3753000    1.1178756   -3.1281202   -1.5868821  0.090828892   -3.1281202    1.5412381   477682 
 3754000    1.1191413   -3.1295925   -1.5867805  0.095081015   -3.1295925     1.542812   477735 
 3755000    1.1198708   -3.1298839   -1.5862601  0.089974714   -3.1298839    1.5436238   477795 
 3756000     1.121104   -3.1300441   -1.5848726  0.092804585   -3.1300441    1.5451716   477842 
 3757000    1.1207604   -3.1300334   -1.5855197  0.099543904   -3.1300334    1.5445138   477899 
 3758000    1.1230255    -3.133404   -1.5859695  0.095351373    -3.133404    1.5474346   477961 
 3759000     1.120242    -3.129848    -1.586462  0.097949962    -3.129848     1.543386   478027 
 3760000    1.1193893   -3.1287861   -1.5867362   0.09576304   -3.1287861    1.5420499   478077 
 3761000    1.1185945   -3.1280402   -1.5872528  0.094225589   -3.1280402    1.5407874   478129 
 3762000    1.1201139   -3.1293179   -1.5865797  0.089766443   -3.1293179    1.5427383   478173 
 3763000     1.120833   -3.1313501   -1.5878085  0.094186316   -3.1313501    1.5435415   478231 
 3764000    1.1207738   -3.1306466   -1.5873222   0.08638805   -3.1306466    1.5433244   478273 
 3765000    1.1194326   -3.1287067   -1.5874225  0.091446876   -3.1287067    1.5412842   478333 
 3766000    1.1188939   -3.1279491   -1.5875289  0.090376784   -3.1279491    1.5404202   478371 
 3767000    1.1190048   -3.1281802   -1.5878167  0.086494163   -3.1281802    1.5403635   478436 
 3768000    1.1191185   -3.1278448    -1.587431  0.089144377   -3.1278448    1.5404138   478469 
 3769000    1.1203625   -3.1281501     -1.58614  0.092450852   -3.1281501    1.5420101   478505 
 3770000    1.1218228    -3.129504   -1.5855872  0.088072714    -3.129504    1.5439168   478537 
 3771000    1.1206697   -3.1278473   -1.5856143  0.093525906   -3.1278473     1.542233   478567 
 3772000    1.1197926   -3.1267531   -1.5857367  0.089664856   -3.1267531    1.5410164   478570 
 3773000    1.1223942   -3.1295077   -1.5851015   0.08484879   -3.1295077    1.5444062   478629 
 3774000    1.1220951   -3.1283913   -1.5843935  0.087151901   -3.1283913    1.5439978   478628 
 3775000    1.1215819   -3.1264764   -1.5833491  0.097828542   -3.1264764    1.5431273   478679 
 3776000    1.1220205   -3.1278377   -1.5842586  0.091496581   -3.1278377    1.5435792   478726 
 3777000    1.1218869   -3.1269996   -1.5838557  0.090508519   -3.1269996     1.543144   478804 
 3778000    1.1212394   -3.1266161   -1.5844563  0.090031827   -3.1266161    1.5421598   478833 
 3779000    1.1213808    -3.125924   -1.5837757  0.094300489    -3.125924    1.5421483   478897 
 3780000     1.123539   -3.1272627   -1.5822722  0.089860075   -3.1272627    1.5449905   478936 
 3781000    1.1234861   -3.1273282   -1.5824267  0.089546872   -3.1273282    1.5449015   478941 
 3782000    1.1226845   -3.1282372    -1.584528  0.093932443   -3.1282372    1.5437091   478969 
 3783000     1.122723   -3.1270075   -1.5834034  0.088950062   -3.1270075    1.5436041   479018 
 3784000    1.1232541   -3.1282065   -1.5839818  0.089031651   -3.1282065    1.5442247   479052 
 3785000    1.1199146   -3.1253146   -1.5857775  0.086763308   -3.1253146    1.5395371   479082 
 3786000    1.1222645   -3.1276989   -1.5850924   0.09196698   -3.1276989    1.5426066   479132 
 3787000    1.1222757    -3.127358    -1.584823  0.086388617    -3.127358     1.542535   479159 
 3788000    1.1209624    -3.126471   -1.5859339  0.094357076    -3.126471    1.5405371   479219 
 3789000    1.1214611   -3.1273655   -1.5862814  0.093317862   -3.1273655    1.5410841   479262 
 3790000    1.1211643   -3.1261045   -1.5854346  0.088649994   -3.1261045    1.5406699   479264 
 3791000    1.1216365   -3.1275858   -1.5863442  0.088554916   -3.1275858    1.5412416   479288 
 3792000    1.1207233   -3.1262375   -1.5863921  0.089393482   -3.1262375    1.5398454   479332 
 3793000    1.1237059    -3.129517   -1.5857379  0.093072114    -3.129517    1.5437792   479383 
 3794000    1.1221075   -3.1276245   -1.5861507  0.098934761   -3.1276245    1.5414738   479417 
 3795000    1.1231518   -3.1282727   -1.5855059  0.094265547   -3.1282727    1.5427668   479461 
 3796000    1.1240225   -3.1301333   -1.5863861  0.092520325   -3.1301333    1.5437472   479528 
 3797000    1.1246489   -3.1292612   -1.5847729  0.093973681   -3.1292612    1.5444883   479565 
 3798000     1.124081    -3.129933   -1.5864081   0.09035149    -3.129933    1.5435249   479622 
 3799000    1.1251473   -3.1303987   -1.5854773  0.093064673   -3.1303987    1.5449214   479643 
 3800000    1.1247614   -3.1302857   -1.5860487  0.088397742   -3.1302857    1.5442371   479691 
 3801000    1.1245949   -3.1317836   -1.5879039  0.085575264   -3.1317836    1.5438797   479731 
 3802000    1.1250726   -3.1317999   -1.5873578  0.088239902   -3.1317999    1.5444421   479760 
 3803000    1.1230066   -3.1291891   -1.5877565  0.091196632   -3.1291891    1.5414325   479814 
 3804000    1.1233319   -3.1288921   -1.5872412  0.094318424   -3.1288921    1.5416509   479885 
 3805000    1.1255887   -3.1323233   -1.5877168  0.087607517   -3.1323233    1.5446066   479929 
 3806000    1.1253016   -3.1322203   -1.5881075  0.090883966   -3.1322203    1.5441128   479960 
 3807000    1.1245464   -3.1312225   -1.5883998  0.084359203   -3.1312225    1.5428226   480039 
 3808000    1.1258496   -3.1322861   -1.5879008  0.089756575   -3.1322861    1.5443853   480109 
 3809000    1.1250958   -3.1302174   -1.5870269  0.091458019   -3.1302174    1.5431905   480159 
 3810000    1.1236383   -3.1289683   -1.5879278  0.090565431   -3.1289683    1.5410406   480206 
 3811000    1.1234672   -3.1281647    -1.587471   0.09179952   -3.1281647    1.5406936   480241 
 3812000    1.1228835   -3.1283645   -1.5886221  0.090043135   -3.1283645    1.5397425   480288 
 3813000    1.1238184   -3.1297152    -1.588742  0.089239036   -3.1297152    1.5409732   480304 
 3814000    1.1247683   -3.1316436    -1.589551  0.089076078   -3.1316436    1.5420926   480361 
 3815000    1.1239245   -3.1301398   -1.5894414  0.093499665   -3.1301398    1.5406983   480435 
 3816000    1.1240675   -3.1302093   -1.5893823  0.094844483   -3.1302093     1.540827   480456 
 3817000    1.1239307   -3.1295505   -1.5890713  0.093132717   -3.1295505    1.5404792   480506 
 3818000    1.1261709   -3.1324413   -1.5890201   0.08798643   -3.1324413    1.5434212   480546 
 3819000    1.1240341    -3.128358   -1.5879455   0.09492382    -3.128358    1.5404125   480571 
 3820000    1.1264372   -3.1313236   -1.5876627  0.092338636   -3.1313236    1.5436609   480585 
 3821000    1.1261302   -3.1308857   -1.5877033  0.097747981   -3.1308857    1.5431824   480603 
 3822000    1.1264675   -3.1320348   -1.5885025  0.090631142   -3.1320348    1.5435323   480638 
 3823000    1.1260121   -3.1309543   -1.5881071  0.098805357   -3.1309543    1.5428472   480657 
 3824000    1.1255943   -3.1301516   -1.5880308  0.095580444   -3.1301516    1.5421208   480705 
 3825000    1.1269473   -3.1325775    -1.588722  0.085990404   -3.1325775    1.5438555   480742 
 3826000    1.1268495   -3.1311315   -1.5876507  0.096328881   -3.1311315    1.5434808   480817 
 3827000    1.1285977   -3.1339066   -1.5881662  0.095425402   -3.1339066    1.5457404   480859 
 3828000    1.1282293    -3.134131   -1.5889273  0.095324457    -3.134131    1.5452037   480869 
 3829000    1.1277663   -3.1335872   -1.5892072  0.090970551   -3.1335872      1.54438   480928 
 3830000    1.1286008   -3.1330845    -1.587671  0.091469966   -3.1330845    1.5454135   480962 
 3831000     1.128808   -3.1327629   -1.5872391  0.091809471   -3.1327629    1.5455237   481016 
 3832000     1.127921   -3.1328902   -1.5886258  0.096198455   -3.1328902    1.5442644   481030 
 3833000    1.1259661   -3.1308771   -1.5894174   0.08867108   -3.1308771    1.5414597   481070 
 3834000    1.1271095   -3.1331441   -1.5903052  0.091295711   -3.1331441    1.5428389   481128 
 3835000    1.1280914   -3.1331347    -1.589019  0.089548647   -3.1331347    1.5441157   481149 
 3836000    1.1270926   -3.1320284   -1.5894177  0.092694619   -3.1320284    1.5426107   481192 
 3837000    1.1288041    -3.134724   -1.5899088  0.095724685    -3.134724    1.5448151   481235 
 3838000     1.127616   -3.1321436    -1.589025  0.088717101   -3.1321436    1.5431186   481257 
 3839000    1.1269902   -3.1317326   -1.5895345  0.091731567   -3.1317326     1.542198   481277 
 3840000    1.1275692    -3.131061   -1.5881956  0.088755344    -3.131061    1.5428654   481316 
 3841000    1.1278448   -3.1311601   -1.5879465  0.091007147   -3.1311601    1.5432136   481325 
 3842000    1.1282973   -3.1315593   -1.5878163  0.096836966   -3.1315593     1.543743   481353 
 3843000    1.1281813   -3.1333175   -1.5897845  0.089307048   -3.1333175     1.543533   481369 
 3844000    1.1263521   -3.1305533    -1.589603  0.086861139   -3.1305533    1.5409503   481394 
 3845000    1.1278948   -3.1322819   -1.5893173  0.086161787   -3.1322819    1.5429647   481424 
 3846000    1.1272357   -3.1315297   -1.5896749  0.088777141   -3.1315297    1.5418548   481489 
 3847000    1.1259648   -3.1304995    -1.590527  0.091588675   -3.1304995    1.5399725   481534 
 3848000    1.1292063   -3.1341535   -1.5898502  0.090099677   -3.1341535    1.5443033   481566 
 3849000    1.1285476   -3.1329395   -1.5896748  0.089775285   -3.1329395    1.5432647   481609 
 3850000    1.1272654   -3.1310389   -1.5897677  0.088567421   -3.1310389    1.5412712   481684 
 3851000    1.1280086   -3.1330472    -1.590779  0.086723571   -3.1330472    1.5422682   481690 
 3852000    1.1283572   -3.1324342   -1.5898687  0.091795403   -3.1324342    1.5425656   481746 
 3853000    1.1261641   -3.1291285   -1.5897337  0.089361869   -3.1291285    1.5393948   481800 
 3854000    1.1291886   -3.1338469    -1.590305  0.086428567   -3.1338469    1.5435419   481796 
 3855000    1.1254571   -3.1294326   -1.5911128  0.095433646   -3.1294326    1.5383198   481834 
 3856000    1.1264336   -3.1306136   -1.5911124  0.092021779   -3.1306136    1.5395012   481882 
 3857000     1.128519   -3.1326204   -1.5905315  0.092824313   -3.1326204    1.5420889   481964 
 3858000    1.1284474   -3.1328658   -1.5909643   0.09095099   -3.1328658    1.5419015   481992 
 3859000    1.1284638   -3.1339546   -1.5921075  0.087741184   -3.1339546    1.5418471   482016 
 3860000    1.1291298   -3.1345927   -1.5919284  0.089386274   -3.1345927    1.5426643   482045 
 3861000    1.1295161   -3.1341748   -1.5911173  0.092941015   -3.1341748    1.5430576   482087 
 3862000    1.1309463   -3.1354819   -1.5905762  0.088594397   -3.1354819    1.5449056   482120 
 3863000    1.1307083   -3.1359536   -1.5915044    0.1000866   -3.1359536    1.5444492   482161 
 3864000    1.1308336   -3.1353751   -1.5909054  0.091998203   -3.1353751    1.5444698   482208 
 3865000    1.1309544     -3.13633   -1.5918329  0.088314578     -3.13633    1.5444971   482251 
 3866000    1.1306029    -3.135249   -1.5913505  0.090715177    -3.135249    1.5438985   482288 
 3867000    1.1303592   -3.1358758   -1.5924699  0.089443369   -3.1358758    1.5434058   482338 
 3868000    1.1307133   -3.1361263   -1.5923459  0.089932298   -3.1361263    1.5437804   482372 
 3869000    1.1300106   -3.1364782   -1.5937435  0.090401649   -3.1364782    1.5427347   482399 
 3870000    1.1297221    -3.134964   -1.5926711  0.097012927    -3.134964    1.5422929   482414 
 3871000    1.1310936   -3.1377595   -1.5936967  0.089546601   -3.1377595    1.5440628   482446 
 3872000    1.1299719    -3.135149   -1.5927803  0.092965251    -3.135149    1.5423686   482497 
 3873000    1.1294495   -3.1345966    -1.593037  0.094175057   -3.1345966    1.5415596   482527 
 3874000    1.1301443   -3.1357562   -1.5933665  0.087479137   -3.1357562    1.5423897   482564 
 3875000    1.1301639   -3.1364833   -1.5942235  0.093515994   -3.1364833    1.5422599   482613 
 3876000    1.1291528   -3.1349633   -1.5941887  0.095144955   -3.1349633    1.5407746   482646 
 3877000    1.1291315   -3.1352729   -1.5946135  0.090597299   -3.1352729    1.5406594   482673 
 3878000    1.1294438   -3.1359143   -1.5950266  0.091222101   -3.1359143    1.5408876   482735 
 3879000    1.1292842   -3.1347139    -1.594143  0.094280234   -3.1347139    1.5405709   482766 
 3880000    1.1297634   -3.1330985   -1.5920078  0.090983205   -3.1330985    1.5410907   482808 
 3881000    1.1302298   -3.1351376   -1.5935257  0.088212047   -3.1351376    1.5416119   482844 
 3882000    1.1308529   -3.1354457   -1.5931788  0.092691866   -3.1354457    1.5422669   482905 
 3883000     1.129927   -3.1347314   -1.5940654  0.093466151   -3.1347314     1.540666   483011 
 3884000    1.1320684   -3.1366957   -1.5932377  0.087336791   -3.1366957     1.543458   483051 
 3885000    1.1303888   -3.1347604   -1.5936816  0.092816508   -3.1347604    1.5410787   483079 
 3886000    1.1305782   -3.1353396   -1.5941845  0.091413082   -3.1353396    1.5411551   483136 
 3887000    1.1320326   -3.1366772   -1.5936162  0.093466522   -3.1366772     1.543061   483160 
 3888000     1.132218   -3.1363045   -1.5931026  0.091425337   -3.1363045    1.5432019   483195 
 3889000     1.131437   -3.1360506   -1.5938302   0.08934845   -3.1360506    1.5422204   483169 
 3890000    1.1315424   -3.1377784   -1.5955516    0.0850431   -3.1377784    1.5422268   483212 
 3891000     1.132763   -3.1366992   -1.5928822  0.091397619   -3.1366992    1.5438169   483235 
 3892000      1.13534    -3.138794    -1.591529  0.094414311    -3.138794     1.547265   483255 
 3893000    1.1330333   -3.1372079   -1.5932845  0.092976677   -3.1372079    1.5439233   483317 
 3894000    1.1334111   -3.1363986   -1.5921713  0.092517512   -3.1363986    1.5442273   483383 
 3895000    1.1346645   -3.1366607   -1.5907769  0.091459366   -3.1366607    1.5458838   483399 
 3896000    1.1338832    -3.136348   -1.5916341  0.094595285    -3.136348    1.5447139   483432 
 3897000    1.1358621   -3.1388338   -1.5915615   0.09343572   -3.1388338    1.5472722   483475 
 3898000    1.1332211   -3.1357401   -1.5922218  0.091956945   -3.1357401    1.5435182   483524 
 3899000    1.1345115   -3.1376839   -1.5925072  0.096638706   -3.1376839    1.5451768   483555 
 3900000    1.1356911    -3.139094   -1.5923715   0.09495953    -3.139094    1.5467225   483574 
 3901000    1.1343373   -3.1376631    -1.592928  0.090760386   -3.1376631    1.5447351   483619 
 3902000    1.1331149   -3.1358465   -1.5929421    0.0937451   -3.1358465    1.5429044   483671 
 3903000    1.1340728   -3.1362602   -1.5921759  0.096278724   -3.1362602    1.5440843   483710 
 3904000    1.1353623   -3.1368793   -1.5910489  0.091556483   -3.1368793    1.5458304   483713 
 3905000    1.1336621   -3.1353008   -1.5919161  0.090231828   -3.1353008    1.5433847   483754 
 3906000    1.1330835   -3.1332581   -1.5907982  0.093690215   -3.1332581    1.5424599   483797 
 3907000    1.1345137   -3.1366361   -1.5924048  0.091033839   -3.1366361    1.5442313   483852 
 3908000     1.133699    -3.136339    -1.593306  0.094336405    -3.136339     1.543033   483880 
 3909000    1.1320148   -3.1351623   -1.5944375   0.09083698   -3.1351623    1.5407248   483885 
 3910000    1.1323508   -3.1350802   -1.5941147  0.088963287   -3.1350802    1.5409655   483953 
 3911000    1.1334331   -3.1365981   -1.5942681  0.091136312   -3.1365981      1.54233   483987 
 3912000    1.1309258   -3.1340226   -1.5952379  0.087792546   -3.1340226    1.5387846   484029 
 3913000    1.1336525   -3.1364767   -1.5941318  0.087067278   -3.1364767     1.542345   484076 
 3914000    1.1343721   -3.1355275   -1.5924138  0.084450001   -3.1355275    1.5431137   484142 
 3915000    1.1371751   -3.1384485   -1.5916912  0.089495353   -3.1384485    1.5467573   484195 
 3916000    1.1358579   -3.1357513   -1.5909388  0.093626639   -3.1357513    1.5448125   484243 
 3917000    1.1363322    -3.135996    -1.590564  0.093183672    -3.135996     1.545432   484251 
 3918000    1.1364245   -3.1362685   -1.5908642  0.093246775   -3.1362685    1.5454043   484299 
 3919000    1.1370325   -3.1367303    -1.590697  0.093474993   -3.1367303    1.5460333   484361 
 3920000    1.1368137   -3.1354038    -1.589802  0.093164429   -3.1354038    1.5456018   484403 
 3921000    1.1372131   -3.1364083   -1.5904933  0.095041103   -3.1364083     1.545915   484475 
 3922000    1.1380427   -3.1373891   -1.5904868  0.093633821   -3.1373891    1.5469023   484519 
 3923000    1.1369807    -3.136605   -1.5912261  0.094229143    -3.136605    1.5453789   484544 
 3924000    1.1363731    -3.135825   -1.5914376  0.095827027    -3.135825    1.5443874   484596 
 3925000    1.1383081   -3.1378369   -1.5908932  0.093984811   -3.1378369    1.5469437   484619 
 3926000    1.1382868   -3.1374337   -1.5906689  0.099394159   -3.1374337    1.5467648   484666 
 3927000    1.1382451   -3.1388446    -1.592245  0.093031727   -3.1388446    1.5465996   484700 
 3928000     1.137416   -3.1363587   -1.5910068   0.09376123   -3.1363587    1.5453519   484738 
 3929000    1.1379736   -3.1351284   -1.5891305  0.096206641   -3.1351284    1.5459979   484773 
 3930000    1.1403317   -3.1383948   -1.5892828  0.095254329   -3.1383948    1.5491121   484801 
 3931000    1.1383772   -3.1373713   -1.5909941  0.097950082   -3.1373713    1.5463772   484826 
 3932000    1.1389778   -3.1374911   -1.5903843  0.091805818   -3.1374911    1.5471068   484853 
 3933000    1.1363942     -3.13502   -1.5914735   0.09534444     -3.13502    1.5435465   484869 
 3934000    1.1364663   -3.1343548   -1.5908727  0.098977726   -3.1343548    1.5434821   484920 
 3935000    1.1371086   -3.1361735   -1.5920388  0.093484065   -3.1361735    1.5441347   484989 
 3936000    1.1377859   -3.1380419   -1.5931595   0.08807919   -3.1380419    1.5448824   485043 
 3937000    1.1367932    -3.135831   -1.5924142  0.093191198    -3.135831    1.5434168   485080 
 3938000    1.1378931   -3.1367221   -1.5919585  0.087672799   -3.1367221    1.5447636   485126 
 3939000    1.1377736   -3.1358646   -1.5913522  0.096588261   -3.1358646    1.5445123   485154 
 3940000    1.1369374   -3.1338945   -1.5906828  0.097274175   -3.1338945    1.5432117   485206 
 3941000     1.139019   -3.1358779   -1.5900636  0.092586232   -3.1358779    1.5458142   485276 
 3942000    1.1405973   -3.1386451   -1.5908803  0.091999275   -3.1386451    1.5477648   485336 
 3943000    1.1407723   -3.1376782   -1.5897749  0.094311772   -3.1376782    1.5479034   485367 
 3944000    1.1413374   -3.1392533   -1.5907043  0.093464168   -3.1392533     1.548549   485405 
 3945000    1.1401332   -3.1373786   -1.5905941  0.093637396   -3.1373786    1.5467845   485446 
 3946000    1.1408532   -3.1386912   -1.5910829  0.090827065   -3.1386912    1.5476083   485494 
 3947000    1.1402283   -3.1368374    -1.590217  0.091664424   -3.1368374    1.5466204   485538 
 3948000    1.1404204   -3.1363713   -1.5896783  0.095071695   -3.1363713     1.546693   485597 
 3949000    1.1411817   -3.1373557   -1.5897322  0.090904253   -3.1373557    1.5476236   485629 
 3950000    1.1402946   -3.1380035   -1.5916467  0.092202578   -3.1380035    1.5463568   485649 
 3951000    1.1394482   -3.1353233   -1.5902098  0.098340595   -3.1353233    1.5451135   485679 
 3952000    1.1407953   -3.1377351    -1.590919  0.095838562   -3.1377351     1.546816   485718 
 3953000    1.1410296   -3.1375224   -1.5904684  0.095514335   -3.1375224     1.547054   485743 
 3954000    1.1416731    -3.138595   -1.5907991  0.090536959    -3.138595    1.5477959   485784 
 3955000    1.1414413   -3.1373857   -1.5901365  0.084920769   -3.1373857    1.5472492   485857 
 3956000    1.1420429   -3.1374176   -1.5894263  0.096607612   -3.1374176    1.5479913   485880 
 3957000    1.1420813   -3.1378729   -1.5898359  0.096308172   -3.1378729     1.548037   485882 
 3958000    1.1443471   -3.1391161   -1.5880621  0.099415798   -3.1391161    1.5510539   485899 
 3959000    1.1416539   -3.1367277   -1.5893528  0.096630857   -3.1367277    1.5473749   485908 
 3960000    1.1434168   -3.1391491   -1.5895028  0.096379851   -3.1391491    1.5496464   485945 
 3961000    1.1395913   -3.1360448   -1.5917642  0.093222611   -3.1360448    1.5442806   486002 
 3962000    1.1401367   -3.1359336   -1.5909934  0.097541431   -3.1359336    1.5449402   486027 
 3963000    1.1432187   -3.1386318   -1.5896301  0.092091092   -3.1386318    1.5490017   486063 
 3964000    1.1429052   -3.1370915   -1.5886898  0.094432422   -3.1370915    1.5484017   486118 
 3965000    1.1434584   -3.1371398   -1.5881575  0.093850138   -3.1371398    1.5489823   486171 
 3966000      1.14251    -3.137171   -1.5897217  0.095211153    -3.137171    1.5474493   486249 
 3967000    1.1438012   -3.1384273   -1.5893024  0.097614979   -3.1384273    1.5491249   486272 
 3968000    1.1432977   -3.1387766   -1.5904961  0.094143541   -3.1387766    1.5482805   486323 
 3969000    1.1437537    -3.140529   -1.5915959  0.092990423    -3.140529    1.5489331   486312 
 3970000    1.1437721   -3.1400221   -1.5912202  0.094232151   -3.1400221    1.5488019   486361 
 3971000    1.1424052   -3.1387116   -1.5919005  0.094171408   -3.1387116    1.5468111   486405 
 3972000     1.142554   -3.1386733   -1.5917403  0.094156089   -3.1386733     1.546933   486430 
 3973000    1.1426432   -3.1377563   -1.5909124  0.093913099   -3.1377563    1.5468439   486496 
 3974000     1.142249   -3.1372174   -1.5910121  0.098539896   -3.1372174    1.5462054   486529 
 3975000    1.1438867   -3.1379695   -1.5896173   0.10042682   -3.1379695    1.5483522   486551 
 3976000    1.1450908   -3.1390591   -1.5891311  0.093224119   -3.1390591     1.549928   486568 
 3977000    1.1445226   -3.1377376   -1.5888301  0.090225419   -3.1377376    1.5489075   486647 
 3978000    1.1438511   -3.1380249   -1.5902076   0.10130484   -3.1380249    1.5478173   486704 
 3979000    1.1429305   -3.1370386   -1.5905306  0.097671217   -3.1370386    1.5465081   486724 
 3980000    1.1433827   -3.1386625   -1.5916888  0.090531163   -3.1386625    1.5469737   486770 
 3981000    1.1426949   -3.1377595   -1.5917799  0.092782973   -3.1377595    1.5459796   486790 
 3982000    1.1433022   -3.1382429   -1.5915146  0.096024843   -3.1382429    1.5467282   486813 
 3983000    1.1431876    -3.138258   -1.5918976  0.088877528    -3.138258    1.5463604   486880 
 3984000    1.1446643   -3.1395839    -1.591277  0.093510744   -3.1395839    1.5483069   486896 
 3985000    1.1433673   -3.1375951   -1.5912648  0.094530093   -3.1375951    1.5463302   486966 
 3986000    1.1439934   -3.1369494   -1.5899821  0.098703468   -3.1369494    1.5469674   487032 
 3987000    1.1439884   -3.1355494   -1.5886778  0.095524899   -3.1355494    1.5468716   487060 
 3988000    1.1448331   -3.1374788   -1.5897129  0.096836193   -3.1374788     1.547766   487138 
 3989000     1.142926   -3.1357236   -1.5905867  0.097828847   -3.1357236    1.5451369   487154 
 3990000    1.1441168   -3.1363227   -1.5897569  0.093807701   -3.1363227    1.5465658   487211 
 3991000    1.1452688   -3.1368627   -1.5889874  0.097075788   -3.1368627    1.5478753   487289 
 3992000    1.1438372   -3.1349601   -1.5892576  0.095404393   -3.1349601    1.5457024   487364 
 3993000    1.1451419   -3.1363846   -1.5890715  0.097383943   -3.1363846    1.5473131   487412 
 3994000    1.1454451    -3.135894   -1.5883426  0.097273744    -3.135894    1.5475514   487466 
 3995000    1.1449126   -3.1351425   -1.5884532  0.095983865   -3.1351425    1.5466892   487511 
 3996000    1.1444724   -3.1352031   -1.5892734  0.093733441   -3.1352031    1.5459296   487563 
 3997000    1.1458876   -3.1363517    -1.588631  0.094512198   -3.1363517    1.5477206   487601 
 3998000    1.1449279   -3.1368979   -1.5906797  0.094400786   -3.1368979    1.5462182   487666 
 3999000    1.1455587   -3.1363203    -1.589396  0.091444788   -3.1363203    1.5469243   487712 
 4000000    1.1461453   -3.1378763   -1.5903028  0.089518345   -3.1378763    1.5475735   487757 
 4001000    1.1452814   -3.1356228   -1.5893932  0.089371259   -3.1356228    1.5462296   487813 
 4002000    1.1449907   -3.1361771   -1.5904984  0.096038886   -3.1361771    1.5456787   487863 
 4003000    1.1449839   -3.1384638   -1.5928102  0.090216086   -3.1384638    1.5456536   487868 
 4004000    1.1450369   -3.1375033   -1.5919112  0.096545978   -3.1375033    1.5455921   487910 
 4005000    1.1455454   -3.1372718   -1.5911834  0.090354135   -3.1372718    1.5460884   487970 
 4006000    1.1459244    -3.137391   -1.5909337   0.09102818    -3.137391    1.5464572   488015 
 4007000    1.1456362   -3.1379799   -1.5920067  0.099634562   -3.1379799    1.5459733   488045 
 4008000    1.1466105   -3.1396597   -1.5925174   0.09352053   -3.1396597    1.5471423   488091 
 4009000    1.1453525   -3.1387772   -1.5934686  0.094940073   -3.1387772    1.5453087   488134 
 4010000    1.1452682    -3.138111   -1.5930616  0.093528605    -3.138111    1.5450493   488180 
 4011000    1.1476389   -3.1421523   -1.5939175  0.095733704   -3.1421523    1.5482349   488184 
 4012000    1.1470081   -3.1393569     -1.59203  0.097532358   -3.1393569    1.5473269   488202 
 4013000    1.1458032   -3.1391945   -1.5935753  0.092486723   -3.1391945    1.5456192   488228 
 4014000    1.1461497   -3.1393808   -1.5934114  0.095598127   -3.1393808    1.5459694   488265 
 4015000    1.1469009   -3.1396712   -1.5928407  0.097004533   -3.1396712    1.5468305   488313 
 4016000    1.1474705   -3.1415605   -1.5940885  0.095300359   -3.1415605     1.547472   488353 
 4017000    1.1479166   -3.1407938   -1.5929167   0.09561563   -3.1407938    1.5478771   488415 
 4018000    1.1478808   -3.1403182   -1.5926193  0.099021613   -3.1403182    1.5476989   488456 
 4019000    1.1483565   -3.1406638   -1.5924756  0.094171919   -3.1406638    1.5481882   488504 
 4020000    1.1468459   -3.1397538     -1.59383  0.093361079   -3.1397538    1.5459238   488576 
 4021000    1.1479037   -3.1405988   -1.5934296  0.093196989   -3.1405988    1.5471692   488633 
 4022000    1.1498125   -3.1430869   -1.5934751  0.094522175   -3.1430869    1.5496119   488674 
 4023000    1.1484557   -3.1411082   -1.5935181  0.096804125   -3.1411082    1.5475901   488735 
 4024000    1.1510964   -3.1433852   -1.5923795  0.097629171   -3.1433852    1.5510057   488780 
 4025000    1.1512552   -3.1427361   -1.5916211  0.092169833   -3.1427361    1.5511149   488813 
 4026000    1.1506688   -3.1413873   -1.5912622  0.094408824   -3.1413873    1.5501251   488876 
 4027000    1.1500033   -3.1417527   -1.5927586   0.08992954   -3.1417527    1.5489941   488950 
 4028000    1.1511561   -3.1434528   -1.5930011  0.093434235   -3.1434528    1.5504517   488980 
 4029000     1.149613   -3.1420788    -1.593794  0.097764186   -3.1420788    1.5482848   489008 
 4030000    1.1504579   -3.1426341   -1.5933762  0.090470553   -3.1426341     1.549258   489060 
 4031000    1.1509477    -3.143341   -1.5936073  0.087557409    -3.143341    1.5497336   489118 
 4032000    1.1500239   -3.1422376   -1.5938839  0.095138094   -3.1422376    1.5483537   489161 
 4033000    1.1491011   -3.1416027    -1.594659  0.095980725   -3.1416027    1.5469436   489214 
 4034000    1.1491045   -3.1429191    -1.596091  0.093630892   -3.1429191     1.546828   489252 
 4035000    1.1486498   -3.1411154   -1.5949942   0.09682867   -3.1411154    1.5461211   489282 
 4036000    1.1488581   -3.1416424    -1.595383  0.089489772   -3.1416424    1.5462594   489327 
 4037000    1.1502268   -3.1433347   -1.5952712  0.097951555   -3.1433347    1.5480635   489339 
 4038000    1.1490902   -3.1413645   -1.5948813  0.093861143   -3.1413645    1.5464832   489355 
 4039000      1.14917    -3.140959   -1.5944852   0.09737742    -3.140959    1.5464738   489392 
 4040000    1.1502181   -3.1415814   -1.5937858  0.096060278   -3.1415814    1.5477956   489420 
 4041000    1.1507601   -3.1429536   -1.5946723  0.095178872   -3.1429536    1.5482814   489497 
 4042000    1.1504033   -3.1417111   -1.5940646  0.098309048   -3.1417111    1.5476465   489546 
 4043000    1.1504504   -3.1422129   -1.5946453  0.096039923   -3.1422129    1.5475675   489591 
 4044000    1.1507448   -3.1422699   -1.5943538  0.096483907   -3.1422699    1.5479161   489606 
 4045000    1.1500679   -3.1403877   -1.5935337  0.098879241   -3.1403877    1.5468539   489654 
 4046000     1.152279   -3.1430881   -1.5933046  0.095607203   -3.1430881    1.5497835   489668 
 4047000    1.1503309   -3.1421839   -1.5951753   0.10148547   -3.1421839    1.5470086   489717 
 4048000    1.1512555   -3.1437061   -1.5955804  0.093049645   -3.1437061    1.5481256   489757 
 4049000    1.1501646   -3.1417611   -1.5951592  0.097856428   -3.1417611    1.5466019   489775 
 4050000    1.1512564   -3.1435195   -1.5955349  0.091417934   -3.1435195    1.5479846   489802 
 4051000    1.1514823   -3.1443146   -1.5961559   0.09448683   -3.1443146    1.5481587   489843 
 4052000     1.152875      -3.1449   -1.5950871  0.093282234      -3.1449    1.5498129   489912 
 4053000    1.1527465   -3.1432853   -1.5937874  0.096067376   -3.1432853    1.5494979   489957 
 4054000    1.1507732   -3.1416803   -1.5948981  0.089928673   -3.1416803    1.5467823   489977 
 4055000    1.1520194   -3.1426549   -1.5943904  0.090628532   -3.1426549    1.5482645   490038 
 4056000    1.1522343   -3.1434135   -1.5949801  0.094070637   -3.1434135    1.5484333   490076 
 4057000    1.1536406   -3.1439937   -1.5937844  0.089603988   -3.1439937    1.5502093   490112 
 4058000    1.1523705   -3.1425015   -1.5941633  0.090823379   -3.1425015    1.5483383   490164 
 4059000    1.1534662   -3.1445058   -1.5948787  0.094183568   -3.1445058    1.5496271   490222 
 4060000    1.1516509   -3.1406781   -1.5936949  0.097603278   -3.1406781    1.5469832   490287 
 4061000    1.1531325   -3.1435928   -1.5947141   0.09649655   -3.1435928    1.5488787   490317 
 4062000      1.15361   -3.1438997   -1.5945472  0.094265871   -3.1438997    1.5493525   490370 
 4063000    1.1506801   -3.1384346   -1.5931936  0.093405696   -3.1384346     1.545241   490426 
 4064000    1.1527588   -3.1421407   -1.5941492  0.094443823   -3.1421407    1.5479915   490439 
 4065000    1.1524029     -3.14261   -1.5951816  0.097111969     -3.14261    1.5474284   490466 
 4066000    1.1519535   -3.1417197   -1.5950682  0.097656446   -3.1417197    1.5466515   490521 
 4067000    1.1528083   -3.1425817   -1.5949213  0.096266974   -3.1425817    1.5476603   490565 
 4068000    1.1553664   -3.1442616   -1.5933661  0.097148399   -3.1442616    1.5508955   490628 
 4069000    1.1545104   -3.1433534   -1.5937902  0.095398081   -3.1433534    1.5495632   490686 
 4070000    1.1544443   -3.1432035   -1.5937542  0.096127549   -3.1432035    1.5494493   490694 
 4071000    1.1535609   -3.1430886   -1.5948503  0.098099379   -3.1430886    1.5482383   490702 
 4072000    1.1530053   -3.1423406   -1.5949298  0.094910142   -3.1423406    1.5474107   490728 
 4073000    1.1553933   -3.1447731   -1.5942713   0.09350617   -3.1447731    1.5505018   490764 
 4074000    1.1538488   -3.1417307   -1.5934656  0.094785431   -3.1417307    1.5482651   490816 
 4075000    1.1556159   -3.1429004   -1.5923937  0.094804527   -3.1429004    1.5505067   490857 
 4076000    1.1550089   -3.1426227   -1.5931924   0.09804237   -3.1426227    1.5494303   490940 
 4077000    1.1557054   -3.1441755   -1.5939277  0.092732768   -3.1441755    1.5502478   490977 
 4078000    1.1549935   -3.1436412   -1.5945314   0.09893374   -3.1436412    1.5491099   491035 
 4079000    1.1541059    -3.142375   -1.5946605  0.095226151    -3.142375    1.5477145   491100 
 4080000     1.154887   -3.1430394   -1.5944351  0.093133997   -3.1430394    1.5486043   491150 
 4081000    1.1547719   -3.1429823   -1.5947214  0.096026277   -3.1429823    1.5482609   491210 
 4082000    1.1548755     -3.14476     -1.59648  0.097050426     -3.14476      1.54828   491248 
 4083000    1.1547469   -3.1453653   -1.5973901  0.091171672   -3.1453653    1.5479752   491290 
 4084000    1.1539819   -3.1443539   -1.5975017  0.098733708   -3.1443539    1.5468522   491321 
 4085000     1.153778   -3.1445536   -1.5981573  0.091503169   -3.1445536    1.5463963   491379 
 4086000    1.1540566    -3.145728   -1.5989992  0.088782159    -3.145728    1.5467288   491392 
 4087000    1.1559833   -3.1480763   -1.5987715  0.099200496   -3.1480763    1.5493048   491394 
 4088000    1.1538873   -3.1443218   -1.5979112  0.094867679   -3.1443218    1.5464106   491421 
 4089000    1.1521869   -3.1430789   -1.5990979  0.098825936   -3.1430789     1.543981   491469 
 4090000     1.153859   -3.1461958   -1.6000685   0.09249998   -3.1461958    1.5461273   491499 
 4091000    1.1548685   -3.1465898   -1.5991759  0.093396889   -3.1465898    1.5474139   491520 
 4092000    1.1557546   -3.1473959   -1.5989145  0.093923335   -3.1473959    1.5484814   491558 
 4093000    1.1551237   -3.1468082    -1.599383  0.099067095   -3.1468082    1.5474252   491625 
 4094000    1.1566833   -3.1488376   -1.5995436  0.092928245   -3.1488376    1.5492939   491695 
 4095000    1.1566349   -3.1483852   -1.5992664  0.097829136   -3.1483852    1.5491188   491730 
 4096000    1.1578456   -3.1491233   -1.5984555   0.10020888   -3.1491233    1.5506678   491753 
 4097000    1.1577677   -3.1502012   -1.5997607  0.092375341   -3.1502012    1.5504405   491792 
 4098000    1.1550285   -3.1471368   -1.6004746   0.10075537   -3.1471368    1.5466622   491827 
 4099000    1.1580367   -3.1512558   -1.6007168  0.088686691   -3.1512558    1.5505391   491875 
 4100000    1.1572508   -3.1502844    -1.600952  0.097870339   -3.1502844    1.5493324   491924 
 4101000    1.1566179   -3.1480795    -1.599673  0.097068584   -3.1480795    1.5484065   491949 
 4102000    1.1598921   -3.1508285   -1.5982061  0.098778741   -3.1508285    1.5526224   492002 
 4103000    1.1583199   -3.1487495    -1.598342  0.099604178   -3.1487495    1.5504076   492037 
 4104000    1.1580227   -3.1478936   -1.5980791  0.097386592   -3.1478936    1.5498146   492099 
 4105000     1.157704   -3.1465462   -1.5972748    0.0985167   -3.1465462    1.5492715   492136 
 4106000    1.1582157   -3.1486029   -1.5987221  0.098418857   -3.1486029    1.5498807   492160 
 4107000    1.1579818   -3.1491512   -1.5997095  0.095618004   -3.1491512    1.5494418   492200 
 4108000    1.1582482    -3.149274   -1.5995985  0.098573782    -3.149274    1.5496755   492239 
 4109000     1.157147   -3.1482604   -1.6001213  0.094087702   -3.1482604    1.5481392   492259 
 4110000    1.1558188   -3.1466261    -1.600355  0.095014172   -3.1466261    1.5462711   492288 
 4111000     1.156111   -3.1469953   -1.6004118  0.096860982   -3.1469953    1.5465835   492313 
 4112000     1.155662   -3.1462294   -1.6002906  0.093887603   -3.1462294    1.5459388   492327 
 4113000    1.1578789   -3.1482374   -1.5994431  0.093703264   -3.1482374    1.5487943   492362 
 4114000    1.1553343   -3.1457435   -1.6005224  0.099053031   -3.1457435    1.5452211   492416 
 4115000    1.1566397   -3.1462403   -1.5993925  0.095528956   -3.1462403    1.5468478   492454 
 4116000    1.1552387   -3.1446052   -1.5996625  0.094489124   -3.1446052    1.5449427   492464 
 4117000    1.1560927   -3.1452404   -1.5992466  0.096052423   -3.1452404    1.5459937   492493 
 4118000    1.1562918   -3.1455745   -1.5994432  0.094369462   -3.1455745    1.5461313   492534 
 4119000    1.1566648   -3.1454358   -1.5989816  0.098812686   -3.1454358    1.5464542   492590 
 4120000     1.158298   -3.1461417   -1.5976453  0.085788006   -3.1461417    1.5484964   492635 
 4121000    1.1587143   -3.1469046   -1.5978361  0.093032041   -3.1469046    1.5490685   492630 
 4122000    1.1575186   -3.1444644   -1.5971358   0.10356787   -3.1444644    1.5473286   492675 
 4123000    1.1570731   -3.1443087   -1.5977765  0.097393027   -3.1443087    1.5465323   492739 
 4124000    1.1591299   -3.1459824   -1.5968079  0.098939692   -3.1459824    1.5491745   492773 
 4125000    1.1575187   -3.1443009   -1.5973771   0.10007258   -3.1443009    1.5469237   492804 
 4126000    1.1593321   -3.1460052   -1.5966705   0.10166482   -3.1460052    1.5493347   492808 
 4127000    1.1613417    -3.148198   -1.5964076  0.094840241    -3.148198    1.5517904   492881 
 4128000    1.1610967   -3.1474469   -1.5961066  0.089018804   -3.1474469    1.5513403   492920 
 4129000    1.1601553   -3.1454665   -1.5956544  0.096598892   -3.1454665    1.5498121   493006 
 4130000    1.1608466    -3.147866   -1.5971807  0.090334364    -3.147866    1.5506853   493022 
 4131000    1.1608041   -3.1485352   -1.5980262  0.096078248   -3.1485352     1.550509   493060 
 4132000    1.1606173   -3.1469988    -1.596777  0.092117411   -3.1469988    1.5502218   493072 
 4133000    1.1592033   -3.1453893   -1.5972006  0.098508573   -3.1453893    1.5481887   493118 
 4134000    1.1610575   -3.1479666   -1.5974242  0.091528476   -3.1479666    1.5505424   493157 
 4135000    1.1600776   -3.1475045   -1.5983618   0.09857315   -3.1475045    1.5491428   493186 
 4136000    1.1612644   -3.1497395   -1.5990937   0.09589752   -3.1497395    1.5506458   493212 
 4137000    1.1596698   -3.1491263   -1.6007511   0.10038095   -3.1491263    1.5483752   493257 
 4138000    1.1588928   -3.1474074   -1.6001386  0.096435188   -3.1474074    1.5472688   493279 
 4139000    1.1578087    -3.145071   -1.5993436  0.095867332    -3.145071    1.5457274   493309 
 4140000    1.1594105   -3.1475009   -1.5997511  0.096398458   -3.1475009    1.5477498   493346 
 4141000    1.1593966   -3.1477688   -1.6001568  0.097952313   -3.1477688     1.547612   493384 
 4142000    1.1597374   -3.1479728   -1.6000785   0.10055143   -3.1479728    1.5478943   493439 
 4143000    1.1595779   -3.1486697   -1.6010196  0.098799533   -3.1486697    1.5476501   493449 
 4144000    1.1595683   -3.1502758   -1.6027576  0.093159183   -3.1502758    1.5475182   493487 
 4145000    1.1597865   -3.1503863   -1.6027024  0.094784463   -3.1503863    1.5476839   493527 
 4146000    1.1584679   -3.1491165   -1.6032642  0.095885123   -3.1491165    1.5458523   493550 
 4147000    1.1606098   -3.1517494   -1.6033214  0.091587331   -3.1517494     1.548428   493640 
 4148000    1.1594622   -3.1492392   -1.6025115  0.090258469   -3.1492392    1.5467277   493694 
 4149000    1.1586335   -3.1489185   -1.6034746  0.091917394   -3.1489185    1.5454439   493751 
 4150000    1.1590305   -3.1495206   -1.6036693  0.093241494   -3.1495206    1.5458513   493790 
 4151000    1.1593357   -3.1498162   -1.6036299  0.092644385   -3.1498162    1.5461863   493813 
 4152000    1.1594913   -3.1498725   -1.6035664  0.093659943   -3.1498725    1.5463061   493841 
 4153000    1.1595411   -3.1498097   -1.6035342  0.093651489   -3.1498097    1.5462755   493872 
 4154000    1.1592587   -3.1495328    -1.603856  0.087841582   -3.1495328    1.5456768   493943 
 4155000    1.1585218   -3.1486734   -1.6041544  0.099132345   -3.1486734     1.544519   493999 
 4156000    1.1596333    -3.150552   -1.6045855  0.093521815    -3.150552    1.5459665   494010 
 4157000    1.1605102   -3.1512618   -1.6042422  0.097151886   -3.1512618    1.5470196   494047 
 4158000    1.1597804   -3.1509054   -1.6049119  0.090070771   -3.1509054    1.5459935   494064 
 4159000    1.1603257   -3.1513205   -1.6046345  0.087508601   -3.1513205     1.546686   494075 
 4160000    1.1607427   -3.1502545   -1.6031879   0.09745051   -3.1502545    1.5470666   494131 
 4161000     1.161578   -3.1508908   -1.6028268  0.094044479   -3.1508908     1.548064   494168 
 4162000    1.1623748   -3.1530433   -1.6039959   0.09499877   -3.1530433    1.5490474   494193 
 4163000    1.1620615   -3.1523549   -1.6038346  0.094386131   -3.1523549    1.5485203   494228 
 4164000    1.1625985   -3.1507384    -1.601631  0.095468265   -3.1507384    1.5491074   494269 
 4165000    1.1609283   -3.1472443   -1.6004969  0.096795626   -3.1472443    1.5467473   494312 
 4166000    1.1639228   -3.1521542   -1.6015208  0.091603734   -3.1521542    1.5506334   494345 
 4167000    1.1614374   -3.1492159   -1.6019154   0.10053174   -3.1492159    1.5473005   494352 
 4168000    1.1610749   -3.1494717   -1.6027449  0.095054875   -3.1494717    1.5467268   494381 
 4169000    1.1598855   -3.1472167   -1.6022118  0.093913507   -3.1472167    1.5450048   494425 
 4170000    1.1627355   -3.1508403   -1.6021739  0.091732759   -3.1508403    1.5486664   494468 
 4171000     1.162386   -3.1494658   -1.6013901  0.097533394   -3.1494658    1.5480757   494508 
 4172000    1.1615835   -3.1481607   -1.6012164  0.095447792   -3.1481607    1.5469443   494528 
 4173000    1.1627706   -3.1501509    -1.601801  0.097221952   -3.1501509    1.5483499   494584 
 4174000    1.1633071   -3.1501172   -1.6012627  0.094765217   -3.1501172    1.5488545   494651 
 4175000    1.1626403   -3.1488686   -1.6010208  0.092934312   -3.1488686    1.5478478   494689 
 4176000    1.1622853   -3.1485455   -1.6012391  0.091065217   -3.1485455    1.5473064   494711 
 4177000    1.1633911   -3.1502062   -1.6015092  0.097983232   -3.1502062     1.548697   494737 
 4178000    1.1620998   -3.1495415   -1.6026385  0.096162342   -3.1495415     1.546903   494761 
 4179000    1.1611683   -3.1490001   -1.6035213  0.091618446   -3.1490001    1.5454789   494820 
 4180000    1.1614807   -3.1498573   -1.6040626    0.0945596   -3.1498573    1.5457947   494852 
 4181000    1.1615099   -3.1495525   -1.6037003  0.089539118   -3.1495525    1.5458522   494846 
 4182000    1.1607832   -3.1490089   -1.6043423  0.095279693   -3.1490089    1.5446666   494916 
 4183000     1.160289   -3.1482483   -1.6043641  0.090620264   -3.1482483    1.5438842   494956 
 4184000    1.1608519   -3.1479262   -1.6033991  0.098880083   -3.1479262    1.5445271   494990 
 4185000    1.1640772   -3.1514358   -1.6027051  0.092959218   -3.1514358    1.5487307   495018 
 4186000    1.1632765   -3.1499926   -1.6024147  0.095667307   -3.1499926    1.5475779   495046 
 4187000    1.1652155   -3.1516418   -1.6016502  0.092770594   -3.1516418    1.5499916   495099 
 4188000    1.1624448   -3.1471197   -1.6010012  0.095850523   -3.1471197    1.5461185   495159 
 4189000    1.1626108   -3.1474916   -1.6012491    0.0941364   -3.1474916    1.5462425   495190 
 4190000    1.1636028   -3.1482577   -1.6007832  0.095381143   -3.1482577    1.5474744   495218 
 4191000    1.1669934   -3.1512014   -1.5993087  0.089797854   -3.1512014    1.5518926   495247 
 4192000     1.163129   -3.1476031   -1.6009712  0.096611699   -3.1476031    1.5466319   495286 
 4193000    1.1635545   -3.1483778   -1.6012518  0.098185789   -3.1483778    1.5471259   495309 
 4194000    1.1645502   -3.1477343   -1.5993971  0.097914379   -3.1477343    1.5483372   495345 
 4195000    1.1642657   -3.1491012   -1.6012422  0.094269174   -3.1491012     1.547859   495377 
 4196000    1.1652603   -3.1500556   -1.6009368  0.095028722   -3.1500556    1.5491188   495397 
 4197000    1.1636649   -3.1480915    -1.601228    0.1010066   -3.1480915    1.5468635   495440 
 4198000    1.1674998   -3.1523197   -1.6004211  0.094976634   -3.1523197    1.5518986   495460 
 4199000    1.1662735   -3.1509764   -1.6008266  0.098190736   -3.1509764    1.5501497   495498 
 4200000    1.1649239   -3.1494173   -1.6011146   0.09697739   -3.1494173    1.5483027   495515 
 4201000     1.165243   -3.1483913   -1.5997676  0.098611734   -3.1483913    1.5486237   495548 
 4202000    1.1652045   -3.1492836   -1.6009048  0.090479985   -3.1492836    1.5483788   495610 
 4203000    1.1649307   -3.1486269   -1.6006744  0.096860527   -3.1486269    1.5479525   495630 
 4204000    1.1651076   -3.1494785   -1.6014815  0.091725197   -3.1494785     1.547997   495691 
 4205000    1.1646389   -3.1487191   -1.6014446  0.092274579   -3.1487191    1.5472745   495723 
 4206000    1.1629797   -3.1479222    -1.602902  0.092407757   -3.1479222    1.5450202   495739 
 4207000    1.1642633   -3.1484113   -1.6018292  0.090050616   -3.1484113     1.546582   495785 
 4208000    1.1650323   -3.1483078   -1.6008915  0.093408658   -3.1483078    1.5474163   495845 
 4209000    1.1637057   -3.1470391   -1.6016279  0.092231256   -3.1470391    1.5454112   495923 
 4210000    1.1651772   -3.1489115   -1.6016741  0.094337979   -3.1489115    1.5472374   495964 
 4211000    1.1644768   -3.1472232   -1.6009407  0.094602638   -3.1472232    1.5462824   495972 
 4212000    1.1654537   -3.1491332    -1.601616  0.091793919   -3.1491332    1.5475172   495992 
 4213000     1.166068   -3.1483958   -1.6001222  0.096355341   -3.1483958    1.5482736   496011 
 4214000    1.1679348   -3.1507772    -1.600228  0.094213445   -3.1507772    1.5505491   496076 
 4215000    1.1667644   -3.1489646   -1.5999101  0.098952427   -3.1489646    1.5490545   496057 
 4216000    1.1685755   -3.1510006   -1.5996479  0.090557972   -3.1510006    1.5513528   496091 
 4217000    1.1665098   -3.1501141   -1.6016254  0.099768243   -3.1501141    1.5484887   496130 
 4218000    1.1673804   -3.1516882   -1.6022031  0.096466061   -3.1516882    1.5494851   496181 
 4219000    1.1677184   -3.1514003   -1.6015416  0.098148018   -3.1514003    1.5498587   496205 
 4220000    1.1671044   -3.1501864   -1.6012175  0.091229796   -3.1501864    1.5489689   496229 
 4221000     1.166408   -3.1503648   -1.6024668  0.098840666   -3.1503648     1.547898   496276 
 4222000    1.1678362   -3.1521348   -1.6025444  0.096404251   -3.1521348    1.5495904   496341 
 4223000    1.1668304   -3.1512178   -1.6031584  0.090614325   -3.1512178    1.5480594   496404 
 4224000    1.1682305   -3.1527115   -1.6028727  0.093088319   -3.1527115    1.5498388   496429 
 4225000    1.1670266    -3.151808   -1.6036132  0.095045522    -3.151808    1.5481948   496444 
 4226000    1.1674086   -3.1517987     -1.60315  0.094633416   -3.1517987    1.5486486   496461 
 4227000    1.1673868   -3.1513413   -1.6028276   0.10162267   -3.1513413    1.5485136   496495 
 4228000    1.1672778   -3.1516046   -1.6033323  0.094481706   -3.1516046    1.5482723   496526 
 4229000    1.1673624   -3.1518887   -1.6035727  0.094602206   -3.1518887     1.548316   496548 
 4230000    1.1680623   -3.1535851   -1.6043314  0.088467468   -3.1535851    1.5492537   496545 
 4231000     1.167266   -3.1528698   -1.6047035   0.09118631   -3.1528698    1.5481663   496555 
 4232000    1.1676851   -3.1533725   -1.6047657  0.092163475   -3.1533725    1.5486068   496592 
 4233000    1.1653536   -3.1493481   -1.6039859   0.10128431   -3.1493481    1.5453622   496641 
 4234000    1.1672623   -3.1521997   -1.6044311  0.097093025   -3.1521997    1.5477686   496681 
 4235000    1.1658485   -3.1509891    -1.605232  0.092716067   -3.1509891     1.545757   496725 
 4236000    1.1659996   -3.1515384   -1.6056059  0.094911891   -3.1515384    1.5459325   496733 
 4237000    1.1675601   -3.1535245   -1.6056041  0.093408518   -3.1535245    1.5479204   496759 
 4238000    1.1669924   -3.1518873   -1.6048378    0.1017077   -3.1518873    1.5470495   496797 
 4239000    1.1690629   -3.1540635    -1.604419  0.095447887   -3.1540635    1.5496445   496845 
 4240000    1.1675444   -3.1531949   -1.6056162  0.093364805   -3.1531949    1.5475787   496862 
 4241000     1.168855   -3.1546623   -1.6053931  0.090656672   -3.1546623    1.5492692   496877 
 4242000     1.167155   -3.1528195   -1.6058721   0.09263776   -3.1528195    1.5469474   496899 
 4243000    1.1673651   -3.1524542    -1.605381   0.10361496   -3.1524542    1.5470733   496948 
 4244000    1.1678363   -3.1549073   -1.6072906  0.087888076   -3.1549073    1.5476167   496974 
 4245000    1.1693633   -3.1543893   -1.6049017  0.096961726   -3.1543893    1.5494876   497023 
 4246000    1.1681207   -3.1514968   -1.6037585   0.10173101   -3.1514968    1.5477384   497056 
 4247000    1.1695425   -3.1531731   -1.6037037  0.093601966   -3.1531731    1.5494694   497105 
 4248000    1.1662479    -3.148758   -1.6037343  0.096898435    -3.148758    1.5450237   497131 
 4249000    1.1683881   -3.1516549   -1.6038799  0.095582069   -3.1516549     1.547775   497158 
 4250000    1.1676353    -3.150475    -1.603859  0.096070743    -3.150475     1.546616   497210 
 4251000    1.1675822   -3.1504999   -1.6041005  0.091535212   -3.1504999    1.5463995   497257 
 4252000    1.1688314   -3.1519934   -1.6040453   0.09573455   -3.1519934    1.5479481   497291 
 4253000    1.1678679   -3.1505891   -1.6040227  0.093494618   -3.1505891    1.5465664   497325 
 4254000    1.1701602   -3.1528667   -1.6033239  0.089616557   -3.1528667    1.5495428   497344 
 4255000    1.1686228   -3.1513806    -1.603939  0.093079766   -3.1513806    1.5474415   497365 
 4256000    1.1678482   -3.1501735   -1.6037887  0.094600134   -3.1501735    1.5463848   497375 
 4257000     1.168365   -3.1505282    -1.603599  0.095002279   -3.1505282    1.5469292   497420 
 4258000    1.1686635   -3.1503463   -1.6031868  0.093327382   -3.1503463    1.5471595   497473 
 4259000    1.1683364   -3.1485426   -1.6019157  0.094296298   -3.1485426     1.546627   497505 
 4260000    1.1675724   -3.1480605   -1.6026096  0.087194994   -3.1480605    1.5454509   497558 
 4261000    1.1703128   -3.1518949   -1.6028726  0.094577141   -3.1518949    1.5490222   497576 
 4262000    1.1707729   -3.1517898   -1.6022084  0.093683917   -3.1517898    1.5495814   497592 
 4263000    1.1695322   -3.1496678   -1.6018622  0.092139945   -3.1496678    1.5478056   497635 
 4264000    1.1707468   -3.1500577   -1.6007785  0.097585115   -3.1500577    1.5492791   497678 
 4265000    1.1707241   -3.1500746     -1.60095  0.097257775   -3.1500746    1.5491246   497718 
 4266000    1.1699725   -3.1498457   -1.6018805  0.090985108   -3.1498457    1.5479652   497771 
 4267000    1.1713564   -3.1518482   -1.6021983  0.091978728   -3.1518482    1.5496499   497818 
 4268000    1.1697474   -3.1497365   -1.6022867  0.096850302   -3.1497365    1.5474498   497841 
 4269000     1.172377    -3.153003   -1.6023488  0.093514032    -3.153003    1.5506543   497929 
 4270000    1.1698247   -3.1503179   -1.6031295  0.096802884   -3.1503179    1.5471884   497958 
 4271000    1.1687959   -3.1495853   -1.6038941  0.095185919   -3.1495853    1.5456912   498002 
 4272000    1.1705369   -3.1528114   -1.6050354  0.091306522   -3.1528114     1.547776   498072 
 4273000    1.1701279   -3.1515757   -1.6044864  0.091114124   -3.1515757    1.5470892   498119 
 4274000    1.1699593   -3.1524289   -1.6056371  0.092015186   -3.1524289    1.5467918   498143 
 4275000    1.1691487   -3.1516865   -1.6060626  0.095773301   -3.1516865     1.545624   498174 
 4276000    1.1711423   -3.1539829   -1.6059036  0.095523247   -3.1539829    1.5480792   498232 
 4277000     1.172735   -3.1551101   -1.6052242  0.094944038   -3.1551101    1.5498859   498328 
 4278000     1.174846   -3.1571533   -1.6045429  0.094821244   -3.1571533    1.5526103   498349 
 4279000    1.1737456   -3.1559008   -1.6048629  0.096620498   -3.1559008    1.5510379   498387 
 4280000    1.1732798   -3.1565653   -1.6063359  0.093003751   -3.1565653    1.5502295   498449 
 4281000    1.1737784   -3.1560818   -1.6052838  0.095985979   -3.1560818    1.5507981   498478 
 4282000    1.1738268   -3.1563257   -1.6055042   0.10387787   -3.1563257    1.5508215   498491 
 4283000    1.1745429   -3.1583585   -1.6067651    0.0964113   -3.1583585    1.5515934   498547 
 4284000    1.1722765   -3.1564963   -1.6080585  0.097761117   -3.1564963    1.5484379   498599 
 4285000    1.1724078   -3.1569952   -1.6084801  0.099144616   -3.1569952    1.5485151   498630 
 4286000    1.1736882   -3.1577953   -1.6076699  0.098183032   -3.1577953    1.5501254   498656 
 4287000     1.174927    -3.158353   -1.6066693   0.10371185    -3.158353    1.5516837   498681 
 4288000    1.1757757   -3.1584285   -1.6056955  0.097636335   -3.1584285     1.552733   498704 
 4289000    1.1753665   -3.1591846    -1.607048   0.10047034   -3.1591846    1.5521365   498722 
 4290000    1.1751425   -3.1590377   -1.6072686  0.093402959   -3.1590377    1.5517691   498745 
 4291000     1.174597   -3.1583937   -1.6074352   0.09855616   -3.1583937    1.5509586   498774 
 4292000     1.173242    -3.156162   -1.6072254  0.094209748    -3.156162    1.5489366   498849 
 4293000    1.1751968   -3.1595517   -1.6081588  0.096479018   -3.1595517     1.551393   498889 
 4294000    1.1738265   -3.1573388   -1.6078915  0.097621911   -3.1573388    1.5494473   498933 
 4295000    1.1732858   -3.1567444   -1.6081598  0.098407005   -3.1567444    1.5485846   498981 
 4296000    1.1732327   -3.1566652   -1.6082903  0.096725028   -3.1566652    1.5483749   499026 
 4297000    1.1728044   -3.1578895   -1.6101265  0.087795907   -3.1578895    1.5477631   499041 
 4298000    1.1716696   -3.1578029   -1.6116334  0.097816707   -3.1578029    1.5461695   499072 
 4299000    1.1742767   -3.1574291    -1.607931  0.097392751   -3.1574291    1.5494981   499108 
 4300000    1.1739908   -3.1577452   -1.6087951  0.099378246   -3.1577452    1.5489502   499163 
 4301000    1.1735826   -3.1577665    -1.609414  0.094379712   -3.1577665    1.5483526   499182 
 4302000    1.1724217   -3.1554606    -1.608807  0.090021411   -3.1554606    1.5466537   499236 
 4303000    1.1717458   -3.1555857   -1.6099072  0.093562906   -3.1555857    1.5456785   499263 
 4304000     1.171405   -3.1562239   -1.6111744  0.092598631   -3.1562239    1.5450495   499321 
 4305000    1.1715346   -3.1570955   -1.6120268  0.091857984   -3.1570955    1.5450687   499370 
 4306000    1.1736526   -3.1583659   -1.6106123   0.09456243   -3.1583659    1.5477536   499405 
 4307000    1.1754639   -3.1589484   -1.6089397   0.09407085   -3.1589484    1.5500087   499448 
 4308000    1.1732318   -3.1552358   -1.6083531   0.09418782   -3.1552358    1.5468827   499507 
 4309000    1.1727663   -3.1551247   -1.6089579  0.094769987   -3.1551247    1.5461667   499540 
 4310000    1.1742596   -3.1557206   -1.6076904  0.099111917   -3.1557206    1.5480302   499574 
 4311000    1.1763359   -3.1580166   -1.6073455  0.090709476   -3.1580166    1.5506711   499605 
 4312000     1.174957   -3.1562926   -1.6075477  0.098565902   -3.1562926     1.548745   499640 
 4313000    1.1750214   -3.1572876   -1.6086438  0.092660822   -3.1572876    1.5486438   499700 
 4314000    1.1754369   -3.1567427   -1.6075729  0.099569144   -3.1567427    1.5491698   499707 
 4315000    1.1763664   -3.1572865   -1.6070034  0.091760972   -3.1572865    1.5502831   499743 
 4316000    1.1765408   -3.1573325   -1.6069219  0.089026669   -3.1573325    1.5504106   499776 
 4317000    1.1765105   -3.1581616   -1.6078281  0.086008997   -3.1581616    1.5503335   499788 
 4318000    1.1770032   -3.1575467   -1.6068339  0.095193645   -3.1575467    1.5507128   499875 
 4319000    1.1764863   -3.1567814    -1.606914  0.092331416   -3.1567814    1.5498674   499928 
 4320000    1.1771244   -3.1579639    -1.607383  0.094006846   -3.1579639    1.5505808   499969 
 4321000    1.1771895   -3.1564032   -1.6058514  0.099735993   -3.1564032    1.5505518   500006 
 4322000    1.1767528   -3.1579286   -1.6080418  0.091607047   -3.1579286    1.5498868   500035 
 4323000    1.1775069   -3.1582409   -1.6074973  0.097877937   -3.1582409    1.5507436   500079 
 4324000    1.1764613   -3.1561852   -1.6070417  0.097791689   -3.1561852    1.5491435   500151 
 4325000    1.1775785   -3.1595065   -1.6089664  0.094772173   -3.1595065    1.5505402   500175 
 4326000    1.1789734   -3.1594395   -1.6071651  0.094794931   -3.1594395    1.5522744   500208 
 4327000    1.1780809   -3.1599788   -1.6089538  0.097335271   -3.1599788     1.551025   500232 
 4328000    1.1776011   -3.1592084   -1.6089887  0.095724457   -3.1592084    1.5502197   500288 
 4329000    1.1771839   -3.1580338     -1.60845  0.095854982   -3.1580338    1.5495838   500316 
 4330000     1.176783   -3.1588916   -1.6099377  0.096663361   -3.1588916    1.5489539   500349 
 4331000    1.1756401   -3.1580294   -1.6107036  0.094397051   -3.1580294    1.5473258   500389 
 4332000    1.1758893   -3.1582648   -1.6107842  0.091193214   -3.1582648    1.5474806   500445 
 4333000    1.1760485   -3.1574683   -1.6098709  0.091066437   -3.1574683    1.5475974   500475 
 4334000    1.1761721   -3.1565759   -1.6089644  0.096298182   -3.1565759    1.5476115   500523 
 4335000    1.1764181   -3.1571782   -1.6094624  0.098739688   -3.1571782    1.5477158   500594 
 4336000    1.1762824   -3.1576766    -1.610192  0.097935018   -3.1576766    1.5474846   500611 
 4337000     1.175643    -3.157458   -1.6110123  0.090210153    -3.157458    1.5464457   500675 
 4338000    1.1761702    -3.158832    -1.611804  0.096248998    -3.158832     1.547028   500711 
 4339000    1.1755711   -3.1580943   -1.6119686  0.091754714   -3.1580943    1.5461258   500748 
 4340000    1.1761396    -3.159995   -1.6131648  0.088260607    -3.159995    1.5468302   500762 
 4341000    1.1780723   -3.1619866   -1.6126455  0.089731854   -3.1619866     1.549341   500772 
 4342000    1.1778537   -3.1606229   -1.6117703  0.098787918   -3.1606229    1.5488526   500837 
 4343000    1.1779903   -3.1611056   -1.6120579   0.10242567   -3.1611056    1.5490477   500832 
 4344000    1.1779721   -3.1608638   -1.6120844  0.097967356   -3.1608638    1.5487794   500911 
 4345000    1.1796009   -3.1625734   -1.6117917  0.088577452   -3.1625734    1.5507817   500956 
 4346000    1.1793073   -3.1616937   -1.6115209  0.097420635   -3.1616937    1.5501728   501028 
 4347000    1.1777872   -3.1606981   -1.6125852  0.094437988   -3.1606981    1.5481129   501048 
 4348000    1.1778727   -3.1610052   -1.6129282  0.092504648   -3.1610052     1.548077   501096 
 4349000    1.1791083   -3.1621862   -1.6125812  0.097043118   -3.1621862     1.549605   501127 
 4350000     1.179774   -3.1636199   -1.6132173   0.09476186   -3.1636199    1.5504026   501152 
 4351000    1.1788395   -3.1631805   -1.6141512  0.097954739   -3.1631805    1.5490293   501199 
 4352000    1.1790748   -3.1633988   -1.6141531   0.09479938   -3.1633988    1.5492457   501229 
 4353000    1.1791128   -3.1639152   -1.6147308  0.094006806   -3.1639152    1.5491844   501265 
 4354000     1.179246   -3.1623842   -1.6132103  0.099346024   -3.1623842    1.5491739   501325 
 4355000    1.1790112   -3.1623225    -1.613525  0.098386734   -3.1623225    1.5487975   501347 
 4356000    1.1793695   -3.1625009   -1.6133408   0.10399839   -3.1625009      1.54916   501382 
 4357000    1.1807793   -3.1652823   -1.6143632  0.097066139   -3.1652823    1.5509191   501412 
 4358000    1.1799897   -3.1636417   -1.6138803     0.102658   -3.1636417    1.5497614   501451 
 4359000    1.1813757   -3.1657171   -1.6142065  0.092314878   -3.1657171    1.5515106   501474 
 4360000     1.179862   -3.1634965   -1.6140696  0.095384036   -3.1634965    1.5494269   501505 
 4361000    1.1806969    -3.164059   -1.6136501  0.099072968    -3.164059    1.5504089   501542 
 4362000    1.1798543   -3.1629131   -1.6136385   0.10239381   -3.1629131    1.5492746   501551 
 4363000    1.1816238   -3.1648867   -1.6133534    0.1004317   -3.1648867    1.5515332   501572 
 4364000    1.1798169   -3.1630189   -1.6139849  0.098601705   -3.1630189    1.5490341   501613 
 4365000    1.1813641   -3.1638483   -1.6128664  0.093686848   -3.1638483     1.550982   501640 
 4366000    1.1804911   -3.1629435   -1.6132127   0.10018818   -3.1629435    1.5497308   501674 
 4367000    1.1798383   -3.1619176   -1.6131333  0.093651265   -3.1619176    1.5487843   501703 
 4368000    1.1804642   -3.1619819   -1.6124717  0.095833723   -3.1619819    1.5495102   501734 
 4369000    1.1806088    -3.162899   -1.6133535  0.098004698    -3.162899    1.5495455   501784 
 4370000    1.1806994   -3.1629013   -1.6132893  0.093961831   -3.1629013    1.5496119   501801 
 4371000    1.1802784   -3.1623448   -1.6133996  0.093828265   -3.1623448    1.5489451   501838 
 4372000    1.1796845     -3.16229   -1.6141519  0.090637794     -3.16229     1.548138   501847 
 4373000    1.1792389    -3.162213   -1.6148171  0.092725027    -3.162213     1.547396   501898 
 4374000    1.1794753   -3.1613884   -1.6138796  0.095777279   -3.1613884    1.5475088   501962 
 4375000    1.1775586   -3.1591882    -1.614391  0.091371731   -3.1591882    1.5447972   502026 
 4376000    1.1789236     -3.16101   -1.6145763  0.092681402     -3.16101    1.5464337   502076 
 4377000    1.1787277   -3.1602058   -1.6141738  0.094228669   -3.1602058    1.5460321   502123 
 4378000    1.1800393   -3.1606801   -1.6130355  0.094143365   -3.1606801    1.5476446   502158 
 4379000    1.1804702   -3.1601324   -1.6120521  0.092727287   -3.1601324    1.5480802   502200 
 4380000    1.1781938   -3.1578222   -1.6128258  0.093629197   -3.1578222    1.5449964   502232 
 4381000    1.1819999   -3.1624365   -1.6125817  0.090773782   -3.1624365    1.5498547   502275 
 4382000    1.1806492   -3.1601785   -1.6120917   0.10165341   -3.1601785    1.5480868   502274 
 4383000    1.1815201   -3.1626449   -1.6135426  0.096069033   -3.1626449    1.5491023   502315 
 4384000    1.1801439   -3.1601551   -1.6129464  0.092733691   -3.1601551    1.5472087   502344 
 4385000    1.1808278   -3.1624577   -1.6145219  0.088490725   -3.1624577    1.5479358   502399 
 4386000    1.1808728   -3.1616514   -1.6138045   0.09625115   -3.1616514    1.5478469   502447 
 4387000    1.1810455    -3.162503   -1.6144974  0.099161613    -3.162503    1.5480055   502469 
 4388000    1.1813672   -3.1630649   -1.6146902  0.097916734   -3.1630649    1.5483747   502486 
 4389000    1.1817136    -3.164425    -1.615732  0.093561316    -3.164425    1.5486931   502530 
 4390000    1.1806781   -3.1626429   -1.6154701  0.094590655   -3.1626429    1.5471728   502583 
 4391000    1.1822439   -3.1629133   -1.6138796   0.10139537   -3.1629133    1.5490336   502645 
 4392000    1.1827179   -3.1635102   -1.6138771  0.099797154   -3.1635102    1.5496331   502652 
 4393000     1.184535   -3.1650603   -1.6132162  0.096072288   -3.1650603    1.5518442   502707 
 4394000    1.1832642    -3.163976   -1.6139231  0.095637746    -3.163976    1.5500529   502748 
 4395000    1.1851909   -3.1663698   -1.6138641  0.097687633   -3.1663698    1.5525057   502771 
 4396000    1.1831416   -3.1643357   -1.6146006   0.10269522   -3.1643357    1.5497351   502799 
 4397000    1.1843858   -3.1661218   -1.6148156  0.095114998   -3.1661218    1.5513062   502818 
 4398000    1.1874486    -3.168638   -1.6134594   0.09671686    -3.168638    1.5551786   502863 
 4399000    1.1850126    -3.165689   -1.6137995   0.10019631    -3.165689    1.5518895   502895 
 4400000    1.1846667   -3.1654257   -1.6140818  0.097905617   -3.1654257    1.5513439   502925 
 4401000    1.1834425   -3.1650667   -1.6155539  0.098738695   -3.1650667    1.5495128   502999 
 4402000     1.184482    -3.167236   -1.6165009  0.097715749    -3.167236    1.5507351   503044 
 4403000    1.1830888   -3.1659685   -1.6171344  0.093371516   -3.1659685    1.5488341   503069 
 4404000    1.1843392   -3.1677498   -1.6174173  0.093633856   -3.1677498    1.5503325   503114 
 4405000    1.1815497   -3.1648564   -1.6183138   0.10110644   -3.1648564    1.5465426   503159 
 4406000    1.1833673   -3.1659739   -1.6173107  0.093850191   -3.1659739    1.5486632   503243 
 4407000    1.1834477   -3.1670412   -1.6183867  0.092771977   -3.1670412    1.5486545   503280 
 4408000    1.1837448   -3.1680277   -1.6190768  0.094521339   -3.1680277    1.5489509   503310 
 4409000    1.1838321   -3.1674401   -1.6185473  0.088156442   -3.1674401    1.5488928   503366 
 4410000    1.1834471   -3.1671209    -1.618861  0.092832271   -3.1671209    1.5482599   503408 
 4411000    1.1834765    -3.166761   -1.6186687  0.089709601    -3.166761    1.5480923   503475 
 4412000    1.1850103   -3.1669353   -1.6170644  0.095294553   -3.1669353    1.5498709   503549 
 4413000    1.1848307   -3.1670188   -1.6174813  0.096173843   -3.1670188    1.5495375   503581 
 4414000    1.1835853   -3.1650788   -1.6173115  0.099002179   -3.1650788    1.5477674   503627 
 4415000    1.1860489   -3.1679322   -1.6170448  0.096509292   -3.1679322    1.5508874   503660 
 4416000    1.1854734   -3.1668846   -1.6168851  0.099504129   -3.1668846    1.5499995   503704 
 4417000    1.1851195   -3.1656532   -1.6161504  0.091395564   -3.1656532    1.5495029   503715 
 4418000    1.1856045   -3.1662838   -1.6162853  0.090490062   -3.1662838    1.5499985   503760 
 4419000    1.1851107   -3.1653612   -1.6161066  0.097045302   -3.1653612    1.5492546   503792 
 4420000    1.1847457   -3.1652582   -1.6164931  0.099259646   -3.1652582    1.5487651   503796 
 4421000    1.1875904     -3.16827   -1.6158816  0.096495786     -3.16827    1.5523884   503827 
 4422000    1.1867464   -3.1667878   -1.6156967  0.095278236   -3.1667878    1.5510911   503890 
 4423000    1.1856768   -3.1658487   -1.6162724  0.097229845   -3.1658487    1.5495764   503928 
 4424000    1.1866798   -3.1679781   -1.6171309   0.09508987   -3.1679781    1.5508472   503941 
 4425000    1.1843775    -3.165646   -1.6179858   0.09595694    -3.165646    1.5476602   503999 
 4426000    1.1853371   -3.1678556   -1.6190552  0.098529218   -3.1678556    1.5488004   504036 
 4427000    1.1846905     -3.16677   -1.6189742  0.096961716     -3.16677    1.5477958   504088 
 4428000    1.1855779   -3.1665816   -1.6176539  0.098514191   -3.1665816    1.5489276   504097 
 4429000    1.1852486   -3.1672156   -1.6188596  0.097626389   -3.1672156     1.548356   504143 
 4430000    1.1846239   -3.1667752   -1.6193518   0.09936395   -3.1667752    1.5474233   504181 
 4431000    1.1854193   -3.1674639   -1.6191336  0.097812714   -3.1674639    1.5483303   504224 
 4432000    1.1846005   -3.1654494   -1.6183174  0.097961252   -3.1654494     1.547132   504266 
 4433000    1.1870024   -3.1674954   -1.6173617  0.091974673   -3.1674954    1.5501337   504310 
 4434000    1.1866296   -3.1667718   -1.6172541  0.097816883   -3.1667718    1.5495177   504352 
 4435000    1.1858884   -3.1660665   -1.6175964  0.095455512   -3.1660665    1.5484701   504378 
 4436000    1.1862667   -3.1672185   -1.6184326  0.096768764   -3.1672185    1.5487859   504436 
 4437000    1.1855168   -3.1662951   -1.6185373  0.095479098   -3.1662951    1.5477577   504452 
 4438000    1.1867447   -3.1665308    -1.617256  0.095762342   -3.1665308    1.5492748   504480 
 4439000    1.1865668   -3.1666999   -1.6176756  0.094808877   -3.1666999    1.5490243   504486 
 4440000    1.1876199   -3.1675411   -1.6172989   0.09476264   -3.1675411    1.5502422   504537 
 4441000    1.1878592   -3.1660585   -1.6156145   0.10091853   -3.1660585     1.550444   504573 
 4442000    1.1880097   -3.1662047   -1.6157025  0.099527605   -3.1662047    1.5505022   504618 
 4443000    1.1874964   -3.1654176   -1.6156683  0.097227222   -3.1654176    1.5497493   504645 
 4444000    1.1883576    -3.166023   -1.6151282  0.097425231    -3.166023    1.5508948   504638 
 4445000    1.1874314   -3.1655146   -1.6159391  0.098830179   -3.1655146    1.5495755   504674 
 4446000    1.1873476   -3.1666536    -1.617255  0.098207919   -3.1666536    1.5493986   504696 
 4447000    1.1875917   -3.1656344   -1.6160401  0.098446397   -3.1656344    1.5495943   504736 
 4448000    1.1873021   -3.1655998   -1.6166014  0.096880653   -3.1655998    1.5489985   504807 
 4449000    1.1885861   -3.1683172   -1.6177419  0.094331244   -3.1683172    1.5505753   504839 
 4450000    1.1865904   -3.1652356   -1.6173496  0.093502165   -3.1652356    1.5478861   504867 
 4451000    1.1883775   -3.1682096   -1.6181489  0.091693441   -3.1682096    1.5500606   504918 
 4452000    1.1872028   -3.1672033   -1.6187516   0.10006081   -3.1672033    1.5484517   504943 
 4453000    1.1863473   -3.1646164   -1.6174337  0.097210806   -3.1646164    1.5471827   504993 
 4454000     1.188419   -3.1669932   -1.6172836  0.098510312   -3.1669932    1.5497097   505050 
 4455000    1.1886162    -3.166072   -1.6162555  0.095391928    -3.166072    1.5498165   505099 
 4456000    1.1882905   -3.1667406   -1.6174776  0.094515237   -3.1667406    1.5492629   505141 
 4457000    1.1882504   -3.1679161   -1.6188895  0.092285446   -3.1679161    1.5490266   505201 
 4458000    1.1879697    -3.166282   -1.6177071  0.094756164    -3.166282     1.548575   505229 
 4459000    1.1894806   -3.1671928   -1.6167281  0.095810972   -3.1671928    1.5504646   505255 
 4460000    1.1892139   -3.1670537   -1.6170502   0.10136757   -3.1670537    1.5500035   505292 
 4461000    1.1900694   -3.1677076   -1.6167087   0.10114017   -3.1677076    1.5509988   505331 
 4462000    1.1909896   -3.1682219   -1.6160883  0.099741158   -3.1682219    1.5521336   505352 
 4463000    1.1918496   -3.1675698    -1.614423  0.097805697   -3.1675698    1.5531468   505387 
 4464000    1.1922807   -3.1681996     -1.61466   0.10055607   -3.1681996    1.5535396   505442 
 4465000     1.189977   -3.1658531    -1.615438  0.099570214   -3.1658531    1.5504151   505482 
 4466000    1.1913373   -3.1667541   -1.6147293  0.099172666   -3.1667541    1.5520247   505535 
 4467000    1.1894303   -3.1648732   -1.6154217    0.1043661   -3.1648732    1.5494515   505564 
 4468000    1.1914554   -3.1679498   -1.6160199  0.095747525   -3.1679498    1.5519299   505616 
 4469000    1.1915295   -3.1677931   -1.6158004  0.094152723   -3.1677931    1.5519927   505627 
 4470000    1.1922746   -3.1699939   -1.6171044  0.098857774   -3.1699939    1.5528895   505651 
 4471000    1.1909817   -3.1689587   -1.6178022  0.096268969   -3.1689587    1.5511565   505667 
 4472000    1.1909586   -3.1689189   -1.6178999  0.095202106   -3.1689189     1.551019   505702 
 4473000    1.1910311   -3.1684429   -1.6174676  0.093894584   -3.1684429    1.5509754   505747 
 4474000    1.1901616   -3.1677189   -1.6179983   0.10001584   -3.1677189    1.5497206   505787 
 4475000    1.1909587   -3.1674417   -1.6168519  0.095630885   -3.1674417    1.5505899   505842 
 4476000    1.1889262   -3.1657726   -1.6179482   0.10111659   -3.1657726    1.5478244   505881 
 4477000     1.191827   -3.1688444   -1.6173847  0.093460038   -3.1688444    1.5514597   505927 
 4478000    1.1896572   -3.1669065   -1.6183173  0.093864186   -3.1669065    1.5485892   505942 
 4479000    1.1919694   -3.1689246   -1.6174666  0.093773457   -3.1689246     1.551458   505988 
 4480000    1.1912089   -3.1675527   -1.6171581   0.10002352   -3.1675527    1.5503946   506012 
 4481000    1.1906523    -3.167936   -1.6183455  0.096309032    -3.167936    1.5495905   506038 
 4482000    1.1907884   -3.1678214   -1.6181731  0.095353524   -3.1678214    1.5496483   506077 
 4483000    1.1897766   -3.1673965   -1.6191414  0.097358044   -3.1673965    1.5482551   506102 
 4484000    1.1900643   -3.1678511   -1.6192676  0.093339646   -3.1678511    1.5485835   506117 
 4485000    1.1896144   -3.1671957   -1.6191946  0.093384132   -3.1671957    1.5480011   506116 
 4486000    1.1908134   -3.1691225    -1.619653  0.095020299   -3.1691225    1.5494695   506146 
 4487000    1.1896241   -3.1677529   -1.6199195  0.093978847   -3.1677529    1.5478333   506175 
 4488000    1.1926072   -3.1701753   -1.6186353   0.09705798   -3.1701753      1.55154   506232 
 4489000    1.1918415   -3.1700323   -1.6196386  0.097478454   -3.1700323    1.5503937   506281 
 4490000    1.1917708   -3.1709692   -1.6207623  0.092960781   -3.1709692    1.5502069   506312 
 4491000    1.1904818   -3.1696737   -1.6212628  0.097162997   -3.1696737    1.5484109   506351 
 4492000    1.1914441    -3.169526   -1.6198788  0.098914139    -3.169526    1.5496472   506356 
 4493000    1.1917414   -3.1704729    -1.620488  0.095412862   -3.1704729    1.5499849   506372 
 4494000    1.1921887   -3.1709375   -1.6204443  0.098765688   -3.1709375    1.5504932   506396 
 4495000    1.1904135   -3.1699027    -1.621874  0.096986286   -3.1699027    1.5480286   506447 
 4496000    1.1917997   -3.1712242   -1.6215399  0.097570328   -3.1712242    1.5496843   506495 
 4497000    1.1932669   -3.1722941   -1.6208337  0.092026317   -3.1722941    1.5514604   506538 
 4498000    1.1923779   -3.1709625   -1.6207987  0.098232932   -3.1709625    1.5501638   506584 
 4499000    1.1928256   -3.1711145   -1.6204238  0.093017271   -3.1711145    1.5506907   506602 
 4500000    1.1935497   -3.1716702   -1.6200964   0.10504774   -3.1716702    1.5515738   506621 
 4501000    1.1952412   -3.1733984   -1.6197944   0.10191413   -3.1733984    1.5536041   506676 
 4502000    1.1943409   -3.1716717    -1.619339   0.10055338   -3.1716717    1.5523328   506709 
 4503000    1.1940054   -3.1719438   -1.6202339   0.10010181   -3.1719438    1.5517099   506770 
 4504000    1.1939768   -3.1719579   -1.6204322    0.1007151   -3.1719579    1.5515257   506818 
 4505000    1.1940336   -3.1723913   -1.6207857   0.10014254   -3.1723913    1.5516057   506816 
 4506000    1.1935998   -3.1723748   -1.6214032  0.098806877   -3.1723748    1.5509716   506839 
 4507000    1.1949492   -3.1719573   -1.6193641  0.094885911   -3.1719573    1.5525933   506882 
 4508000    1.1956179   -3.1726036   -1.6192762  0.097280051   -3.1726036    1.5533273   506926 
 4509000     1.194354   -3.1724001   -1.6207057  0.097491193   -3.1724001    1.5516944   506923 
 4510000    1.1939704   -3.1704224   -1.6193058  0.095574732   -3.1704224    1.5511166   506949 
 4511000    1.1954582   -3.1712319   -1.6183051  0.098888276   -3.1712319    1.5529268   506989 
 4512000    1.1956467   -3.1717202   -1.6187169  0.098417017   -3.1717202    1.5530032   507044 
 4513000    1.1941789   -3.1699307    -1.619036  0.097560205   -3.1699307    1.5508948   507110 
 4514000    1.1970186   -3.1732166    -1.618692  0.098362232   -3.1732166    1.5545246   507129 
 4515000    1.1948613   -3.1703845   -1.6187228   0.10258123   -3.1703845    1.5516617   507149 
 4516000    1.1966196   -3.1726222   -1.6187966  0.095637071   -3.1726222    1.5538256   507188 
 4517000    1.1943669   -3.1694175   -1.6185721  0.093958422   -3.1694175    1.5508454   507206 
 4518000    1.1952163   -3.1703234   -1.6185526   0.10356501   -3.1703234    1.5517709   507264 
 4519000    1.1969853   -3.1728922   -1.6189901  0.097829918   -3.1728922    1.5539022   507318 
 4520000    1.1957366    -3.171708    -1.619537  0.098338423    -3.171708     1.552171   507354 
 4521000    1.1951173    -3.171411   -1.6202517  0.098965463    -3.171411    1.5511593   507422 
 4522000    1.1943418   -3.1695204   -1.6194717   0.09561178   -3.1695204    1.5500488   507456 
 4523000    1.1940818   -3.1697042   -1.6200784   0.10306886   -3.1697042    1.5496258   507484 
 4524000    1.1945673   -3.1697108   -1.6196107  0.094900323   -3.1697108    1.5501001   507535 
 4525000    1.1954339   -3.1710115   -1.6198693  0.094603012   -3.1710115    1.5511422   507562 
 4526000    1.1957877   -3.1710579   -1.6194445  0.099900895   -3.1710579    1.5516135   507558 
 4527000    1.1950526   -3.1699994    -1.619407  0.099328475   -3.1699994    1.5505924   507580 
 4528000    1.1960056   -3.1720619   -1.6203706   0.10575851   -3.1720619    1.5516914   507625 
 4529000     1.196213   -3.1711371   -1.6193111  0.097440131   -3.1711371     1.551826   507669 
 4530000    1.1960276   -3.1715984   -1.6201261   0.10204482   -3.1715984    1.5514723   507706 
 4531000    1.1954151   -3.1700053   -1.6194649   0.10042731   -3.1700053    1.5505404   507751 
 4532000    1.1956206   -3.1715956   -1.6207978   0.09395478   -3.1715956    1.5507978   507754 
 4533000    1.1962889   -3.1716516   -1.6200207  0.096700761   -3.1716516    1.5516309   507765 
 4534000    1.1973086   -3.1716847   -1.6188473   0.10299729   -3.1716847    1.5528374   507803 
 4535000    1.1962775    -3.169771   -1.6183533   0.10098298    -3.169771    1.5514177   507830 
 4536000    1.1976727   -3.1712191   -1.6181664   0.10512934   -3.1712191    1.5530527   507887 
 4537000    1.1986524   -3.1732063   -1.6189842    0.1038561   -3.1732063    1.5542221   507920 
 4538000    1.1987251   -3.1740401   -1.6199349  0.098817946   -3.1740401    1.5541052   507989 
 4539000    1.1981739    -3.172767   -1.6194621   0.10062695    -3.172767     1.553305   508017 
 4540000    1.1980924   -3.1728231    -1.619639   0.10842696   -3.1728231    1.5531841   508022 
 4541000    1.1980027   -3.1739251    -1.620894  0.095265305   -3.1739251     1.553031   508034 
 4542000    1.1973786   -3.1727764   -1.6206766  0.099780038   -3.1727764    1.5520998   508074 
 4543000     1.197675   -3.1732731   -1.6208501  0.094647944   -3.1732731    1.5524229   508094 
 4544000    1.1964749    -3.172515   -1.6218064   0.10281471    -3.172515    1.5507086   508146 
 4545000    1.1979676   -3.1753688   -1.6227805   0.10435664   -3.1753688    1.5525884   508164 
 4546000    1.1992596   -3.1745837   -1.6204769   0.10041443   -3.1745837    1.5541067   508215 
 4547000    1.1970017   -3.1733867   -1.6222823  0.099380113   -3.1733867    1.5511045   508240 
 4548000    1.1967855   -3.1741967   -1.6234792   0.10006217   -3.1741967    1.5507175   508275 
 4549000    1.1987453   -3.1755504   -1.6224431  0.097077757   -3.1755504    1.5531073   508324 
 4550000    1.1987253   -3.1748339   -1.6218657  0.092036761   -3.1748339    1.5529682   508361 
 4551000    1.1984434   -3.1740931   -1.6215999   0.10133252   -3.1740931    1.5524932   508397 
 4552000    1.1982821   -3.1748532   -1.6227552   0.10267209   -3.1748532    1.5520979   508458 
 4553000    1.2002228   -3.1763953   -1.6218508  0.098567847   -3.1763953    1.5545445   508480 
 4554000    1.1992224   -3.1748325    -1.621758    0.1005658   -3.1748325    1.5530745   508537 
 4555000     1.197949   -3.1731795   -1.6218792   0.10541382   -3.1731795    1.5513004   508578 
 4556000    1.1972364   -3.1724528   -1.6222581   0.09997914   -3.1724528    1.5501947   508638 
 4557000    1.1994959   -3.1764796   -1.6235119  0.095846656   -3.1764796    1.5529677   508688 
 4558000    1.1991729   -3.1751695   -1.6226476  0.099359054   -3.1751695    1.5525219   508697 
 4559000    1.1980679   -3.1741837    -1.623138  0.096014209   -3.1741837    1.5510457   508712 
 4560000    1.1978947   -3.1725964   -1.6218451  0.095778975   -3.1725964    1.5507513   508735 
 4561000    1.1989241   -3.1745645   -1.6226179  0.095610905   -3.1745645    1.5519466   508780 
 4562000    1.1982327   -3.1734947   -1.6225589  0.099575462   -3.1734947    1.5509358   508818 
 4563000    1.1979468   -3.1724777    -1.621976  0.098966682   -3.1724777    1.5505018   508839 
 4564000    1.1974295   -3.1720608   -1.6223534   0.10117183   -3.1720608    1.5497074   508880 
 4565000    1.1997525   -3.1737428   -1.6211906   0.10014517   -3.1737428    1.5525521   508933 
 4566000    1.1975968   -3.1714267    -1.621728  0.099177957   -3.1714267    1.5496986   508954 
 4567000    1.1995055   -3.1739491   -1.6219911  0.092805352   -3.1739491     1.551958   509023 
 4568000    1.2002918   -3.1741383   -1.6212698  0.092778178   -3.1741383    1.5528686   509058 
 4569000    1.2005528   -3.1738348   -1.6207354  0.095602648   -3.1738348    1.5530995   509093 
 4570000    1.1991957   -3.1720354   -1.6207433  0.098311325   -3.1720354    1.5512921   509110 
 4571000    1.1997646    -3.173739   -1.6218056   0.09765792    -3.173739    1.5519334   509141 
 4572000    1.1996405   -3.1734897    -1.621863  0.099830265   -3.1734897    1.5516267   509189 
 4573000    1.2004806   -3.1752765   -1.6226668   0.09589291   -3.1752765    1.5526096   509223 
 4574000    1.2013171    -3.175285   -1.6216638  0.094618524    -3.175285    1.5536212   509246 
 4575000    1.1983181   -3.1728821   -1.6232702  0.099483107   -3.1728821     1.549612   509289 
 4576000    1.2002403   -3.1740434   -1.6220067  0.096259864   -3.1740434    1.5520367   509309 
 4577000    1.2015885   -3.1768705   -1.6231424   0.09471891   -3.1768705    1.5537282   509326 
 4578000    1.1994276   -3.1733454   -1.6224753   0.10432733   -3.1733454    1.5508701   509347 
 4579000    1.1993534   -3.1741262   -1.6234433     0.104521   -3.1741262    1.5506828   509377 
 4580000    1.2017197   -3.1757149   -1.6220641  0.095261227   -3.1757149    1.5536508   509407 
 4581000    1.2009615   -3.1754837   -1.6228588  0.094403967   -3.1754837    1.5526248   509422 
 4582000     1.200621   -3.1752143    -1.623118   0.10075806   -3.1752143    1.5520963   509451 
 4583000    1.2017634   -3.1770793   -1.6237135   0.10465725   -3.1770793    1.5533658   509519 
 4584000    1.2007982   -3.1750462   -1.6229859  0.099218491   -3.1750462    1.5520603   509538 
 4585000    1.2006866   -3.1757114   -1.6239354   0.10108601   -3.1757114     1.551776   509584 
 4586000    1.2003521   -3.1763922   -1.6251551   0.10300402   -3.1763922    1.5512371   509619 
 4587000    1.2006139   -3.1758864   -1.6243628   0.10009959   -3.1758864    1.5515236   509636 
 4588000    1.2013488   -3.1786051   -1.6262171  0.096408332   -3.1786051     1.552388   509664 
 4589000    1.1997966   -3.1766046   -1.6262984   0.10097772   -3.1766046    1.5503062   509689 
 4590000    1.1999719   -3.1768669   -1.6265166  0.099966843   -3.1768669    1.5503503   509749 
 4591000    1.2024126   -3.1802905   -1.6268326  0.097388238   -3.1802905    1.5534579   509764 
 4592000     1.201321   -3.1775256   -1.6256211   0.10564944   -3.1775256    1.5519045   509811 
 4593000    1.2030222   -3.1795923   -1.6255053  0.095514305   -3.1795923     1.554087   509816 
 4594000    1.2014504   -3.1763016    -1.624376   0.10575812   -3.1763016    1.5519256   509859 
 4595000    1.2025265   -3.1775936   -1.6243785  0.094987685   -3.1775936    1.5532151   509892 
 4596000    1.2023127   -3.1779147   -1.6251099   0.09735963   -3.1779147    1.5528049   509936 
 4597000    1.2019268   -3.1785764   -1.6263825  0.096239008   -3.1785764    1.5521939   509973 
 4598000    1.2029716   -3.1796305   -1.6262245   0.10080681   -3.1796305    1.5534061   510018 
 4599000    1.2020192   -3.1780563   -1.6261204   0.10881319   -3.1780563    1.5519359   510097 
 4600000    1.2022124   -3.1784903   -1.6263902  0.098241422   -3.1784903    1.5521001   510125 
 4601000    1.2027935   -3.1798314   -1.6271181  0.098485923   -3.1798314    1.5527133   510170 
 4602000    1.2025581   -3.1795302   -1.6271847  0.098867864   -3.1795302    1.5523455   510191 
 4603000    1.2026797   -3.1794459   -1.6270803  0.097463892   -3.1794459    1.5523657   510236 
 4604000    1.2025498   -3.1798252   -1.6276455    0.1006028   -3.1798252    1.5521796   510242 
 4605000    1.2024133   -3.1793993    -1.627487  0.095422271   -3.1793993    1.5519123   510272 
 4606000    1.2010222   -3.1784009   -1.6283934   0.10119487   -3.1784009    1.5500075   510308 
 4607000    1.2014191   -3.1782796   -1.6278268  0.096737301   -3.1782796    1.5504528   510330 
 4608000    1.2020298   -3.1784653   -1.6273946  0.092728598   -3.1784653    1.5510707   510386 
 4609000    1.2012015   -3.1778976   -1.6280504   0.10154256   -3.1778976    1.5498471   510437 
 4610000    1.2032913   -3.1799365   -1.6275208  0.099296915   -3.1799365    1.5524157   510479 
 4611000    1.2024331   -3.1789188   -1.6276984   0.10010824   -3.1789188    1.5512204   510508 
 4612000    1.2043375   -3.1812194    -1.627594   0.10114712   -3.1812194    1.5536254   510525 
 4613000    1.2024071     -3.17834   -1.6273476  0.096030439     -3.17834    1.5509924   510572 
 4614000    1.2031132   -3.1797266   -1.6278599  0.097561108   -3.1797266    1.5518667   510584 
 4615000    1.2040291   -3.1806981   -1.6277595  0.096002709   -3.1806981    1.5529386   510620 
 4616000    1.2042732   -3.1812753   -1.6280187  0.097893533   -3.1812753    1.5532566   510619 
 4617000    1.2017953    -3.176839   -1.6267966   0.10157851    -3.176839    1.5500424   510625 
 4618000    1.2051168   -3.1808572   -1.6267013   0.10558708   -3.1808572    1.5541558   510681 
 4619000     1.203857   -3.1792617   -1.6267761   0.10464302   -3.1792617    1.5524856   510696 
 4620000    1.2040339   -3.1806032   -1.6279533  0.099056374   -3.1806032    1.5526499   510717 
 4621000     1.204547   -3.1808356   -1.6275363  0.099967156   -3.1808356    1.5532993   510721 
 4622000    1.2045061   -3.1801622   -1.6269947  0.099385856   -3.1801622    1.5531675   510747 
 4623000    1.2049776   -3.1797376   -1.6260594  0.099964835   -3.1797376    1.5536782   510779 
 4624000    1.2048425   -3.1802875   -1.6269022  0.095654751   -3.1802875    1.5533854   510818 
 4625000    1.2041186   -3.1812411   -1.6289561  0.093558812   -3.1812411     1.552285   510873 
 4626000    1.2038174   -3.1800878    -1.628261  0.093315922   -3.1800878    1.5518268   510896 
 4627000    1.2046249   -3.1814611   -1.6287301   0.09302086   -3.1814611     1.552731   510941 
 4628000    1.2026328   -3.1796227   -1.6296051  0.096642698   -3.1796227    1.5500176   510989 
 4629000    1.2025773   -3.1804105    -1.630522  0.097820173   -3.1804105    1.5498885   511008 
 4630000    1.2035339   -3.1813158   -1.6303342  0.098420988   -3.1813158    1.5509816   511054 
 4631000    1.2038971   -3.1799717   -1.6286038  0.096393095   -3.1799717    1.5513678   511081 
 4632000    1.2036184   -3.1794872   -1.6286182   0.10348909   -3.1794872    1.5508691   511127 
 4633000    1.2046262    -3.179833   -1.6277262  0.096947881    -3.179833    1.5521069   511147 
 4634000    1.2038546   -3.1806674   -1.6296973  0.099481458   -3.1806674    1.5509701   511194 
 4635000    1.2040199    -3.180642   -1.6295621   0.10039443    -3.180642    1.5510799   511228 
 4636000    1.2031369   -3.1793705   -1.6295585  0.095293594   -3.1793705     1.549812   511271 
 4637000    1.2050206   -3.1821925    -1.630042  0.094549549   -3.1821925    1.5521505   511300 
 4638000    1.2048098    -3.180815   -1.6290272     0.100419    -3.180815    1.5517878   511330 
 4639000    1.2052985    -3.180265   -1.6279509   0.10260713    -3.180265    1.5523141   511364 
 4640000    1.2068984   -3.1828517   -1.6285865   0.10064133   -3.1828517    1.5542651   511400 
 4641000    1.2054706   -3.1796506   -1.6273668   0.10019882   -3.1796506    1.5522837   511447 
 4642000     1.206483   -3.1817383    -1.628327  0.098881364   -3.1817383    1.5534113   511505 
 4643000    1.2054402   -3.1795707   -1.6276113  0.099960244   -3.1795707    1.5519594   511541 
 4644000    1.2060067   -3.1816374   -1.6290701  0.098574599   -3.1816374    1.5525673   511581 
 4645000     1.206326   -3.1822209   -1.6293245  0.091961194   -3.1822209    1.5528964   511608 
 4646000    1.2049059    -3.180153   -1.6292544  0.099320741    -3.180153    1.5508986   511664 
 4647000    1.2044612   -3.1791633   -1.6289219   0.10071996   -3.1791633    1.5502414   511692 
 4648000    1.2069743   -3.1813752   -1.6279631  0.098839081   -3.1813752    1.5534121   511713 
 4649000    1.2047541   -3.1779336   -1.6275031   0.10271203   -3.1779336    1.5504305   511754 
 4650000    1.2064732   -3.1798128   -1.6272943   0.10137939   -3.1798128    1.5525185   511795 
 4651000    1.2068688   -3.1817484   -1.6287876  0.094444632   -3.1817484    1.5529608   511817 
 4652000     1.205098   -3.1787984    -1.628195  0.094046548   -3.1787984    1.5506034   511843 
 4653000    1.2067455   -3.1804393   -1.6278405  0.097562565   -3.1804393    1.5525988   511884 
 4654000    1.2052076   -3.1793802   -1.6288449   0.10044963   -3.1793802    1.5505354   511912 
 4655000    1.2062522   -3.1817911   -1.6300118  0.096076599   -3.1817911    1.5517792   511945 
 4656000    1.2047601   -3.1791066   -1.6294164   0.10054369   -3.1791066    1.5496902   512001 
 4657000    1.2063948   -3.1814384   -1.6296757  0.095379578   -3.1814384    1.5517627   512011 
 4658000    1.2049539   -3.1799111   -1.6300593   0.09754632   -3.1799111    1.5498518   512030 
 4659000    1.2037806   -3.1782991   -1.6299745   0.10175053   -3.1782991    1.5483245   512036 
 4660000    1.2052797   -3.1795317    -1.629382  0.093901762   -3.1795317    1.5501497   512070 
 4661000    1.2052751   -3.1795185   -1.6294958   0.10370117   -3.1795185    1.5500227   512110 
 4662000    1.2056316   -3.1807774    -1.630493  0.097410157   -3.1807774    1.5502845   512175 
 4663000    1.2059281    -3.181912   -1.6313978  0.099048873    -3.181912    1.5505142   512225 
 4664000    1.2059131   -3.1822902   -1.6318467  0.091590133   -3.1822902    1.5504435   512242 
 4665000    1.2074537   -3.1839066   -1.6316066  0.094240583   -3.1839066    1.5523001   512283 
 4666000    1.2054344   -3.1822992    -1.632707  0.095833551   -3.1822992    1.5495922   512320 
 4667000    1.2057294   -3.1836064   -1.6336985  0.091679135   -3.1836064    1.5499079   512341 
 4668000    1.2051147   -3.1826382   -1.6335901  0.095428251   -3.1826382    1.5490481   512364 
 4669000    1.2056899   -3.1824113   -1.6328144  0.098097097   -3.1824113    1.5495969   512427 
 4670000     1.208599    -3.185503   -1.6321883  0.095336135    -3.185503    1.5533146   512434 
 4671000    1.2079392   -3.1847516   -1.6324244    0.0973884   -3.1847516    1.5523272   512480 
 4672000    1.2074831   -3.1840313   -1.6324294  0.098157499   -3.1840313    1.5516019   512526 
 4673000    1.2087506   -3.1858827   -1.6327612  0.098428215   -3.1858827    1.5531215   512562 
 4674000     1.207902   -3.1854193   -1.6334487  0.098096757   -3.1854193    1.5519706   512582 
 4675000    1.2071478   -3.1863234   -1.6354126   0.10079397   -3.1863234    1.5509108   512612 
 4676000    1.2087258   -3.1888322   -1.6359577  0.096274755   -3.1888322    1.5528745   512633 
 4677000    1.2079608   -3.1881966   -1.6364411  0.092428793   -3.1881966    1.5517555   512678 
 4678000    1.2078909     -3.18857   -1.6370102  0.094982768     -3.18857    1.5515598   512713 
 4679000    1.2063938    -3.185566   -1.6359927   0.10237495    -3.185566    1.5495733   512734 
 4680000    1.2090342   -3.1886649    -1.635794  0.096455147   -3.1886649    1.5528709   512765 
 4681000    1.2069916   -3.1873957   -1.6372994  0.091752523   -3.1873957    1.5500963   512815 
 4682000    1.2061248   -3.1864323    -1.637564  0.097599989   -3.1864323    1.5488683   512853 
 4683000     1.207147   -3.1876065   -1.6375254  0.098471434   -3.1876065    1.5500812   512886 
 4684000    1.2074789   -3.1880618    -1.637621   0.10186946   -3.1880618    1.5504409   512908 
 4685000    1.2094194    -3.190289   -1.6373837   0.10041093    -3.190289    1.5529053   512917 
 4686000    1.2070962    -3.187592   -1.6378238  0.099085243    -3.187592    1.5497682   512968 
 4687000    1.2075918   -3.1874189   -1.6370869  0.099779305   -3.1874189    1.5503319   512992 
 4688000    1.2083974   -3.1885587   -1.6372166  0.096125257   -3.1885587    1.5513421   513000 
 4689000    1.2078346   -3.1875281    -1.637093   0.10159529   -3.1875281    1.5504352   513061 
 4690000    1.2065815    -3.186132    -1.637405   0.10045105    -3.186132     1.548727   513094 
 4691000    1.2063086   -3.1851875   -1.6369948    0.1008243   -3.1851875    1.5481926   513155 
 4692000    1.2064718   -3.1860159   -1.6375323  0.096980528   -3.1860159    1.5484835   513128 
 4693000    1.2071839   -3.1852935   -1.6359231  0.095735137   -3.1852935    1.5493703   513137 
 4694000    1.2064215   -3.1839554   -1.6357053  0.096794628   -3.1839554      1.54825   513184 
 4695000     1.206721   -3.1848715   -1.6363094   0.10282336   -3.1848715     1.548562   513208 
 4696000    1.2068024   -3.1850095   -1.6364939   0.09422722   -3.1850095    1.5485156   513258 
 4697000    1.2063622   -3.1854389   -1.6375817  0.091052412   -3.1854389    1.5478572   513289 
 4698000    1.2076557   -3.1859157   -1.6364653   0.08971889   -3.1859157    1.5494504   513311 
 4699000    1.2056126   -3.1836659   -1.6369965  0.097756909   -3.1836659    1.5466695   513364 
 4700000    1.2074857   -3.1865035   -1.6374974  0.090655917   -3.1865035    1.5490061   513386 
 4701000    1.2088467   -3.1870711   -1.6365064  0.093693407   -3.1870711    1.5505647   513448 
 4702000    1.2084579    -3.186283   -1.6364192  0.090878001    -3.186283    1.5498638   513515 
 4703000    1.2073571   -3.1845821   -1.6361632  0.093254944   -3.1845821    1.5484189   513526 
 4704000    1.2084326   -3.1856481   -1.6359466  0.090375202   -3.1856481    1.5497015   513558 
 4705000    1.2081547   -3.1852385   -1.6359627   0.09613107   -3.1852385    1.5492758   513581 
 4706000    1.2068371   -3.1842485   -1.6367226  0.097744369   -3.1842485    1.5475259   513601 
 4707000    1.2079347   -3.1848256   -1.6359134  0.091711912   -3.1848256    1.5489122   513608 
 4708000    1.2090812   -3.1858789   -1.6355449  0.098283083   -3.1858789    1.5503341   513624 
 4709000    1.2087323   -3.1848967   -1.6350884  0.098145781   -3.1848967    1.5498082   513650 
 4710000    1.2076478   -3.1844661   -1.6361238  0.091005906   -3.1844661    1.5483423   513675 
 4711000    1.2075105   -3.1839015    -1.635919  0.093641269   -3.1839015    1.5479825   513736 
 4712000    1.2103648   -3.1857208   -1.6341849   0.10131246   -3.1857208    1.5515359   513771 
 4713000    1.2099155   -3.1866508   -1.6357965   0.10147395   -3.1866508    1.5508543   513806 
 4714000    1.2111106   -3.1885204   -1.6362581  0.092691556   -3.1885204    1.5522623   513847 
 4715000    1.2078981   -3.1842188   -1.6361612  0.093708725   -3.1842188    1.5480576   513876 
 4716000     1.210633   -3.1871912   -1.6357614  0.096427522   -3.1871912    1.5514298   513920 
 4717000     1.209743   -3.1868611   -1.6366715  0.097590765   -3.1868611    1.5501896   513953 
 4718000    1.2096855    -3.186594   -1.6366228   0.10059876    -3.186594    1.5499712   514001 
 4719000    1.2094106   -3.1865179   -1.6370074  0.099325547   -3.1865179    1.5495105   514037 
 4720000     1.210682   -3.1875888    -1.636564  0.097310022   -3.1875888    1.5510248   514075 
 4721000    1.2119669   -3.1883947   -1.6359232  0.097230491   -3.1883947    1.5524715   514141 
 4722000    1.2125352   -3.1884103   -1.6353316   0.10082499   -3.1884103    1.5530787   514181 
 4723000    1.2111615   -3.1866845    -1.635507   0.10064173   -3.1866845    1.5511774   514228 
 4724000    1.2117387   -3.1868191   -1.6350533   0.10247831   -3.1868191    1.5517658   514278 
 4725000    1.2119732   -3.1865324   -1.6345448   0.10253065   -3.1865324    1.5519876   514304 
 4726000    1.2109088   -3.1857643   -1.6352785   0.10013713   -3.1857643    1.5504859   514350 
 4727000     1.212062   -3.1865388   -1.6346487  0.098077388   -3.1865388    1.5518901   514374 
 4728000    1.2119074   -3.1854085     -1.63384   0.10194966   -3.1854085    1.5515685   514415 
 4729000    1.2122625   -3.1870152   -1.6351128  0.098592186   -3.1870152    1.5519024   514455 
 4730000    1.2111224   -3.1863061   -1.6359898  0.097412643   -3.1863061    1.5503164   514497 
 4731000    1.2118832   -3.1874609   -1.6361858  0.096401061   -3.1874609    1.5512751   514502 
 4732000    1.2114777   -3.1870313   -1.6364258  0.096529315   -3.1870313    1.5506054   514552 
 4733000    1.2121272   -3.1882718   -1.6368923  0.092319047   -3.1882718    1.5513794   514571 
 4734000    1.2120467    -3.187851    -1.636653  0.095499709    -3.187851     1.551198   514597 
 4735000     1.212919   -3.1891835   -1.6369777  0.095851076   -3.1891835    1.5522058   514633 
 4736000    1.2103866   -3.1867624   -1.6379269  0.096163756   -3.1867624    1.5488356   514676 
 4737000    1.2110887    -3.187013    -1.637291  0.096544643    -3.187013     1.549722   514680 
 4738000    1.2120802   -3.1878025   -1.6368661  0.098112605   -3.1878025    1.5509364   514698 
 4739000    1.2122019    -3.189532   -1.6385633  0.094804009    -3.189532    1.5509687   514739 
 4740000    1.2131544   -3.1893205   -1.6372327  0.098602433   -3.1893205    1.5520878   514772 
 4741000    1.2113287   -3.1875604   -1.6378325   0.10154409   -3.1875604     1.549728   514780 
 4742000    1.2110819   -3.1865282   -1.6371972   0.10036777   -3.1865282     1.549331   514807 
 4743000    1.2112464   -3.1868057   -1.6373034  0.098788467   -3.1868057    1.5495022   514820 
 4744000    1.2104374    -3.186918   -1.6385709  0.097022492    -3.186918    1.5483471   514860 
 4745000    1.2108863   -3.1872383   -1.6383952  0.099729176   -3.1872383    1.5488431   514886 
 4746000    1.2104741   -3.1858201   -1.6376425  0.098363254   -3.1858201    1.5481775   514932 
 4747000    1.2127364   -3.1890347    -1.638045  0.098942222   -3.1890347    1.5509897   514959 
 4748000    1.2124109   -3.1899797   -1.6395599   0.09752327   -3.1899797    1.5504198   515010 
 4749000    1.2141903   -3.1902634   -1.6376194  0.097020525   -3.1902634     1.552644   515027 
 4750000    1.2140828   -3.1897371    -1.637351  0.098480121   -3.1897371     1.552386   515067 
 4751000    1.2130362   -3.1888685   -1.6378478   0.10285503   -3.1888685    1.5510207   515076 
 4752000    1.2131627   -3.1886296   -1.6374893  0.098465151   -3.1886296    1.5511403   515090 
 4753000     1.215374   -3.1910061    -1.637114  0.096552205   -3.1910061    1.5538921   515115 
 4754000    1.2150733   -3.1899711   -1.6365779   0.10409001   -3.1899711    1.5533932   515153 
 4755000    1.2152687   -3.1896918   -1.6361514   0.09827616   -3.1896918    1.5535404   515187 
 4756000    1.2138093   -3.1888012   -1.6372379  0.097896269   -3.1888012    1.5515633   515224 
 4757000    1.2136635   -3.1892332   -1.6379134  0.097730584   -3.1892332    1.5513198   515243 
 4758000    1.2158073   -3.1907507   -1.6367631   0.10056301   -3.1907507    1.5539876   515267 
 4759000    1.2151217   -3.1894824   -1.6364495  0.096801367   -3.1894824    1.5530329   515293 
 4760000    1.2136602   -3.1885303   -1.6374044   0.10105507   -3.1885303    1.5511259   515306 
 4761000    1.2124428   -3.1864405   -1.6370058   0.10311961   -3.1864405    1.5494346   515351 
 4762000    1.2136526   -3.1881605   -1.6373333    0.1001854   -3.1881605    1.5508272   515402 
 4763000    1.2138343   -3.1882053   -1.6373084   0.10040811   -3.1882053    1.5508969   515456 
 4764000    1.2131352   -3.1886194   -1.6387269  0.098278244   -3.1886194    1.5498925   515493 
 4765000    1.2136327   -3.1881396   -1.6377709  0.093817042   -3.1881396    1.5503686   515546 
 4766000    1.2136294   -3.1889736   -1.6387686  0.092759345   -3.1889736     1.550205   515599 
 4767000    1.2128369   -3.1885409   -1.6394743  0.098394892   -3.1885409    1.5490666   515641 
 4768000    1.2124416   -3.1885323   -1.6401028  0.091340683   -3.1885323    1.5484296   515685 
 4769000    1.2133027   -3.1885971     -1.63923   0.09397158   -3.1885971    1.5493671   515739 
 4770000    1.2144698   -3.1898801   -1.6391159  0.088779694   -3.1898801    1.5507642   515770 
 4771000    1.2134637   -3.1879701   -1.6385447  0.092172419   -3.1879701    1.5494254   515788 
 4772000    1.2141207   -3.1888788   -1.6386955  0.092289045   -3.1888788    1.5501832   515815 
 4773000    1.2138549    -3.188048   -1.6383514  0.095293234    -3.188048    1.5496966   515864 
 4774000    1.2146905   -3.1873182   -1.6366389  0.093833134   -3.1873182    1.5506793   515892 
 4775000     1.214406   -3.1870588   -1.6368449  0.095238385   -3.1870588    1.5502139   515926 
 4776000    1.2157126   -3.1885854   -1.6366706   0.10242934   -3.1885854    1.5519148   515915 
 4777000    1.2133757   -3.1856727   -1.6368281  0.098731226   -3.1856727    1.5488446   515944 
 4778000    1.2147726   -3.1876374   -1.6371269  0.099012834   -3.1876374    1.5505105   515983 
 4779000    1.2149894   -3.1876367   -1.6369547  0.098119259   -3.1876367     1.550682   516018 
 4780000    1.2170155   -3.1890227   -1.6358209  0.094418754   -3.1890227    1.5532018   516040 
 4781000     1.216467   -3.1884459   -1.6360284  0.091253263   -3.1884459    1.5524175   516068 
 4782000    1.2140488   -3.1864922   -1.6372508   0.10117201   -3.1864922    1.5492415   516098 
 4783000    1.2155772   -3.1887175   -1.6375347  0.094127504   -3.1887175    1.5511827   516101 
 4784000    1.2170314   -3.1899381    -1.637032   0.09503538   -3.1899381     1.552906   516145 
 4785000    1.2162377    -3.189969    -1.638208  0.098631283    -3.189969     1.551761   516189 
 4786000    1.2164073   -3.1900861   -1.6381988  0.097870527   -3.1900861    1.5518873   516219 
 4787000    1.2148739   -3.1879629    -1.638098   0.10362993   -3.1879629    1.5498648   516241 
 4788000    1.2156182   -3.1901027   -1.6393303  0.097726406   -3.1901027    1.5507723   516255 
 4789000    1.2155949   -3.1903696   -1.6397291  0.092401944   -3.1903696    1.5506405   516289 
 4790000    1.2156877   -3.1903398   -1.6397581  0.099605598   -3.1903398    1.5505818   516348 
 4791000    1.2157959    -3.190331   -1.6397644  0.094743588    -3.190331    1.5505666   516399 
 4792000    1.2150836   -3.1894438   -1.6398067  0.099298213   -3.1894438    1.5496371   516406 
 4793000    1.2165892   -3.1915253   -1.6400641  0.095941718   -3.1915253    1.5514611   516438 
 4794000    1.2138171   -3.1884257   -1.6406077  0.096005912   -3.1884257    1.5478181   516474 
 4795000    1.2151281   -3.1905687   -1.6412138  0.095834787   -3.1905687    1.5493549   516519 
 4796000    1.2161649   -3.1905561   -1.6401013  0.093979139   -3.1905561    1.5504547   516593 
 4797000    1.2158977    -3.189339     -1.63933   0.10756178    -3.189339     1.550009   516628 
 4798000    1.2167737   -3.1909747   -1.6398879  0.096929891   -3.1909747    1.5510868   516641 
 4799000    1.2152886   -3.1909064   -1.6419017  0.093582331   -3.1909064    1.5490047   516704 
 4800000    1.2143796   -3.1894507   -1.6417095  0.093107575   -3.1894507    1.5477412   516739 
 4801000    1.2157837    -3.190822   -1.6413752  0.091597535    -3.190822    1.5494468   516767 
 4802000    1.2163661     -3.19091    -1.640781   0.10157874     -3.19091     1.550129   516787 
 4803000    1.2158853   -3.1901472   -1.6407778  0.098410815   -3.1901472    1.5493694   516836 
 4804000    1.2174231   -3.1906842   -1.6395052  0.097144881   -3.1906842     1.551179   516886 
 4805000    1.2167364   -3.1901545   -1.6398955  0.099374702   -3.1901545     1.550259   516901 
 4806000    1.2166508   -3.1902892   -1.6402832  0.095219702   -3.1902892     1.550006   516949 
 4807000    1.2169698   -3.1916293   -1.6413129  0.090743029   -3.1916293    1.5503164   516981 
 4808000    1.2159637   -3.1897257    -1.640775  0.095659037   -3.1897257    1.5489508   517009 
 4809000     1.216682   -3.1905143   -1.6407534  0.093521115   -3.1905143    1.5497609   517044 
 4810000    1.2157326   -3.1901776   -1.6417548  0.097463906   -3.1901776    1.5484228   517087 
 4811000    1.2170545   -3.1913819   -1.6413533  0.097004147   -3.1913819    1.5500285   517113 
 4812000     1.216477   -3.1907721   -1.6414939  0.099445721   -3.1907721    1.5492781   517118 
 4813000    1.2169533   -3.1914709   -1.6416521   0.10041548   -3.1914709    1.5498188   517140 
 4814000    1.2168638   -3.1911137    -1.641457   0.10051115   -3.1911137    1.5496568   517156 
 4815000    1.2174487   -3.1922466   -1.6419648  0.092456397   -3.1922466    1.5502818   517196 
 4816000     1.217427   -3.1925673   -1.6423491  0.096077922   -3.1925673    1.5502182   517208 
 4817000    1.2172567   -3.1921438   -1.6422324  0.098565844   -3.1921438    1.5499114   517238 
 4818000    1.2182108   -3.1930326   -1.6419872  0.096544694   -3.1930326    1.5510454   517265 
 4819000    1.2158036   -3.1911186   -1.6433567  0.094910139   -3.1911186    1.5477619   517338 
 4820000    1.2173768   -3.1925382   -1.6428813  0.097985597   -3.1925382    1.5496569   517374 
 4821000    1.2165206   -3.1909218   -1.6423817  0.098774109   -3.1909218    1.5485401   517383 
 4822000    1.2173088    -3.192093   -1.6426544  0.089581722    -3.192093    1.5494386   517418 
 4823000    1.2176275   -3.1907649   -1.6410734  0.096793493   -3.1907649    1.5496915   517469 
 4824000    1.2177301   -3.1914585   -1.6416874  0.096024035   -3.1914585    1.5497711   517486 
 4825000    1.2172499   -3.1911394   -1.6420063  0.099349185   -3.1911394    1.5491331   517495 
 4826000    1.2192775   -3.1924739   -1.6409763  0.096656989   -3.1924739    1.5514976   517567 
 4827000    1.2188502   -3.1925535   -1.6416626  0.093485824   -3.1925535    1.5508909   517588 
 4828000    1.2180558   -3.1928097   -1.6429326  0.096844567   -3.1928097    1.5498771   517589 
 4829000    1.2184825    -3.191981   -1.6416148  0.098527292    -3.191981    1.5503661   517607 
 4830000    1.2185805   -3.1926922   -1.6423121  0.094230806   -3.1926922    1.5503801   517644 
 4831000    1.2181584   -3.1914864   -1.6417841  0.097325135   -3.1914864    1.5497023   517691 
 4832000    1.2178318    -3.190886    -1.641668  0.097081983    -3.190886     1.549218   517714 
 4833000    1.2199507    -3.193057   -1.6411526  0.097963108    -3.193057    1.5519045   517717 
 4834000    1.2180709   -3.1909626   -1.6415602  0.098775211   -3.1909626    1.5494024   517754 
 4835000    1.2191964   -3.1932078   -1.6424935   0.08936076   -3.1932078    1.5507142   517794 
 4836000    1.2195641    -3.193877    -1.642737  0.095965733    -3.193877    1.5511401   517808 
 4837000    1.2185214   -3.1913962   -1.6417649  0.097391533   -3.1913962    1.5496313   517869 
 4838000    1.2187456   -3.1915129   -1.6416383   0.10087742   -3.1915129    1.5498745   517883 
 4839000    1.2192995   -3.1921645   -1.6417473   0.09674959   -3.1921645    1.5504172   517937 
 4840000    1.2198945   -3.1921383   -1.6409854  0.096175055   -3.1921383    1.5511529   517944 
 4841000    1.2194155   -3.1914632    -1.641093  0.094843828   -3.1914632    1.5503702   518002 
 4842000    1.2193708   -3.1913482   -1.6410049   0.09980371   -3.1913482    1.5503433   517992 
 4843000    1.2197934   -3.1927063   -1.6418496   0.09465731   -3.1927063    1.5508567   518000 
 4844000    1.2190004   -3.1906745   -1.6409458  0.097885445   -3.1906745    1.5497288   518040 
 4845000    1.2196971   -3.1922166    -1.641665  0.094848939   -3.1922166    1.5505516   518061 
 4846000    1.2177257   -3.1901214   -1.6421537  0.095623779   -3.1901214    1.5479677   518087 
 4847000    1.2191406   -3.1935026   -1.6438917  0.095604234   -3.1935026    1.5496109   518139 
 4848000    1.2193958   -3.1938279   -1.6439645  0.087444951   -3.1938279    1.5498634   518163 
 4849000     1.218347   -3.1922858   -1.6438181  0.098626223   -3.1922858    1.5484677   518184 
 4850000    1.2196719    -3.195425   -1.6453812  0.090069932    -3.195425    1.5500439   518220 
 4851000    1.2179135   -3.1929934    -1.645259   0.09567039   -3.1929934    1.5477344   518245 
 4852000    1.2189555   -3.1937125   -1.6447615  0.099700812   -3.1937125    1.5489511   518281 
 4853000    1.2189487   -3.1932618      -1.6444  0.098301411   -3.1932618    1.5488617   518308 
 4854000    1.2213035   -3.1952115   -1.6434535  0.091962659   -3.1952115    1.5517581   518340 
 4855000     1.219687   -3.1929745   -1.6433689  0.097392681   -3.1929745    1.5496055   518373 
 4856000    1.2204689   -3.1951133   -1.6445951  0.098369645   -3.1951133    1.5505182   518400 
 4857000    1.2205612   -3.1949752   -1.6443637   0.09436129   -3.1949752    1.5506115   518408 
 4858000    1.2200222   -3.1933574   -1.6435203  0.095415368   -3.1933574    1.5498371   518438 
 4859000    1.2211405   -3.1959754   -1.6448016  0.093591614   -3.1959754    1.5511739   518466 
 4860000    1.2196784   -3.1938936   -1.6445918  0.097398107   -3.1938936    1.5493017   518471 
 4861000    1.2194343   -3.1945058   -1.6455262  0.099799971   -3.1945058    1.5489797   518475 
 4862000     1.219334   -3.1932662   -1.6444467  0.093559754   -3.1932662    1.5488194   518486 
 4863000    1.2197766   -3.1949354   -1.6456464  0.097317891   -3.1949354    1.5492889   518517 
 4864000      1.21968    -3.194159   -1.6450106  0.097127071    -3.194159    1.5491484   518523 
 4865000    1.2216673   -3.1962742   -1.6445389   0.10146218   -3.1962742    1.5517353   518502 
 4866000    1.2208709   -3.1946717   -1.6440676   0.10081623   -3.1946717    1.5506042   518542 
 4867000    1.2199609   -3.1945656   -1.6451441   0.10034917   -3.1945656    1.5494215   518551 
 4868000    1.2217506   -3.1965452   -1.6449434  0.094883333   -3.1965452    1.5516018   518582 
 4869000    1.2212909   -3.1960183   -1.6450901   0.09488475   -3.1960183    1.5509281   518612 
 4870000    1.2216987   -3.1963176   -1.6448895  0.094785132   -3.1963176    1.5514281   518618 
 4871000    1.2200031   -3.1948814    -1.645741  0.092051557   -3.1948814    1.5491404   518663 
 4872000    1.2213173   -3.1944069   -1.6437232  0.093695651   -3.1944069    1.5506837   518705 
 4873000    1.2225965     -3.19695   -1.6448008  0.093682186     -3.19695    1.5521492   518758 
 4874000    1.2197229   -3.1937259   -1.6454039  0.097547123   -3.1937259     1.548322   518818 
 4875000    1.2199729   -3.1946327   -1.6460471  0.099614132   -3.1946327    1.5485856   518836 
 4876000    1.2202366   -3.1952917   -1.6464042  0.098472195   -3.1952917    1.5488875   518847 
 4877000    1.2201129    -3.193843   -1.6452021  0.095372007    -3.193843    1.5486409   518877 
 4878000     1.220079    -3.194467   -1.6459796    0.1000629    -3.194467    1.5484875   518914 
 4879000    1.2208447   -3.1947433   -1.6454333  0.099237119   -3.1947433      1.54931   518964 
 4880000    1.2224406    -3.195388   -1.6441634  0.093321495    -3.195388    1.5512246   519001 
 4881000    1.2207412   -3.1946306   -1.6456996   0.10185323   -3.1946306    1.5489309   519047 
 4882000    1.2224046   -3.1964098    -1.645449  0.094091439   -3.1964098    1.5509608   519074 
 4883000    1.2207831   -3.1947398   -1.6459586  0.090512269   -3.1947398    1.5487812   519115 
 4884000    1.2219328   -3.1950692   -1.6449489  0.093601338   -3.1950692    1.5501203   519155 
 4885000    1.2215467   -3.1938194   -1.6442127   0.10166423   -3.1938194    1.5496066   519163 
 4886000    1.2211267   -3.1945669   -1.6455497  0.097366421   -3.1945669    1.5490172   519182 
 4887000    1.2222196   -3.1946789    -1.644365  0.098784496   -3.1946789     1.550314   519212 
 4888000    1.2219535   -3.1948224   -1.6449266  0.090914932   -3.1948224    1.5498959   519239 
 4889000    1.2221618    -3.194749    -1.644577  0.092738153    -3.194749    1.5501719   519235 
 4890000    1.2216272   -3.1945028   -1.6451671  0.099062734   -3.1945028    1.5493357   519288 
 4891000    1.2222013   -3.1954593   -1.6455148  0.095570803   -3.1954593    1.5499445   519328 
 4892000    1.2229022   -3.1945097   -1.6438018   0.09476993   -3.1945097    1.5507079   519370 
 4893000    1.2220247   -3.1935978   -1.6440892  0.097087985   -3.1935978    1.5495086   519399 
 4894000    1.2230466   -3.1951736    -1.644405  0.097935563   -3.1951736    1.5507686   519411 
 4895000    1.2227458    -3.194804   -1.6444646   0.09597597    -3.194804    1.5503394   519427 
 4896000    1.2232448   -3.1945565   -1.6437606  0.098438057   -3.1945565     1.550796   519486 
 4897000    1.2231549   -3.1944941   -1.6438271  0.093622708   -3.1944941     1.550667   519491 
 4898000    1.2213573   -3.1923497   -1.6440212  0.093724264   -3.1923497    1.5483285   519511 
 4899000    1.2232009   -3.1961142   -1.6455888  0.093507662   -3.1961142    1.5505254   519558 
 4900000      1.22426    -3.197658   -1.6458379  0.091549512    -3.197658    1.5518201   519574 
 4901000    1.2225158   -3.1947351   -1.6451885  0.097531715   -3.1947351    1.5495466   519595 
 4902000    1.2228278    -3.194975   -1.6450985  0.093141871    -3.194975    1.5498765   519617 
 4903000    1.2230838   -3.1950127   -1.6448656  0.096051178   -3.1950127    1.5501472   519635 
 4904000    1.2249436   -3.1960882   -1.6436824  0.095565176   -3.1960882    1.5524058   519668 
 4905000    1.2241274   -3.1942377   -1.6429469  0.098896572   -3.1942377    1.5512908   519695 
 4906000    1.2230242   -3.1935243   -1.6437896  0.097948828   -3.1935243    1.5497347   519748 
 4907000    1.2232435   -3.1930205   -1.6431361  0.088828847   -3.1930205    1.5498844   519791 
 4908000    1.2245723   -3.1939099   -1.6424851  0.096765574   -3.1939099    1.5514247   519839 
 4909000    1.2234674   -3.1939623   -1.6439552  0.099061127   -3.1939623     1.550007   519845 
 4910000    1.2235848   -3.1957381   -1.6456301  0.098261683   -3.1957381    1.5501081   519861 
 4911000    1.2246653   -3.1954939   -1.6440618  0.095840659   -3.1954939    1.5514322   519876 
 4912000    1.2252207   -3.1957991   -1.6437111  0.099163449   -3.1957991    1.5520879   519892 
 4913000    1.2241955    -3.195022   -1.6442984   0.10226414    -3.195022    1.5507236   519914 
 4914000    1.2248661   -3.1955142   -1.6440217  0.095062251   -3.1955142    1.5514925   519941 
 4915000    1.2240573   -3.1952577   -1.6448493   0.09629918   -3.1952577    1.5504083   519961 
 4916000    1.2243099   -3.1956808   -1.6449405  0.093104881   -3.1956808    1.5507403   519957 
 4917000    1.2254448   -3.1962472   -1.6442754  0.098210695   -3.1962472    1.5519718   520026 
 4918000     1.222878   -3.1926229   -1.6439435  0.098265711   -3.1926229    1.5486794   520040 
 4919000    1.2235272   -3.1940309   -1.6446099  0.096383317   -3.1940309    1.5494211   520067 
 4920000     1.225825   -3.1951305   -1.6429279  0.098795431   -3.1951305    1.5522026   520110 
 4921000    1.2250404   -3.1941067   -1.6429454  0.097978413   -3.1941067    1.5511614   520126 
 4922000    1.2253426   -3.1950936   -1.6436152  0.094476087   -3.1950936    1.5514784   520148 
 4923000    1.2233214   -3.1925737   -1.6437766   0.10225564   -3.1925737    1.5487971   520189 
 4924000    1.2245652   -3.1939998   -1.6437471  0.094996709   -3.1939998    1.5502527   520229 
 4925000    1.2224055   -3.1920495   -1.6445934  0.093180506   -3.1920495    1.5474562   520250 
 4926000    1.2238934   -3.1947952   -1.6455448  0.097884921   -3.1947952    1.5492503   520280 
 4927000    1.2242465   -3.1953179   -1.6457547   0.08884536   -3.1953179    1.5495632   520325 
 4928000    1.2233864   -3.1938159   -1.6454603  0.091556346   -3.1938159    1.5483556   520365 
 4929000    1.2251697    -3.195886   -1.6454076  0.092037431    -3.195886    1.5504784   520410 
 4930000    1.2237246   -3.1946359   -1.6460725  0.094873916   -3.1946359    1.5485634   520439 
 4931000      1.22319   -3.1941332   -1.6463921  0.092274771   -3.1941332    1.5477411   520488 
 4932000    1.2230883    -3.194333   -1.6467562  0.099227923    -3.194333    1.5475768   520500 
 4933000    1.2239298   -3.1940659   -1.6454542  0.096983262   -3.1940659    1.5486117   520510 
 4934000    1.2238256   -3.1952029   -1.6467884  0.095086652   -3.1952029    1.5484145   520532 
 4935000    1.2224939   -3.1929005   -1.6462897  0.094093024   -3.1929005    1.5466108   520572 
 4936000    1.2235593   -3.1935261   -1.6456417  0.097516535   -3.1935261    1.5478843   520597 
 4937000    1.2247902   -3.1951779    -1.645793  0.092021374   -3.1951779    1.5493849   520616 
 4938000    1.2245158   -3.1945156   -1.6456087  0.095412395   -3.1945156    1.5489069   520660 
 4939000    1.2245867   -3.1949508   -1.6460793  0.092751482   -3.1949508    1.5488716   520702 
 4940000    1.2258967   -3.1957063   -1.6453177  0.098772797   -3.1957063    1.5503886   520749 
 4941000     1.224567   -3.1951051   -1.6464815  0.089885789   -3.1951051    1.5486236   520777 
 4942000    1.2254201   -3.1965335   -1.6469769  0.097230873   -3.1965335    1.5495567   520826 
 4943000    1.2251418   -3.1954652    -1.646317  0.094620326   -3.1954652    1.5491482   520845 
 4944000    1.2252657   -3.1960471     -1.64687  0.097557161   -3.1960471    1.5491771   520888 
 4945000     1.225189   -3.1954061   -1.6463856  0.096986543   -3.1954061    1.5490206   520908 
 4946000    1.2283823   -3.1987639   -1.6457537  0.093033832   -3.1987639    1.5530103   520924 
 4947000    1.2270295   -3.1985996    -1.647386  0.099229689   -3.1985996    1.5512136   520953 
 4948000    1.2271038   -3.1987044    -1.647397  0.094179615   -3.1987044    1.5513074   520953 
 4949000    1.2279803   -3.2000968   -1.6477617  0.094241783   -3.2000968    1.5523351   520980 
 4950000    1.2261847   -3.1982732   -1.6483121  0.099833954   -3.1982732     1.549961   521015 
 4951000     1.225952   -3.1984469   -1.6488929  0.095180575   -3.1984469     1.549554   521053 
 4952000    1.2256991   -3.1996099   -1.6504826  0.094544089   -3.1996099    1.5491272   521089 
 4953000    1.2261793   -3.2002699   -1.6505119   0.09335873   -3.2002699     1.549758   521081 
 4954000    1.2256815      -3.1994   -1.6503694  0.093425424      -3.1994    1.5490306   521114 
 4955000    1.2262006    -3.199524   -1.6499056  0.089532058    -3.199524    1.5496184   521137 
 4956000    1.2256716   -3.1998412   -1.6509954  0.095275674   -3.1998412    1.5488458   521172 
 4957000    1.2263928   -3.2006969   -1.6509873  0.097035887   -3.2006969    1.5497096   521188 
 4958000    1.2257736   -3.1997514   -1.6509163  0.094470753   -3.1997514    1.5488351   521219 
 4959000    1.2257814   -3.1991404    -1.650352  0.094789535   -3.1991404    1.5487884   521238 
 4960000    1.2270119   -3.1995471   -1.6492574   0.10122916   -3.1995471    1.5502897   521256 
 4961000    1.2266133   -3.2007975   -1.6511126  0.092812479   -3.2007975    1.5496849   521290 
 4962000    1.2254565   -3.1999874   -1.6518501  0.093181894   -3.1999874    1.5481374   521319 
 4963000    1.2269016   -3.2004338   -1.6505155   0.08790548   -3.2004338    1.5499183   521334 
 4964000    1.2282173   -3.2019249   -1.6503475  0.097090531   -3.2019249    1.5515774   521335 
 4965000    1.2262046   -3.1997694    -1.650794  0.093985557   -3.1997694    1.5489754   521355 
 4966000    1.2267644   -3.2007226   -1.6510757  0.094711741   -3.2007226    1.5496469   521367 
 4967000    1.2274845   -3.1999735   -1.6495181  0.095113144   -3.1999735    1.5504555   521401 
 4968000    1.2272684    -3.200198   -1.6500422  0.097915266    -3.200198    1.5501558   521410 
 4969000    1.2255056   -3.1988914   -1.6510306   0.09227023   -3.1988914    1.5478608   521433 
 4970000     1.226853   -3.2012018   -1.6517402  0.096081213   -3.2012018    1.5494616   521467 
 4971000    1.2275991   -3.2005317    -1.650324  0.096505712   -3.2005317    1.5502077   521533 
 4972000    1.2286659   -3.2012255   -1.6497449  0.092647471   -3.2012255    1.5514805   521558 
 4973000    1.2278029   -3.2011999   -1.6508597  0.093305344   -3.2011999    1.5503402   521575 
 4974000    1.2269563   -3.2006787   -1.6515529  0.094829825   -3.2006787    1.5491257   521624 
 4975000    1.2278631   -3.2031373   -1.6530569  0.096940035   -3.2031373    1.5500804   521688 
 4976000    1.2278433   -3.2018593   -1.6518573  0.090365351   -3.2018593     1.550002   521706 
 4977000    1.2282041   -3.2027552   -1.6523572  0.092113826   -3.2027552     1.550398   521726 
 4978000    1.2263237   -3.2004531   -1.6524644  0.094604952   -3.2004531    1.5479887   521738 
 4979000     1.228248   -3.2017675   -1.6513556  0.098898343   -3.2017675    1.5504118   521740 
 4980000    1.2278109   -3.2016774   -1.6518649  0.095451654   -3.2016774    1.5498125   521756 
 4981000    1.2272629   -3.2015265   -1.6525245  0.099007859   -3.2015265     1.549002   521796 
 4982000    1.2288096   -3.2022295   -1.6513823   0.10040812   -3.2022295    1.5508472   521832 
 4983000    1.2287852     -3.20126   -1.6504911  0.098514943     -3.20126    1.5507689   521848 
 4984000    1.2270557    -3.200022   -1.6514447  0.096687268    -3.200022    1.5485773   521851 
 4985000    1.2269883   -3.2004824   -1.6520435  0.099744169   -3.2004824    1.5484389   521869 
 4986000    1.2276489   -3.2020456   -1.6528623   0.09086671   -3.2020456    1.5491834   521899 
 4987000    1.2268001   -3.2010909    -1.653026  0.094327541   -3.2010909    1.5480649   521915 
 4988000    1.2281403   -3.2010403   -1.6513525  0.098376919   -3.2010403    1.5496877   521938 
 4989000    1.2288293   -3.2025292   -1.6520731  0.091915421   -3.2025292    1.5504561   521972 
 4990000    1.2280135   -3.2012155   -1.6518984  0.097877517   -3.2012155     1.549317   522009 
 4991000    1.2292786   -3.2012496   -1.6504315  0.094456716   -3.2012496    1.5508181   522041 
 4992000    1.2316634    -3.203948   -1.6502046  0.093665415    -3.203948    1.5537433   522069 
 4993000    1.2277826   -3.2012193   -1.6524933  0.099660511   -3.2012193     1.548726   522110 
 4994000     1.228513   -3.2017347   -1.6521912  0.097659183   -3.2017347    1.5495435   522145 
 4995000    1.2300641   -3.2034531   -1.6520571  0.095781622   -3.2034531     1.551396   522180 
 4996000    1.2294882   -3.2031864   -1.6526713  0.094125384   -3.2031864    1.5505151   522232 
 4997000    1.2295648   -3.2017551    -1.651185    0.1016733   -3.2017551    1.5505701   522246 
 4998000    1.2316525   -3.2037612   -1.6505493  0.095183512   -3.2037612    1.5532119   522243 
 4999000    1.2328832   -3.2049841   -1.6503721   0.10348698   -3.2049841     1.554612   522294 
 5000000    1.2310027   -3.2037166    -1.651556  0.097285403   -3.2037166    1.5521605   522321 
 5001000    1.2314479   -3.2051932   -1.6525754  0.097942969   -3.2051932    1.5526178   522356 
 5002000    1.2311989   -3.2055979   -1.6532583  0.098561886   -3.2055979    1.5523396   522344 
 5003000    1.2309878   -3.2063734   -1.6543831  0.098329502   -3.2063734    1.5519903   522372 
 5004000    1.2300818   -3.2050421   -1.6543099  0.098756615   -3.2050421    1.5507322   522411 
 5005000    1.2298245   -3.2045812   -1.6542267  0.098215484   -3.2045812    1.5503545   522429 
 5006000    1.2303505   -3.2060569   -1.6550988  0.095659502   -3.2060569    1.5509582   522449 
 5007000    1.2292123   -3.2059907   -1.6564614  0.099358991   -3.2059907    1.5495293   522447 
 5008000    1.2305619   -3.2079045   -1.6567482   0.09933916   -3.2079045    1.5511563   522472 
 5009000     1.228926   -3.2059024   -1.6568675  0.097204234   -3.2059024     1.549035   522492 
 5010000    1.2297421   -3.2073084   -1.6573931  0.096589888   -3.2073084    1.5499153   522542 
 5011000    1.2302932   -3.2066716   -1.6560736   0.10334613   -3.2066716     1.550598   522546 
 5012000    1.2292271   -3.2051514   -1.6560037   0.10254511   -3.2051514    1.5491477   522582 
 5013000    1.2309697   -3.2069217   -1.6556818   0.10104297   -3.2069217    1.5512399   522617 
 5014000     1.229433   -3.2052849   -1.6560972  0.094362919   -3.2052849    1.5491877   522656 
 5015000    1.2282843   -3.2050423   -1.6574027  0.096089669   -3.2050423    1.5476396   522690 
 5016000    1.2307579   -3.2068935   -1.6562054  0.095921745   -3.2068935    1.5506881   522713 
 5017000    1.2302701    -3.206541   -1.6566128   0.09444581    -3.206541    1.5499282   522762 
 5018000    1.2325742   -3.2086607   -1.6559039  0.090802243   -3.2086607    1.5527568   522787 
 5019000    1.2294418   -3.2062623    -1.657579  0.093714722   -3.2062623    1.5486832   522830 
 5020000    1.2318123   -3.2076038   -1.6560621  0.094210023   -3.2076038    1.5515418   522873 
 5021000    1.2315831   -3.2067275   -1.6554656  0.096058218   -3.2067275    1.5512619   522870 
 5022000    1.2297129    -3.205875   -1.6570902  0.095262895    -3.205875    1.5487848   522911 
 5023000    1.2309571   -3.2064538   -1.6562591   0.08897945   -3.2064538    1.5501947   522964 
 5024000    1.2306884   -3.2057193     -1.65586  0.093965112   -3.2057193    1.5498593   522963 
 5025000    1.2302232   -3.2039253   -1.6547615  0.093931017   -3.2039253    1.5491639   523000 
 5026000    1.2307909   -3.2051137   -1.6553002  0.095386465   -3.2051137    1.5498135   523022 
 5027000    1.2313866   -3.2051198   -1.6546509  0.094907632   -3.2051198    1.5504688   523054 
 5028000    1.2321975   -3.2049996    -1.653581  0.095506962   -3.2049996    1.5514187   523078 
 5029000    1.2307608   -3.2050884   -1.6555586  0.088546984   -3.2050884    1.5495298   523105 
 5030000    1.2299351    -3.204293   -1.6558294  0.092871586    -3.204293    1.5484636   523114 
 5031000    1.2288425   -3.2031545   -1.6561435  0.094767442   -3.2031545     1.547011   523140 
 5032000    1.2284288   -3.2019192   -1.6555116  0.094645127   -3.2019192    1.5464075   523168 
 5033000    1.2281938   -3.2025218   -1.6564248  0.098116839   -3.2025218     1.546097   523173 
 5034000    1.2299895   -3.2040116   -1.6557755  0.097811787   -3.2040116    1.5482361   523214 
 5035000    1.2313887   -3.2055958   -1.6556578  0.085308009   -3.2055958    1.5499381   523234 
 5036000    1.2293791    -3.204228   -1.6569348  0.093620875    -3.204228    1.5472932   523273 
 5037000    1.2286561   -3.2032869   -1.6569539  0.099822432   -3.2032869     1.546333   523290 
 5038000    1.2307279   -3.2047243   -1.6558933  0.090747867   -3.2047243     1.548831   523327 
 5039000    1.2307268     -3.20601   -1.6572011  0.092556396     -3.20601    1.5488089   523334 
 5040000    1.2304048   -3.2055262    -1.657226  0.093159348   -3.2055262    1.5483002   523369 
 5041000    1.2312474   -3.2060744   -1.6568235  0.095231406   -3.2060744    1.5492509   523406 
 5042000    1.2307852   -3.2037067   -1.6551497  0.097020559   -3.2037067    1.5485569   523444 
 5043000    1.2295985   -3.2036888   -1.6566457  0.099161591   -3.2036888    1.5470431   523451 
 5044000    1.2315187   -3.2063629   -1.6570458  0.098757818   -3.2063629     1.549317   523499 
 5045000    1.2312914   -3.2070522   -1.6580182  0.097144615   -3.2070522     1.549034   523498 
 5046000    1.2317858   -3.2083134   -1.6586427  0.097126906   -3.2083134    1.5496707   523493 
 5047000    1.2319051   -3.2083169   -1.6585583   0.10078392   -3.2083169    1.5497587   523514 
 5048000    1.2308775   -3.2073752   -1.6589447  0.093190137   -3.2073752    1.5484305   523526 
 5049000    1.2315482   -3.2080101   -1.6588098  0.095797408   -3.2080101    1.5492003   523551 
 5050000    1.2333245    -3.210021   -1.6586811  0.095224297    -3.210021    1.5513399   523583 
 5051000    1.2323511   -3.2095981   -1.6595004  0.096960243   -3.2095981    1.5500977   523589 
 5052000    1.2321702   -3.2095774   -1.6598405  0.092402611   -3.2095774     1.549737   523634 
 5053000    1.2340113   -3.2113196   -1.6594093  0.098177989   -3.2113196    1.5519103   523682 
 5054000    1.2333665   -3.2107378   -1.6596888  0.096582966   -3.2107378     1.551049   523699 
 5055000    1.2329485   -3.2096573   -1.6591872  0.096350593   -3.2096573    1.5504701   523717 
 5056000    1.2317322   -3.2097053   -1.6608416   0.10036712   -3.2097053    1.5488637   523743 
 5057000    1.2321725   -3.2103553   -1.6610622  0.088827209   -3.2103553    1.5492931   523785 
 5058000    1.2337743   -3.2117684   -1.6605263  0.095167876   -3.2117684     1.551242   523807 
 5059000    1.2321616   -3.2085756   -1.6593938    0.1015054   -3.2085756    1.5491818   523818 
 5060000       1.2349    -3.211002    -1.658487   0.10044946    -3.211002     1.552515   523855 
 5061000    1.2343395   -3.2112814   -1.6596221   0.10237352   -3.2112814    1.5516593   523906 
 5062000    1.2358971   -3.2131052   -1.6596182   0.09714448   -3.2131052    1.5534869   523950 
 5063000    1.2338674   -3.2117779   -1.6609459  0.097186867   -3.2117779     1.550832   523985 
 5064000    1.2333871    -3.211142   -1.6609816  0.094976774    -3.211142    1.5501604   524008 
 5065000    1.2337044   -3.2111044   -1.6606164  0.099238018   -3.2111044    1.5504881   524032 
 5066000    1.2339207    -3.211314   -1.6606635  0.095348878    -3.211314    1.5506504   524069 
 5067000     1.234066   -3.2119067   -1.6610973  0.099035398   -3.2119067    1.5508094   524077 
 5068000    1.2325208   -3.2112099   -1.6623926  0.097532161   -3.2112099    1.5488173   524094 
 5069000    1.2324223   -3.2108032   -1.6622071  0.096570609   -3.2108032     1.548596   524127 
 5070000    1.2327207   -3.2108739   -1.6619709  0.094915657   -3.2108739     1.548903   524150 
 5071000    1.2331367    -3.211041   -1.6617454  0.099424563    -3.211041    1.5492957   524194 
 5072000    1.2330148   -3.2122319   -1.6631308  0.098174202   -3.2122319    1.5491011   524208 
 5073000    1.2323294   -3.2120129   -1.6638113  0.097940203   -3.2120129    1.5482017   524221 
 5074000     1.233826   -3.2129484   -1.6630054  0.092075624   -3.2129484    1.5499429   524268 
 5075000    1.2304447   -3.2096029   -1.6639725  0.095163167   -3.2096029    1.5456304   524290 
 5076000    1.2326259   -3.2112045   -1.6628696  0.097196381   -3.2112045    1.5483349   524302 
 5077000    1.2340788    -3.211853   -1.6617817  0.093763525    -3.211853    1.5500713   524332 
 5078000    1.2306386   -3.2078008   -1.6622187   0.09412448   -3.2078008    1.5455822   524389 
 5079000    1.2335465   -3.2109938   -1.6618688  0.099024446   -3.2109938    1.5491249   524426 
 5080000    1.2341775   -3.2117779   -1.6619049  0.095452302   -3.2117779     1.549873   524441 
 5081000    1.2332738   -3.2101884   -1.6615211   0.10021777   -3.2101884    1.5486672   524465 
 5082000    1.2352712   -3.2125097   -1.6613964   0.10169009   -3.2125097    1.5511133   524486 
 5083000    1.2338917   -3.2100906   -1.6607626   0.10043803   -3.2100906     1.549328   524504 
 5084000    1.2332114   -3.2076245   -1.6591654   0.10024173   -3.2076245     1.548459   524509 
 5085000    1.2350239   -3.2097149   -1.6591781   0.10774613   -3.2097149    1.5505367   524576 
 5086000    1.2356471   -3.2103865   -1.6592211   0.10043376   -3.2103865    1.5511654   524628 
 5087000    1.2363537   -3.2105632   -1.6586319  0.096973544   -3.2105632    1.5519312   524669 
 5088000    1.2363889   -3.2099144   -1.6580101  0.096853225   -3.2099144    1.5519043   524693 
 5089000    1.2363956   -3.2094017   -1.6575866  0.098037403   -3.2094017    1.5518152   524726 
 5090000     1.236149   -3.2093274   -1.6578838  0.097702318   -3.2093274    1.5514435   524747 
 5091000    1.2336616   -3.2063741   -1.6581143   0.10048656   -3.2063741    1.5482598   524768 
 5092000    1.2362267   -3.2103436   -1.6589562  0.094338575   -3.2103436    1.5513874   524799 
 5093000    1.2344709   -3.2071827   -1.6581227  0.098890072   -3.2071827      1.54906   524841 
 5094000    1.2341162   -3.2073594   -1.6588419   0.10021448   -3.2073594    1.5485175   524874 
 5095000    1.2354979   -3.2087514   -1.6585741  0.091336875   -3.2087514    1.5501774   524899 
 5096000    1.2358511   -3.2079002   -1.6574274  0.094234224   -3.2079002    1.5504728   524949 
 5097000    1.2341855   -3.2059491   -1.6576484   0.10014688   -3.2059491    1.5483007   524977 
 5098000    1.2354308   -3.2078437   -1.6581018  0.095658113   -3.2078437    1.5497419   525018 
 5099000    1.2362067   -3.2071196   -1.6563867  0.096942743   -3.2071196    1.5507329   525012 
 5100000    1.2357181   -3.2061442   -1.6561188   0.10385768   -3.2061442    1.5500254   525044 
 5101000    1.2360613   -3.2067768   -1.6563917   0.10039635   -3.2067768    1.5503852   525068 
 5102000    1.2369741    -3.207326   -1.6559585  0.095634397    -3.207326    1.5513675   525123 
 5103000    1.2374513   -3.2088811   -1.6570481  0.097892666   -3.2088811     1.551833   525168 
 5104000    1.2385096   -3.2102801   -1.6572323  0.098848305   -3.2102801    1.5530478   525206 
 5105000    1.2369187   -3.2088046   -1.6578639   0.10250047   -3.2088046    1.5509407   525244 
 5106000     1.238141   -3.2099556   -1.6575118  0.099227021   -3.2099556    1.5524438   525254 
 5107000    1.2358624   -3.2081062   -1.6585932  0.098553089   -3.2081062     1.549513   525279 
 5108000    1.2357097   -3.2068956   -1.6576537  0.096582828   -3.2068956    1.5492419   525306 
 5109000    1.2378002   -3.2091872   -1.6573865   0.10020762   -3.2091872    1.5518007   525327 
 5110000    1.2385455   -3.2106312   -1.6579789  0.097381722   -3.2106312    1.5526523   525355 
 5111000    1.2375655    -3.209054   -1.6576627  0.094951957    -3.209054    1.5513913   525366 
 5112000     1.236896   -3.2094641   -1.6590212  0.094031143   -3.2094641    1.5504429   525403 
 5113000    1.2360306   -3.2080752   -1.6587406  0.097048522   -3.2080752    1.5493346   525411 
 5114000    1.2372452   -3.2098146   -1.6589872  0.095877277   -3.2098146    1.5508275   525421 
 5115000    1.2375646   -3.2087065   -1.6575199  0.098343165   -3.2087065    1.5511865   525435 
 5116000    1.2384998   -3.2108901   -1.6586229  0.090640385   -3.2108901    1.5522672   525466 
 5117000    1.2385765   -3.2107859   -1.6585113  0.097360021   -3.2107859    1.5522747   525496 
 5118000    1.2385602   -3.2097091   -1.6575641  0.095097432   -3.2097091     1.552145   525533 
 5119000    1.2383448   -3.2108641   -1.6590571  0.093919065   -3.2108641     1.551807   525556 
 5120000    1.2373107   -3.2096937   -1.6592946  0.097558444   -3.2096937    1.5503991   525594 
 5121000    1.2370339   -3.2101221   -1.6600581  0.091418409   -3.2101221    1.5500641   525590 
 5122000    1.2363522   -3.2087633   -1.6596978  0.095569669   -3.2087633    1.5490655   525639 
 5123000    1.2375473   -3.2106631   -1.6602507  0.095461312   -3.2106631    1.5504123   525690 
 5124000    1.2357969   -3.2092437   -1.6611126  0.092068827   -3.2092437    1.5481311   525720 
 5125000    1.2361722   -3.2089421   -1.6604941  0.095164179   -3.2089421    1.5484481   525772 
 5126000    1.2375404   -3.2105795   -1.6605119  0.093421699   -3.2105795    1.5500676   525804 
 5127000    1.2360167   -3.2095024   -1.6613904  0.097440018   -3.2095024    1.5481119   525820 
 5128000    1.2356835   -3.2096484   -1.6619449  0.092978233   -3.2096484    1.5477035   525817 
 5129000    1.2358468   -3.2091194   -1.6613086  0.094510993   -3.2091194    1.5478108   525850 
 5130000    1.2363166   -3.2092395    -1.660852  0.095873269   -3.2092395    1.5483875   525854 
 5131000     1.235895   -3.2085151   -1.6607998   0.10132539   -3.2085151    1.5477153   525903 
 5132000      1.23766   -3.2098901   -1.6600265  0.095228715   -3.2098901    1.5498636   525924 
 5133000    1.2369043   -3.2091657   -1.6603721   0.10086201   -3.2091657    1.5487936   525966 
 5134000    1.2390347   -3.2116396   -1.6602285  0.096365223   -3.2116396    1.5514111   525983 
 5135000     1.238695   -3.2116702   -1.6608347  0.096584386   -3.2116702    1.5508354   526034 
 5136000    1.2375433   -3.2104104   -1.6611023  0.093738579   -3.2104104    1.5493081   526063 
 5137000    1.2384901    -3.212568   -1.6621955  0.096390991    -3.212568    1.5503725   526104 
 5138000    1.2385538   -3.2122555   -1.6619123  0.093134622   -3.2122555    1.5503432   526141 
 5139000    1.2374086   -3.2105527    -1.661743  0.094691275   -3.2105527    1.5488096   526175 
 5140000    1.2392456   -3.2123575   -1.6614165  0.093962816   -3.2123575    1.5509409   526232 
 5141000    1.2378083   -3.2110941   -1.6620344  0.099097515   -3.2110941    1.5490597   526260 
 5142000     1.238788    -3.211791   -1.6616495  0.097673824    -3.211791    1.5501415   526309 
 5143000      1.23863   -3.2125512   -1.6626724  0.092565774   -3.2125512    1.5498789   526331 
 5144000      1.23734   -3.2111508   -1.6629477  0.098958161   -3.2111508    1.5482031   526352 
 5145000    1.2377025   -3.2123416   -1.6637498  0.093606609   -3.2123416    1.5485918   526374 
 5146000    1.2377271     -3.21357   -1.6650562  0.098076423     -3.21357    1.5485138   526411 
 5147000    1.2390913   -3.2139702   -1.6638586  0.094330273   -3.2139702    1.5501116   526448 
 5148000    1.2383077     -3.21318   -1.6641664   0.09481989     -3.21318    1.5490136   526488 
 5149000    1.2395109    -3.215259   -1.6648257  0.091114753    -3.215259    1.5504333   526517 
 5150000    1.2387393   -3.2148604   -1.6654983  0.098324573   -3.2148604    1.5493621   526553 
 5151000     1.238807   -3.2149824   -1.6656591  0.094018627   -3.2149824    1.5493233   526595 
 5152000    1.2383997   -3.2137734   -1.6650477  0.095517908   -3.2137734    1.5487257   526625 
 5153000    1.2388528   -3.2128436   -1.6634983  0.094897803   -3.2128436    1.5493453   526607 
 5154000     1.239372   -3.2142002    -1.664285  0.099907658   -3.2142002    1.5499151   526634 
 5155000    1.2389353   -3.2134889   -1.6641345  0.096930999   -3.2134889    1.5493544   526639 
 5156000    1.2388842   -3.2133132   -1.6640787  0.094902405   -3.2133132    1.5492346   526658 
 5157000    1.2385205   -3.2137809   -1.6650483    0.1002805   -3.2137809    1.5487326   526674 
 5158000    1.2388638   -3.2132109   -1.6641461  0.096799553   -3.2132109    1.5490648   526707 
 5159000    1.2397555   -3.2152317   -1.6651461   0.09914536   -3.2152317    1.5500856   526739 
 5160000    1.2401119    -3.214811   -1.6643887    0.1008295    -3.214811    1.5504224   526776 
 5161000    1.2396897   -3.2143944   -1.6645999  0.094538135   -3.2143944    1.5497945   526810 
 5162000    1.2411817   -3.2152799   -1.6637056  0.099067562   -3.2152799    1.5515743   526839 
 5163000    1.2410988   -3.2154734   -1.6641088  0.099643596   -3.2154734    1.5513646   526875 
 5164000    1.2403617    -3.214993   -1.6646204   0.09308708    -3.214993    1.5503727   526899 
 5165000    1.2385711    -3.213209   -1.6650949  0.098079639    -3.213209     1.548114   526906 
 5166000     1.239804    -3.213433   -1.6638722  0.094249583    -3.213433    1.5495608   526938 
 5167000    1.2406077   -3.2143003   -1.6638468   0.10045221   -3.2143003    1.5504535   526976 
 5168000    1.2412794   -3.2139918    -1.662793   0.09877429   -3.2139918    1.5511988   527008 
 5169000     1.241616   -3.2150608   -1.6634943   0.09851854   -3.2150608    1.5515665   527026 
 5170000     1.240941   -3.2144219   -1.6638048  0.094761641   -3.2144219     1.550617   527062 
 5171000    1.2413984   -3.2146954   -1.6635539  0.096692424   -3.2146954    1.5511415   527078 
 5172000    1.2400851   -3.2137924   -1.6643477  0.096318125   -3.2137924    1.5494447   527097 
 5173000    1.2388116   -3.2136679   -1.6659495  0.089351359   -3.2136679    1.5477184   527143 
 5174000    1.2403142   -3.2163849   -1.6668656  0.091563009   -3.2163849    1.5495193   527169 
 5175000    1.2391406   -3.2146639   -1.6667282  0.095595025   -3.2146639    1.5479357   527209 
 5176000    1.2416635   -3.2175362   -1.6664607  0.093791621   -3.2175362    1.5510754   527213 
 5177000    1.2410882   -3.2160981   -1.6658118  0.091301428   -3.2160981    1.5502863   527237 
 5178000    1.2396984   -3.2152061   -1.6667087   0.09548502   -3.2152061    1.5484974   527255 
 5179000    1.2392696   -3.2140315   -1.6661108  0.095636923   -3.2140315    1.5479207   527269 
 5180000    1.2402185   -3.2160401   -1.6670253  0.095181478   -3.2160401    1.5490148   527300 
 5181000     1.241075   -3.2157863    -1.665784  0.090968808   -3.2157863    1.5500023   527328 
 5182000    1.2418265   -3.2176751   -1.6668373  0.096722528   -3.2176751    1.5508379   527363 
 5183000    1.2405367   -3.2163614   -1.6671813  0.098630491   -3.2163614    1.5491801   527379 
 5184000    1.2415895   -3.2172028   -1.6667991   0.09978133   -3.2172028    1.5504037   527410 
 5185000    1.2416545   -3.2170875   -1.6666761  0.095774319   -3.2170875    1.5504114   527435 
 5186000    1.2417265   -3.2183364   -1.6678821   0.10104116   -3.2183364    1.5504543   527451 
 5187000    1.2407559   -3.2172758   -1.6680892  0.099181327   -3.2172758    1.5491866   527470 
 5188000    1.2433612   -3.2194252   -1.6670622   0.09535417   -3.2194252     1.552363   527496 
 5189000     1.240898   -3.2168526   -1.6676766  0.094065646   -3.2168526     1.549176   527534 
 5190000    1.2427716   -3.2187607   -1.6673339  0.095915367   -3.2187607    1.5514268   527564 
 5191000    1.2423133   -3.2188798   -1.6681367   0.09877705   -3.2188798    1.5507431   527602 
 5192000    1.2407525    -3.218982   -1.6703076  0.097139594    -3.218982    1.5486744   527643 
 5193000    1.2418785   -3.2198368   -1.6698745  0.095468613   -3.2198368    1.5499623   527683 
 5194000    1.2406978   -3.2181766   -1.6698259  0.096087053   -3.2181766    1.5483508   527730 
 5195000    1.2424245   -3.2182644   -1.6677881  0.096214078   -3.2182644    1.5504763   527740 
 5196000    1.2431183   -3.2198115   -1.6684929  0.097379438   -3.2198115    1.5513186   527748 
 5197000    1.2434493   -3.2214165    -1.669776  0.096987809   -3.2214165    1.5516405   527779 
 5198000    1.2426063   -3.2198598   -1.6693681   0.10084294   -3.2198598    1.5504916   527812 
 5199000    1.2422206   -3.2174771   -1.6675489    0.1009318   -3.2174771    1.5499282   527840 
 5200000    1.2439818   -3.2197454    -1.667761  0.099199283   -3.2197454    1.5519844   527888 
 5201000    1.2426466   -3.2197097    -1.669488  0.098247004   -3.2197097    1.5502217   527921 
 5202000    1.2445513   -3.2223734   -1.6699373  0.099457687   -3.2223734    1.5524361   527976 
 5203000    1.2436334   -3.2206186   -1.6694273  0.089149137   -3.2206186    1.5511913   528010 
 5204000    1.2427221   -3.2189049   -1.6689736   0.10078176   -3.2189049    1.5499313   528052 
 5205000     1.243064   -3.2198187   -1.6695696  0.095236351   -3.2198187    1.5502492   528089 
 5206000     1.242908   -3.2188583   -1.6688419  0.092380595   -3.2188583    1.5500164   528102 
 5207000    1.2445631   -3.2197933   -1.6677539   0.10171883   -3.2197933    1.5520393   528116 
 5208000    1.2454454   -3.2204796   -1.6673429  0.099670976   -3.2204796    1.5531367   528117 
 5209000     1.244233   -3.2206698   -1.6691096  0.099188896   -3.2206698    1.5515602   528139 
 5210000    1.2443748   -3.2212004   -1.6695076   0.09724725   -3.2212004    1.5516928   528154 
 5211000    1.2436166   -3.2195641   -1.6689224  0.098415296   -3.2195641    1.5506418   528190 
 5212000    1.2446037   -3.2205987   -1.6687497  0.095659363   -3.2205987    1.5518491   528198 
 5213000    1.2438326    -3.220137   -1.6693669  0.098871182    -3.220137    1.5507701   528238 
 5214000    1.2443959   -3.2212584   -1.6698623   0.10344552   -3.2212584     1.551396   528264 
 5215000    1.2434756   -3.2202581    -1.670159  0.098154821   -3.2202581    1.5500991   528315 
 5216000    1.2439407   -3.2216862   -1.6711189   0.10162974   -3.2216862    1.5505674   528353 
 5217000    1.2433813   -3.2209372   -1.6711376  0.096397898   -3.2209372    1.5497996   528377 
 5218000    1.2429557   -3.2197167   -1.6705208  0.095173047   -3.2197167    1.5491959   528402 
 5219000    1.2423526   -3.2179096   -1.6695592  0.096493562   -3.2179096    1.5483504   528434 
 5220000    1.2435511    -3.220566   -1.6707424   0.10174743    -3.220566    1.5498236   528441 
 5221000    1.2412696   -3.2190293   -1.6721691  0.093617302   -3.2190293    1.5468602   528482 
 5222000    1.2418315   -3.2189058   -1.6714391  0.094117368   -3.2189058    1.5474666   528514 
 5223000    1.2413239   -3.2181073   -1.6713814  0.096706538   -3.2181073    1.5467259   528551 
 5224000    1.2422915   -3.2198421   -1.6719575  0.091604606   -3.2198421    1.5478847   528567 
 5225000    1.2437197   -3.2212393   -1.6716718  0.098476704   -3.2212393    1.5495675   528600 
 5226000     1.243624   -3.2197949   -1.6704756  0.095910545   -3.2197949    1.5493192   528644 
 5227000    1.2449708   -3.2208471   -1.6699204  0.092871091   -3.2208471    1.5509267   528668 
 5228000    1.2423188   -3.2186242   -1.6710627  0.099405842   -3.2186242    1.5475615   528689 
 5229000    1.2430207   -3.2208027   -1.6724313    0.1007183   -3.2208027    1.5483715   528711 
 5230000    1.2428462   -3.2202682   -1.6721932  0.094117289   -3.2202682     1.548075   528738 
 5231000    1.2450494   -3.2230064   -1.6722986  0.094718773   -3.2230064    1.5507078   528776 
 5232000    1.2462868   -3.2244554   -1.6722945  0.091848251   -3.2244554     1.552161   528806 
 5233000    1.2456732   -3.2235487   -1.6721901  0.097896316   -3.2235487    1.5513586   528819 
 5234000    1.2452091     -3.22334   -1.6726502  0.092557581     -3.22334    1.5506898   528850 
 5235000    1.2447541   -3.2233504   -1.6733123  0.097241707   -3.2233504    1.5500381   528879 
 5236000    1.2452339   -3.2236619   -1.6731671  0.096498569   -3.2236619    1.5504948   528927 
 5237000    1.2440283   -3.2212149   -1.6722857   0.10298825   -3.2212149    1.5489292   528949 
 5238000    1.2436016   -3.2211098   -1.6727849  0.099620937   -3.2211098    1.5483249   528974 
 5239000    1.2459003   -3.2236421   -1.6725725  0.097768744   -3.2236421    1.5510695   529014 
 5240000    1.2450303   -3.2233545   -1.6734472  0.099172641   -3.2233545    1.5499073   529041 
 5241000    1.2451604   -3.2237308   -1.6737553  0.099665813   -3.2237308    1.5499755   529073 
 5242000    1.2441343    -3.223184   -1.6745151   0.10237526    -3.223184    1.5486689   529083 
 5243000    1.2449551    -3.223761   -1.6741699  0.097124641    -3.223761     1.549591   529117 
 5244000    1.2441441   -3.2229903   -1.6744525   0.10231436   -3.2229903    1.5485378   529132 
 5245000     1.244759   -3.2237599   -1.6745417  0.096723782   -3.2237599    1.5492182   529161 
 5246000    1.2455893   -3.2241752   -1.6739618  0.099781264   -3.2241752    1.5502134   529174 
 5247000    1.2465069   -3.2256806   -1.6744512  0.098695352   -3.2256806    1.5512294   529217 
 5248000    1.2465352   -3.2256161   -1.6744277  0.098252181   -3.2256161    1.5511884   529243 
 5249000    1.2436382   -3.2219418   -1.6744227   0.10373053   -3.2219418     1.547519   529265 
 5250000    1.2457902   -3.2240711   -1.6739357  0.096927824   -3.2240711    1.5501354   529286 
 5251000    1.2453195   -3.2239533   -1.6745323  0.099312529   -3.2239533    1.5494209   529330 
 5252000    1.2445833   -3.2234489    -1.675058   0.10390531   -3.2234489    1.5483909   529369 
 5253000    1.2452151    -3.224193   -1.6751273  0.099703373    -3.224193    1.5490657   529407 
 5254000    1.2475198   -3.2264886   -1.6746702   0.10133199   -3.2264886    1.5518185   529446 
 5255000    1.2450608   -3.2248137   -1.6761857   0.10257229   -3.2248137    1.5486281   529491 
 5256000    1.2451474   -3.2248329   -1.6761088   0.10281032   -3.2248329    1.5487241   529495 
 5257000    1.2464844   -3.2262883   -1.6759629  0.093226639   -3.2262883    1.5503255   529516 
 5258000    1.2470664   -3.2268512   -1.6758867  0.096450017   -3.2268512    1.5509645   529545 
 5259000    1.2451607   -3.2241669   -1.6755843   0.10433028   -3.2241669    1.5485826   529549 
 5260000    1.2462944    -3.224734   -1.6748468  0.096295325    -3.224734    1.5498872   529585 
 5261000    1.2453449   -3.2248241   -1.6762317  0.098868176   -3.2248241    1.5485924   529624 
 5262000    1.2457534   -3.2255395   -1.6764685  0.099067848   -3.2255395    1.5490711   529634 
 5263000    1.2465986   -3.2259683   -1.6758901  0.097797424   -3.2259683    1.5500781   529649 
 5264000    1.2471958   -3.2269264   -1.6762257  0.093419876   -3.2269264    1.5507008   529690 
 5265000    1.2462995   -3.2247085   -1.6752509  0.095786868   -3.2247085    1.5494576   529734 
 5266000    1.2461766   -3.2250616   -1.6757918   0.10141523   -3.2250616    1.5492698   529746 
 5267000    1.2465621   -3.2238961   -1.6742437  0.096208818   -3.2238961    1.5496524   529779 
 5268000    1.2472316   -3.2256105   -1.6752311   0.10011755   -3.2256105    1.5503794   529815 
 5269000    1.2467234   -3.2247496   -1.6750693  0.094471558   -3.2247496    1.5496803   529838 
 5270000    1.2486662   -3.2272038   -1.6751963  0.097304819   -3.2272038    1.5520075   529868 
 5271000    1.2476337    -3.226262   -1.6756374  0.094703987    -3.226262    1.5506246   529902 
 5272000    1.2474305   -3.2262651    -1.675972  0.096243456   -3.2262651    1.5502931   529929 
 5273000     1.247119   -3.2257664   -1.6759629  0.097372377   -3.2257664    1.5498035   529964 
 5274000    1.2477652    -3.226689   -1.6761058  0.094673312    -3.226689    1.5505833   529972 
 5275000    1.2480403   -3.2263582   -1.6755883  0.094278553   -3.2263582    1.5507699   530025 
 5276000    1.2476137   -3.2255632   -1.6753877  0.094944716   -3.2255632    1.5501756   530047 
 5277000    1.2470712   -3.2243783   -1.6749382   0.10547405   -3.2243783    1.5494402   530068 
 5278000    1.2495702    -3.226854   -1.6743763  0.099215547    -3.226854    1.5524777   530091 
 5279000    1.2482682    -3.225897    -1.675078  0.096096279    -3.225897    1.5508191   530105 
 5280000    1.2466789   -3.2246922   -1.6759353   0.10012808   -3.2246922    1.5487569   530135 
 5281000    1.2472895   -3.2248555   -1.6753605   0.10159578   -3.2248555     1.549495   530142 
 5282000     1.248638   -3.2263104   -1.6752192  0.097684339   -3.2263104    1.5510912   530169 
 5283000    1.2474656   -3.2242763   -1.6747701   0.10151346   -3.2242763    1.5495063   530213 
 5284000    1.2491497   -3.2273809   -1.6758998  0.091521032   -3.2273809    1.5514811   530253 
 5285000    1.2481492   -3.2252681   -1.6750882   0.10247206   -3.2252681      1.55018   530273 
 5286000     1.248664    -3.226386   -1.6756953   0.10117991    -3.226386    1.5506907   530317 
 5287000    1.2472224   -3.2258249   -1.6769742  0.097357532   -3.2258249    1.5488507   530334 
 5288000    1.2485843   -3.2270282   -1.6765184  0.099279508   -3.2270282    1.5505099   530345 
 5289000    1.2468667   -3.2247736   -1.6764405   0.10105132   -3.2247736    1.5483331   530360 
 5290000    1.2480152   -3.2247902   -1.6752062   0.09876669   -3.2247902     1.549584   530420 
 5291000     1.249262   -3.2270368   -1.6759896  0.096897558   -3.2270368    1.5510472   530449 
 5292000    1.2489108   -3.2272404   -1.6767082  0.096095663   -3.2272404    1.5505323   530476 
 5293000    1.2473522   -3.2270689   -1.6784687  0.099332612   -3.2270689    1.5486002   530475 
 5294000    1.2477385   -3.2280508    -1.679006    0.1035171   -3.2280508    1.5490448   530487 
 5295000    1.2478057   -3.2279135   -1.6788115      0.10504   -3.2279135     1.549102   530496 
 5296000    1.2470406    -3.226659   -1.6785478   0.10279013    -3.226659    1.5481112   530510 
 5297000    1.2484203   -3.2277455    -1.677977  0.098218113   -3.2277455    1.5497685   530529 
 5298000    1.2485318   -3.2280243   -1.6781407  0.096783925   -3.2280243    1.5498836   530537 
 5299000    1.2491737    -3.228046    -1.677392   0.10672758    -3.228046     1.550654   530546 
 5300000    1.2490583   -3.2281642   -1.6777323  0.098971259   -3.2281642     1.550432   530573 
 5301000    1.2488752    -3.229218   -1.6791243  0.098900408    -3.229218    1.5500936   530611 
 5302000    1.2502909   -3.2299972   -1.6782195  0.094494362   -3.2299972    1.5517777   530636 
 5303000    1.2492928   -3.2287295   -1.6783513  0.094106496   -3.2287295    1.5503782   530691 
 5304000    1.2485693   -3.2279706   -1.6785194  0.092315568   -3.2279706    1.5494512   530701 
 5305000    1.2485812   -3.2279756   -1.6786119  0.095443523   -3.2279756    1.5493637   530736 
 5306000     1.248352   -3.2282169   -1.6792689   0.09776383   -3.2282169     1.548948   530781 
 5307000    1.2508775   -3.2315575   -1.6795607  0.093101928   -3.2315575    1.5519968   530810 
 5308000    1.2501881   -3.2304326   -1.6793642    0.1017868   -3.2304326    1.5510684   530835 
 5309000    1.2503282   -3.2304691   -1.6792883   0.10039663   -3.2304691    1.5511808   530856 
 5310000    1.2493776   -3.2290209   -1.6791479  0.093215716   -3.2290209    1.5498731   530900 
 5311000    1.2514096   -3.2312176   -1.6789204  0.095434196   -3.2312176    1.5522973   530933 
 5312000    1.2495486   -3.2296659   -1.6797706   0.10273007   -3.2296659    1.5498953   530965 
 5313000    1.2495915   -3.2307709   -1.6808603  0.094761126   -3.2307709    1.5499106   530978 
 5314000    1.2505409   -3.2310322   -1.6800608  0.097691377   -3.2310322    1.5509715   531018 
 5315000     1.249821   -3.2303949   -1.6803893   0.10551856   -3.2303949    1.5500056   531043 
 5316000    1.2506541   -3.2312322   -1.6802752  0.095524913   -3.2312322     1.550957   531071 
 5317000    1.2494582   -3.2300179    -1.680617  0.097323226   -3.2300179     1.549401   531096 
 5318000    1.2490513   -3.2301503   -1.6813792  0.099401222   -3.2301503    1.5487711   531139 
 5319000    1.2493612   -3.2312352   -1.6821441    0.1038102   -3.2312352    1.5490911   531161 
 5320000    1.2506479   -3.2326036   -1.6820543  0.099871475   -3.2326036    1.5505493   531208 
 5321000    1.2511405   -3.2323315    -1.681192  0.098057099   -3.2323315    1.5511396   531215 
 5322000     1.251178   -3.2333257   -1.6822447  0.097367335   -3.2333257    1.5510809   531251 
 5323000    1.2519329   -3.2331064   -1.6811363  0.095700355   -3.2331064      1.55197   531267 
 5324000    1.2495993   -3.2312307   -1.6822031  0.099029366   -3.2312307    1.5490276   531284 
 5325000    1.2514047   -3.2332762   -1.6820835   0.10502606   -3.2332762    1.5511927   531309 
 5326000     1.251585   -3.2337884   -1.6824861   0.10275884   -3.2337884    1.5513023   531348 
 5327000    1.2527412   -3.2332333   -1.6805417  0.098074232   -3.2332333    1.5526915   531363 
 5328000    1.2528227   -3.2331985   -1.6804995   0.10073407   -3.2331985     1.552699   531395 
 5329000     1.250352   -3.2303318   -1.6807561   0.10188635   -3.2303318    1.5495757   531416 
 5330000    1.2516571   -3.2339152    -1.682798   0.10180031   -3.2339152    1.5511172   531442 
 5331000    1.2521324   -3.2346161   -1.6829391  0.096461136   -3.2346161     1.551677   531452 
 5332000    1.2511779   -3.2337426   -1.6833622  0.094448437   -3.2337426    1.5503804   531491 
 5333000    1.2491084   -3.2315728   -1.6838878   0.10207321   -3.2315728     1.547685   531536 
 5334000    1.2490297   -3.2309039   -1.6833892    0.0995168   -3.2309039    1.5475147   531561 
 5335000    1.2490957   -3.2319956    -1.684437  0.098367539   -3.2319956    1.5475586   531574 
 5336000    1.2502986   -3.2336263   -1.6845715   0.10019091   -3.2336263    1.5490548   531572 
 5337000    1.2494087    -3.231773   -1.6839227  0.095292995    -3.231773    1.5478503   531607 
 5338000    1.2494277   -3.2324496   -1.6846748  0.095951578   -3.2324496    1.5477749   531641 
 5339000    1.2489865   -3.2327493   -1.6855675  0.096502958   -3.2327493    1.5471817   531657 
 5340000     1.250411   -3.2328889   -1.6840678   0.10648619   -3.2328889    1.5488211   531700 
 5341000    1.2511315   -3.2334121   -1.6837714   0.10199258   -3.2334121    1.5496407   531725 
 5342000    1.2500458   -3.2326441   -1.6843597   0.09831374   -3.2326441    1.5482844   531729 
 5343000      1.24975   -3.2326698   -1.6848188    0.1032644   -3.2326698     1.547851   531752 
 5344000    1.2513407   -3.2343956   -1.6846153  0.096939098   -3.2343956    1.5497803   531766 
 5345000    1.2500189   -3.2322167   -1.6841898  0.097608589   -3.2322167    1.5480269   531806 
 5346000    1.2497133   -3.2315687   -1.6839669  0.096560913   -3.2315687    1.5476018   531822 
 5347000    1.2502554   -3.2324734   -1.6842324  0.098691775   -3.2324734     1.548241   531833 
 5348000    1.2491021   -3.2323678   -1.6856567   0.10006255   -3.2323678    1.5467111   531868 
 5349000    1.2500214    -3.232825    -1.685057   0.09722224    -3.232825     1.547768   531896 
 5350000    1.2507813   -3.2344701   -1.6858049   0.09274956   -3.2344701    1.5486652   531911 
 5351000    1.2513242   -3.2347908   -1.6855583  0.097025206   -3.2347908    1.5492325   531947 
 5352000    1.2522918   -3.2339797   -1.6836338  0.099736853   -3.2339797    1.5503459   531976 
 5353000    1.2529747   -3.2347026   -1.6836511  0.098260718   -3.2347026    1.5510515   532024 
 5354000    1.2528827   -3.2354676   -1.6846057  0.099160145   -3.2354676    1.5508618   532050 
 5355000    1.2509988    -3.234419   -1.6858425  0.099649326    -3.234419    1.5485764   532034 
 5356000      1.25153   -3.2350992   -1.6858944  0.097646488   -3.2350992    1.5492048   532044 
 5357000    1.2524751   -3.2343525   -1.6840535  0.094711586   -3.2343525     1.550299   532070 
 5358000    1.2537777   -3.2359108   -1.6840986   0.10088341   -3.2359108    1.5518122   532104 
 5359000    1.2523312   -3.2351097    -1.685187   0.10240074   -3.2351097    1.5499227   532138 
 5360000    1.2526249   -3.2348753    -1.684691   0.10148285   -3.2348753    1.5501843   532173 
 5361000    1.2526752   -3.2352711   -1.6851032  0.097620219   -3.2352711    1.5501678   532200 
 5362000    1.2517079   -3.2345853   -1.6856231  0.094661421   -3.2345853    1.5489621   532203 
 5363000    1.2530921   -3.2353912    -1.684824  0.096478313   -3.2353912    1.5505673   532240 
 5364000    1.2519294    -3.233639   -1.6846356  0.093224121    -3.233639    1.5490035   532283 
 5365000    1.2530449   -3.2352689   -1.6849669  0.099858432   -3.2352689    1.5503021   532311 
 5366000    1.2515239   -3.2343541   -1.6860328   0.10016537   -3.2343541    1.5483213   532345 
 5367000    1.2509549   -3.2333475   -1.6858144   0.09277912   -3.2333475    1.5475332   532374 
 5368000     1.251952   -3.2341145    -1.685441  0.098154358   -3.2341145    1.5486735   532406 
 5369000    1.2522893   -3.2339689   -1.6849509  0.095029563   -3.2339689     1.549018   532431 
 5370000    1.2514436   -3.2323501   -1.6844974   0.10132491   -3.2323501    1.5478527   532472 
 5371000    1.2546553    -3.235856   -1.6841329  0.098689234    -3.235856    1.5517232   532507 
 5372000    1.2524319   -3.2340229    -1.685131  0.095718537   -3.2340229    1.5488919   532535 
 5373000    1.2513277   -3.2325978   -1.6851528   0.10055457   -3.2325978     1.547445   532563 
 5374000    1.2518214   -3.2333742    -1.685403  0.091786734   -3.2333742    1.5479712   532592 
 5375000    1.2508428   -3.2316058   -1.6848389  0.094900734   -3.2316058    1.5467669   532590 
 5376000    1.2523895   -3.2330548   -1.6844567  0.094559702   -3.2330548     1.548598   532618 
 5377000    1.2504476   -3.2310124   -1.6848881    0.1009631   -3.2310124    1.5461242   532643 
 5378000     1.250712   -3.2298812   -1.6835055   0.10038405   -3.2298812    1.5463757   532669 
 5379000    1.2502164   -3.2292715   -1.6834999   0.10133817   -3.2292715    1.5457716   532666 
 5380000    1.2531385    -3.233365   -1.6840444   0.09723017    -3.233365    1.5493206   532688 
 5381000    1.2514558   -3.2318353   -1.6846474   0.10132673   -3.2318353    1.5471879   532706 
 5382000    1.2522376   -3.2318754   -1.6837645    0.1000482   -3.2318754    1.5481109   532721 
 5383000    1.2532622   -3.2334543   -1.6841611   0.09889343   -3.2334543    1.5492932   532750 
 5384000    1.2525614   -3.2318305   -1.6835025   0.10286788   -3.2318305     1.548328   532784 
 5385000     1.253625    -3.232327   -1.6827307   0.10253992    -3.232327    1.5495962   532800 
 5386000    1.2545096   -3.2335914   -1.6829569   0.10033296   -3.2335914    1.5506344   532819 
 5387000    1.2533577   -3.2323604   -1.6832602  0.096840192   -3.2323604    1.5491002   532857 
 5388000     1.255267   -3.2343433   -1.6829736  0.099532041   -3.2343433    1.5513697   532888 
 5389000    1.2538128   -3.2322277   -1.6827715  0.093629189   -3.2322277    1.5494562   532928 
 5390000    1.2539484   -3.2333873   -1.6838072   0.09283681   -3.2333873    1.5495801   532943 
 5391000    1.2530177   -3.2318119   -1.6834429  0.099773308   -3.2318119     1.548369   532964 
 5392000     1.253738   -3.2330716   -1.6838997  0.097243148   -3.2330716    1.5491719   532994 
 5393000    1.2521467    -3.233101   -1.6860028  0.097101358    -3.233101    1.5470982   533031 
 5394000    1.2514672   -3.2328381   -1.6866549   0.09053681   -3.2328381    1.5461832   533057 
 5395000    1.2532482   -3.2347094   -1.6864099  0.093807413   -3.2347094    1.5482994   533086 
 5396000    1.2522463   -3.2349549   -1.6879484  0.098661494   -3.2349549    1.5470065   533105 
 5397000    1.2521896   -3.2347039   -1.6878081   0.10477462   -3.2347039    1.5468958   533119 
 5398000    1.2538998   -3.2364896   -1.6876147  0.095301034   -3.2364896    1.5488749   533165 
 5399000    1.2541976   -3.2364653   -1.6873069  0.092602181   -3.2364653    1.5491585   533194 
 5400000    1.2556713   -3.2373033    -1.686374  0.096714362   -3.2373033    1.5509293   533211 
 5401000    1.2537496   -3.2361708   -1.6876325  0.091811648   -3.2361708    1.5485383   533217 
 5402000    1.2534079    -3.235617   -1.6875355    0.0973289    -3.235617    1.5480815   533229 
 5403000    1.2536058   -3.2359328   -1.6876883   0.10168444   -3.2359328    1.5482446   533257 
 5404000    1.2547453   -3.2389161   -1.6893253   0.10137211   -3.2389161    1.5495908   533278 
 5405000    1.2543452   -3.2386586   -1.6896431  0.094947459   -3.2386586    1.5490154   533306 
 5406000    1.2541679   -3.2378416   -1.6890655   0.10174457   -3.2378416    1.5487761   533313 
 5407000    1.2544933   -3.2389096   -1.6897985  0.093353726   -3.2389096    1.5491112   533336 
 5408000    1.2534915     -3.23804   -1.6901949  0.096547303     -3.23804     1.547845   533346 
 5409000    1.2542652   -3.2388009   -1.6900759  0.098037984   -3.2388009     1.548725   533372 
 5410000    1.2546798    -3.238774   -1.6895574  0.098375635    -3.238774    1.5492166   533379 
 5411000    1.2544382   -3.2388527   -1.6900158   0.10047049   -3.2388527    1.5488369   533407 
 5412000    1.2553383   -3.2394447   -1.6895894   0.10137014   -3.2394447    1.5498553   533439 
 5413000    1.2552328   -3.2389512   -1.6892727  0.098114975   -3.2389512    1.5496785   533455 
 5414000    1.2561487    -3.239815   -1.6890901   0.09825425    -3.239815     1.550725   533484 
 5415000    1.2565477   -3.2412605   -1.6901186  0.095404917   -3.2412605    1.5511419   533510 
 5416000    1.2550947   -3.2396593    -1.690372  0.095970773   -3.2396593    1.5492873   533531 
 5417000    1.2530621   -3.2372079   -1.6905051  0.097203204   -3.2372079    1.5467029   533557 
 5418000    1.2537495   -3.2371665   -1.6897311  0.097380854   -3.2371665    1.5474354   533597 
 5419000    1.2540021   -3.2381554   -1.6904344   0.10111875   -3.2381554     1.547721   533606 
 5420000    1.2546157   -3.2391694   -1.6908157   0.09683885   -3.2391694    1.5483536   533649 
 5421000    1.2561236   -3.2399034   -1.6897905  0.096273326   -3.2399034    1.5501129   533684 
 5422000    1.2535672   -3.2371442   -1.6903077   0.09619098   -3.2371442    1.5468365   533726 
 5423000    1.2557971   -3.2387243   -1.6892872  0.095543374   -3.2387243    1.5494371   533778 
 5424000    1.2549281   -3.2371268   -1.6888489   0.10023703   -3.2371268    1.5482778   533808 
 5425000    1.2553014   -3.2367499   -1.6880521  0.095477169   -3.2367499    1.5486978   533822 
 5426000    1.2539441   -3.2359141   -1.6889516   0.10510504   -3.2359141    1.5469624   533843 
 5427000    1.2544723   -3.2361196   -1.6885462  0.093924774   -3.2361196    1.5475734   533857 
 5428000    1.2568275   -3.2388958   -1.6885098  0.091329517   -3.2388958     1.550386   533889 
 5429000    1.2549854   -3.2374452   -1.6894389  0.096797325   -3.2374452    1.5480063   533926 
 5430000    1.2562745    -3.239392   -1.6898913  0.093142768    -3.239392    1.5495006   533959 
 5431000    1.2536978   -3.2355742    -1.689327  0.094036883   -3.2355742    1.5462472   533985 
 5432000    1.2556449   -3.2378706   -1.6893032  0.097308386   -3.2378706    1.5485674   534013 
 5433000    1.2543332   -3.2378504   -1.6909238  0.094937229   -3.2378504    1.5469266   534021 
 5434000    1.2522019   -3.2365398   -1.6922561  0.090010119   -3.2365398    1.5442837   534026 
 5435000    1.2557533   -3.2399242   -1.6913941  0.095655796   -3.2399242    1.5485301   534072 
 5436000    1.2557696   -3.2387947   -1.6903692  0.095201038   -3.2387947    1.5484255   534115 
 5437000    1.2542198   -3.2367273   -1.6902591  0.098746586   -3.2367273    1.5464682   534131 
 5438000    1.2566628   -3.2413944   -1.6920067  0.093488545   -3.2413944    1.5493877   534163 
 5439000    1.2555979    -3.238754   -1.6908445  0.096545721    -3.238754    1.5479095   534220 
 5440000    1.2559314   -3.2391877   -1.6909713   0.09562722   -3.2391877    1.5482163   534256 
 5441000    1.2544419   -3.2375964   -1.6912886  0.099450587   -3.2375964    1.5463078   534281 
 5442000    1.2553191   -3.2395135   -1.6921389   0.10342898   -3.2395135    1.5473746   534286 
 5443000     1.254548   -3.2385563   -1.6922884   0.10018911   -3.2385563    1.5462679   534340 
 5444000    1.2564843   -3.2410018   -1.6924344  0.095029043   -3.2410018    1.5485674   534370 
 5445000    1.2558366   -3.2402086    -1.692509  0.099187659   -3.2402086    1.5476996   534394 
 5446000    1.2557721   -3.2396242   -1.6920937   0.10194638   -3.2396242    1.5475304   534425 
 5447000    1.2559528   -3.2400422   -1.6924164  0.094032217   -3.2400422    1.5476257   534469 
 5448000     1.256974   -3.2411879   -1.6923212  0.091822728   -3.2411879    1.5488667   534475 
 5449000    1.2558521   -3.2403398   -1.6928469  0.095298119   -3.2403398     1.547493   534472 
 5450000    1.2566016   -3.2401305   -1.6917922  0.097027422   -3.2401305    1.5483383   534499 
 5451000    1.2558783   -3.2397543   -1.6923622  0.096206659   -3.2397543    1.5473921   534518 
 5452000    1.2585815    -3.242432   -1.6917876   0.10600706    -3.242432    1.5506444   534545 
 5453000    1.2558788   -3.2407901   -1.6935335  0.099490073   -3.2407901    1.5472566   534565 
 5454000    1.2555408   -3.2410486    -1.694275   0.08902508   -3.2410486    1.5467736   534588 
 5455000    1.2561172   -3.2412765   -1.6939259  0.098284737   -3.2412765    1.5473506   534634 
 5456000    1.2564499   -3.2416124   -1.6939128  0.093000526   -3.2416124    1.5476996   534655 
 5457000    1.2559045   -3.2408861   -1.6939567  0.098284266   -3.2408861    1.5469294   534689 
 5458000    1.2560624   -3.2398186   -1.6927786   0.10360596   -3.2398186    1.5470401   534718 
 5459000    1.2570869   -3.2408104   -1.6925809  0.092987337   -3.2408104    1.5482295   534743 
 5460000    1.2581973    -3.241859   -1.6923286  0.094806545    -3.241859    1.5495304   534766 
 5461000    1.2568327   -3.2401667   -1.6924587  0.097613326   -3.2401667     1.547708   534815 
 5462000    1.2595706    -3.242977   -1.6919932  0.093773507    -3.242977    1.5509838   534848 
 5463000    1.2581297   -3.2419685   -1.6928488  0.095171695   -3.2419685    1.5491197   534879 
 5464000    1.2576606   -3.2417318   -1.6932909  0.098563955   -3.2417318    1.5484409   534914 
 5465000    1.2572654   -3.2407189   -1.6928428   0.10325608   -3.2407189    1.5478761   534941 
 5466000    1.2579709    -3.242906   -1.6942221  0.094581911    -3.242906    1.5486839   534962 
 5467000    1.2571751   -3.2422704   -1.6946096  0.092088473   -3.2422704    1.5476608   534977 
 5468000    1.2562135   -3.2412373   -1.6948238  0.096441303   -3.2412373    1.5464135   534999 
 5469000    1.2556437   -3.2419087   -1.6962661  0.092433392   -3.2419087    1.5456426   535023 
 5470000    1.2554882   -3.2408792   -1.6955205   0.10534239   -3.2408792    1.5453588   535055 
 5471000    1.2560009   -3.2420554   -1.6961203   0.09306754   -3.2420554     1.545935   535074 
 5472000    1.2574219   -3.2441513   -1.6965106  0.095160094   -3.2441513    1.5476407   535089 
 5473000    1.2579075   -3.2444454   -1.6963373   0.09634212   -3.2444454    1.5481081   535134 
 5474000    1.2576437   -3.2437606   -1.6960898   0.09702697   -3.2437606    1.5476707   535173 
 5475000    1.2581046   -3.2434849   -1.6953569  0.096362739   -3.2434849     1.548128   535211 
 5476000    1.2579322   -3.2439615   -1.6961324  0.094854066   -3.2439615     1.547829   535241 
 5477000    1.2575907   -3.2442661   -1.6968977  0.090791417   -3.2442661    1.5473684   535255 
 5478000     1.257891   -3.2435507    -1.695943  0.098775338   -3.2435507    1.5476077   535300 
 5479000    1.2601431   -3.2460263   -1.6957578   0.09696427   -3.2460263    1.5502685   535338 
 5480000     1.259477   -3.2448214   -1.6955025  0.093849131   -3.2448214    1.5493188   535383 
 5481000    1.2591667   -3.2447435   -1.6958989  0.093021164   -3.2447435    1.5488446   535415 
 5482000    1.2588789   -3.2436474   -1.6952003   0.10189771   -3.2436474    1.5484472   535430 
 5483000    1.2579661   -3.2426111   -1.6952723  0.099217041   -3.2426111    1.5473388   535425 
 5484000    1.2587474    -3.242761   -1.6945565   0.10208994    -3.242761    1.5482045   535458 
 5485000    1.2599253   -3.2450297   -1.6954575  0.098250826   -3.2450297    1.5495721   535486 
 5486000       1.2588   -3.2448591   -1.6966911  0.095687978   -3.2448591     1.548168   535493 
 5487000    1.2588391   -3.2455206   -1.6973739   0.09482331   -3.2455206    1.5481467   535517 
 5488000    1.2575841   -3.2435857   -1.6970835   0.09939755   -3.2435857    1.5465022   535552 
 5489000     1.259682   -3.2448969   -1.6959248  0.098263612   -3.2448969    1.5489722   535590 
 5490000    1.2599765   -3.2450655    -1.695795   0.10316352   -3.2450655    1.5492705   535612 
 5491000    1.2594551   -3.2446778   -1.6960916    0.1004816   -3.2446778    1.5485861   535627 
 5492000    1.2589583   -3.2446742   -1.6967943   0.10281459   -3.2446742    1.5478799   535660 
 5493000    1.2579063   -3.2436732   -1.6971445  0.094574845   -3.2436732    1.5465287   535680 
 5494000    1.2579957   -3.2430953   -1.6965317   0.10186161   -3.2430953    1.5465636   535706 
 5495000    1.2575882   -3.2416662   -1.6956902  0.097762757   -3.2416662     1.545976   535736 
 5496000    1.2579322   -3.2434558   -1.6971233   0.10151472   -3.2434558    1.5463325   535759 
 5497000    1.2568861   -3.2425834   -1.6975656  0.092890131   -3.2425834    1.5450178   535769 
 5498000    1.2577424    -3.241645   -1.6955775  0.096001873    -3.241645    1.5460675   535770 
 5499000    1.2583967   -3.2426123   -1.6958156  0.097753683   -3.2426123    1.5467967   535796 
 5500000    1.2592331   -3.2432952   -1.6955224  0.091205959   -3.2432952    1.5477728   535814 
 5501000    1.2605762   -3.2447412   -1.6954333  0.097699634   -3.2447412     1.549308   535854 
 5502000    1.2598771    -3.243233   -1.6948853  0.096612428    -3.243233    1.5483476   535889 
 5503000    1.2581654   -3.2425105   -1.6963242  0.096978323   -3.2425105    1.5461863   535909 
 5504000    1.2597698   -3.2434268   -1.6953005  0.096164267   -3.2434268    1.5481263   535920 
 5505000    1.2616114   -3.2451927   -1.6948439  0.095436421   -3.2451927    1.5503488   535934 
 5506000    1.2605797    -3.244062   -1.6950561  0.098939626    -3.244062    1.5490059   535960 
 5507000    1.2626375     -3.24467   -1.6932368  0.096441915     -3.24467    1.5514332   535995 
 5508000    1.2607171   -3.2436663   -1.6947141  0.095290159   -3.2436663    1.5489521   536037 
 5509000    1.2616978   -3.2441385   -1.6940711  0.099939891   -3.2441385    1.5500674   536068 
 5510000    1.2596512   -3.2417397   -1.6942241   0.10029552   -3.2417397    1.5475156   536081 
 5511000     1.262158   -3.2443112   -1.6937681   0.10041273   -3.2443112    1.5505432   536099 
 5512000    1.2609406   -3.2440172    -1.695036   0.10500704   -3.2440172    1.5489812   536122 
 5513000    1.2616882   -3.2450468   -1.6952253  0.096536526   -3.2450468    1.5498215   536149 
 5514000    1.2620143   -3.2455999   -1.6954906   0.10034854   -3.2455999    1.5501093   536188 
 5515000    1.2627684    -3.245262   -1.6943017   0.10030369    -3.245262    1.5509603   536214 
 5516000    1.2598802   -3.2423607   -1.6950198   0.10253436   -3.2423607    1.5473409   536239 
 5517000    1.2617566   -3.2448585   -1.6952623   0.10509718   -3.2448585    1.5495962   536256 
 5518000    1.2629872   -3.2463972   -1.6953475  0.095421345   -3.2463972    1.5510497   536276 
 5519000    1.2621007   -3.2464036   -1.6964772  0.095796679   -3.2464036    1.5499263   536288 
 5520000    1.2623268   -3.2459443   -1.6958126  0.098320569   -3.2459443    1.5501317   536313 
 5521000     1.259846   -3.2444733   -1.6973938  0.098846857   -3.2444733    1.5470795   536315 
 5522000    1.2612972   -3.2442908   -1.6955071   0.10173195   -3.2442908    1.5487837   536342 
 5523000    1.2622221   -3.2461829   -1.6962953  0.095616336   -3.2461829    1.5498876   536353 
 5524000    1.2619464   -3.2466254   -1.6971283   0.10355655   -3.2466254    1.5494971   536371 
 5525000    1.2611704   -3.2460835   -1.6975999   0.10714972   -3.2460835    1.5484836   536392 
 5526000    1.2597241   -3.2456688   -1.6990647  0.097120048   -3.2456688    1.5466041   536428 
 5527000    1.2622674   -3.2480441   -1.6983609  0.099915801   -3.2480441    1.5496832   536443 
 5528000    1.2593338    -3.244963   -1.6989536  0.096922467    -3.244963    1.5460095   536468 
 5529000    1.2592809   -3.2452734   -1.6993547   0.10047532   -3.2452734    1.5459187   536477 
 5530000    1.2607188   -3.2472812    -1.699655  0.096291697   -3.2472812    1.5476262   536497 
 5531000    1.2598048   -3.2459633   -1.6995255  0.099211356   -3.2459633    1.5464379   536520 
 5532000    1.2589507   -3.2449982   -1.6996923  0.095893635   -3.2449982     1.545306   536549 
 5533000    1.2602184   -3.2460225   -1.6992211  0.093253924   -3.2460225    1.5468015   536570 
 5534000    1.2594717   -3.2452844    -1.699509  0.095202989   -3.2452844    1.5457754   536608 
 5535000    1.2598423   -3.2457124   -1.6995657  0.094785424   -3.2457124    1.5461467   536637 
 5536000    1.2587378   -3.2458914   -1.7011779   0.08858022   -3.2458914    1.5447135   536664 
 5537000    1.2589629   -3.2464012    -1.701472  0.091390181   -3.2464012    1.5449293   536685 
 5538000    1.2581736   -3.2458786   -1.7019323  0.095781649   -3.2458786    1.5439463   536690 
 5539000    1.2592787   -3.2463911   -1.7011549  0.096638165   -3.2463911    1.5452362   536713 
 5540000    1.2588068   -3.2452754   -1.7007593  0.099458085   -3.2452754    1.5445161   536762 
 5541000    1.2588971   -3.2447469   -1.7002005  0.094059409   -3.2447469    1.5445463   536790 
 5542000    1.2593635   -3.2459867   -1.7008709  0.092901971   -3.2459867    1.5451157   536791 
 5543000    1.2601101   -3.2456063   -1.6996206  0.094483381   -3.2456063    1.5459857   536807 
 5544000    1.2603135   -3.2449123   -1.6987866  0.098720906   -3.2449123    1.5461257   536845 
 5545000    1.2625006   -3.2478403   -1.6990459  0.096381324   -3.2478403    1.5487944   536850 
 5546000    1.2624988   -3.2467807   -1.6980721  0.094203793   -3.2467807    1.5487086   536879 
 5547000    1.2640084   -3.2473012   -1.6968506  0.097655391   -3.2473012    1.5504506   536917 
 5548000    1.2628064   -3.2467334   -1.6978379  0.098977869   -3.2467334    1.5488955   536945 
 5549000    1.2628901   -3.2469698   -1.6980005   0.10308604   -3.2469698    1.5489693   536955 
 5550000    1.2623713   -3.2475715    -1.699325  0.097103465   -3.2475715    1.5482465   536985 
 5551000    1.2638015   -3.2487765   -1.6988828  0.098587639   -3.2487765    1.5498937   537022 
 5552000    1.2634672   -3.2481028   -1.6987633    0.0954477   -3.2481028    1.5493395   537072 
 5553000    1.2622712   -3.2456385   -1.6978376  0.099883928   -3.2456385    1.5478009   537097 
 5554000    1.2621355   -3.2466909    -1.699189   0.10073149   -3.2466909    1.5475019   537143 
 5555000    1.2629776   -3.2486491   -1.7001464   0.10149159   -3.2486491    1.5485027   537154 
 5556000    1.2626504   -3.2489069   -1.7008141  0.097159588   -3.2489069    1.5480928   537157 
 5557000    1.2620216   -3.2480996   -1.7008353  0.091917278   -3.2480996    1.5472643   537177 
 5558000    1.2593115   -3.2443253   -1.7004929  0.096576913   -3.2443253    1.5438324   537215 
 5559000    1.2619687    -3.248152   -1.7011426  0.092366556    -3.248152    1.5470094   537243 
 5560000    1.2619053   -3.2485354   -1.7016469   0.09587917   -3.2485354    1.5468885   537258 
 5561000    1.2612371    -3.247442   -1.7014791  0.093727458    -3.247442    1.5459629   537295 
 5562000    1.2605554   -3.2465818   -1.7015321  0.094379403   -3.2465818    1.5450497   537322 
 5563000    1.2612396   -3.2466424   -1.7008031  0.096621864   -3.2466424    1.5458393   537339 
 5564000    1.2619958   -3.2477078   -1.7010366  0.092533639   -3.2477078    1.5466712   537372 
 5565000    1.2631107    -3.248789   -1.7007917  0.096914696    -3.248789    1.5479973   537386 
 5566000     1.262317   -3.2471388   -1.7001718  0.093221686   -3.2471388     1.546967   537406 
 5567000    1.2639604   -3.2479345   -1.6989852   0.09539366   -3.2479345    1.5489493   537417 
 5568000    1.2634268   -3.2479927   -1.6998126   0.10448064   -3.2479927    1.5481801   537457 
 5569000    1.2630031   -3.2490322   -1.7014144  0.099747828   -3.2490322    1.5476178   537472 
 5570000    1.2622608   -3.2482229   -1.7016212  0.096995398   -3.2482229    1.5466017   537509 
 5571000    1.2628256   -3.2491029    -1.701907   0.10039961   -3.2491029    1.5471958   537543 
 5572000    1.2646022   -3.2504287   -1.7010908  0.096939193   -3.2504287     1.549338   537555 
 5573000    1.2623297   -3.2478664   -1.7013701  0.095623861   -3.2478664    1.5464962   537575 
 5574000    1.2640773    -3.249411    -1.700863  0.094640292    -3.249411     1.548548   537606 
 5575000    1.2617963   -3.2466982   -1.7009589    0.1036261   -3.2466982    1.5457393   537611 
 5576000    1.2617639   -3.2468345   -1.7012126   0.10292696   -3.2468345    1.5456219   537638 
 5577000    1.2653508   -3.2500788   -1.7001351  0.092630692   -3.2500788    1.5499437   537663 
 5578000    1.2632917   -3.2483146   -1.7009448  0.093379555   -3.2483146    1.5473697   537681 
 5579000    1.2645967   -3.2490478   -1.7001891   0.10153436   -3.2490478    1.5488587   537719 
 5580000    1.2629721   -3.2471319   -1.7003636   0.10407388   -3.2471319    1.5467682   537754 
 5581000    1.2650158   -3.2497745   -1.7005522  0.095644624   -3.2497745    1.5492222   537771 
 5582000    1.2639924    -3.249435   -1.7014719  0.095963013    -3.249435    1.5479631   537773 
 5583000    1.2625149   -3.2482407   -1.7021302  0.094975558   -3.2482407    1.5461105   537788 
 5584000    1.2640375   -3.2488226   -1.7008963  0.096666287   -3.2488226    1.5479262   537805 
 5585000    1.2637304    -3.248075   -1.7006082  0.097513574    -3.248075    1.5474667   537834 
 5586000    1.2615342   -3.2454334   -1.7007393   0.10416218   -3.2454334    1.5446941   537863 
 5587000    1.2631996   -3.2487123   -1.7020048  0.094107462   -3.2487123    1.5467075   537872 
 5588000    1.2629684   -3.2489506   -1.7025463  0.095699617   -3.2489506    1.5464042   537879 
 5589000    1.2643284   -3.2503092   -1.7022685  0.093247186   -3.2503092    1.5480406   537889 
 5590000    1.2630855   -3.2484004   -1.7019564  0.097041959   -3.2484004     1.546444   537915 
 5591000    1.2640501   -3.2489049   -1.7013288  0.092798802   -3.2489049    1.5475762   537932 
 5592000    1.2640957   -3.2500274   -1.7024357  0.096634423   -3.2500274    1.5475917   537946 
 5593000     1.263871   -3.2503428   -1.7030952  0.095433193   -3.2503428    1.5472476   537970 
 5594000     1.264453   -3.2507746   -1.7028404  0.094282496   -3.2507746    1.5479342   537979 
 5595000    1.2643708   -3.2496023    -1.701855  0.096546025   -3.2496023    1.5477473   538009 
 5596000    1.2636627   -3.2491987   -1.7023872   0.09138408   -3.2491987    1.5468115   538033 
 5597000    1.2659117   -3.2516709   -1.7022072   0.09824658   -3.2516709    1.5494636   538068 
 5598000    1.2639022   -3.2486057   -1.7016506   0.10203371   -3.2486057    1.5469551   538085 
 5599000    1.2666716   -3.2515874   -1.7012656   0.10462734   -3.2515874    1.5503217   538093 
 5600000    1.2651171   -3.2504665   -1.7020618  0.094848235   -3.2504665    1.5484047   538098 
 5601000    1.2654411   -3.2493986   -1.7006722    0.1033374   -3.2493986    1.5487264   538124 
 5602000    1.2675659    -3.251652   -1.7003828  0.097842239    -3.251652    1.5512692   538144 
 5603000    1.2679579   -3.2530261   -1.7012858  0.098145273   -3.2530261    1.5517404   538147 
 5604000    1.2659757   -3.2504741   -1.7012028  0.093760871   -3.2504741    1.5492713   538162 
 5605000    1.2666913   -3.2514489    -1.701322  0.099143741   -3.2514489    1.5501269   538169 
 5606000     1.266089   -3.2517269   -1.7024321  0.096111899   -3.2517269    1.5492948   538202 
 5607000    1.2666469   -3.2522019   -1.7023253   0.09865361   -3.2522019    1.5498767   538237 
 5608000    1.2661472   -3.2516583   -1.7023959  0.098839772   -3.2516583    1.5492624   538238 
 5609000    1.2661603   -3.2515177   -1.7023227  0.096684872   -3.2515177     1.549195   538267 
 5610000    1.2644832   -3.2511047   -1.7040222  0.097853478   -3.2511047    1.5470825   538288 
 5611000    1.2654928     -3.25255   -1.7042984   0.09690386     -3.25255    1.5482516   538311 
 5612000    1.2644991   -3.2516792   -1.7047468  0.093770687   -3.2516792    1.5469325   538347 
 5613000    1.2637259   -3.2511194   -1.7051788  0.096540241   -3.2511194    1.5459406   538363 
 5614000    1.2626007   -3.2498824   -1.7054072  0.097521856   -3.2498824    1.5444753   538394 
 5615000    1.2640932   -3.2518824   -1.7056446  0.094235506   -3.2518824    1.5462377   538416 
 5616000    1.2637815   -3.2508978   -1.7050872  0.096029754   -3.2508978    1.5458106   538432 
 5617000    1.2628671   -3.2502134   -1.7055672  0.096201963   -3.2502134    1.5446461   538448 
 5618000    1.2646126   -3.2516476    -1.704878  0.095983951   -3.2516476    1.5467696   538452 
 5619000    1.2665763   -3.2535364   -1.7044139  0.096028213   -3.2535364    1.5491225   538469 
 5620000    1.2626445   -3.2502979   -1.7060473  0.097807428   -3.2502979    1.5442506   538491 
 5621000    1.2637655   -3.2519883   -1.7064242    0.0927257   -3.2519883    1.5455641   538511 
 5622000    1.2653331   -3.2525588   -1.7051463  0.099463584   -3.2525588    1.5474124   538535 
 5623000    1.2655008    -3.252905   -1.7053968  0.096973731    -3.252905    1.5475082   538573 
 5624000      1.26418   -3.2511377    -1.705302  0.095260859   -3.2511377    1.5458357   538593 
 5625000    1.2652016   -3.2516602   -1.7046068  0.094556157   -3.2516602    1.5470534   538604 
 5626000    1.2646914   -3.2506468   -1.7042661  0.097701758   -3.2506468    1.5463807   538621 
 5627000    1.2657198   -3.2526361   -1.7051072  0.099744396   -3.2526361    1.5475289   538659 
 5628000    1.2640361   -3.2517044   -1.7063058  0.098363681   -3.2517044    1.5453986   538684 
 5629000     1.265665    -3.254797   -1.7074701  0.090736616    -3.254797    1.5473269   538706 
 5630000    1.2647345   -3.2525007   -1.7064462  0.097137829   -3.2525007    1.5460544   538753 
 5631000    1.2637469   -3.2508793   -1.7060665   0.10527505   -3.2508793    1.5448128   538765 
 5632000    1.2653844   -3.2526615   -1.7058958  0.096026397   -3.2526615    1.5467657   538782 
 5633000     1.266682   -3.2542599   -1.7059712  0.099918919   -3.2542599    1.5482887   538804 
 5634000    1.2659949   -3.2545798   -1.7071913  0.094267586   -3.2545798    1.5473885   538825 
 5635000    1.2654628   -3.2527376    -1.706057  0.096211343   -3.2527376    1.5466807   538845 
 5636000     1.265457   -3.2523157   -1.7057053  0.099324016   -3.2523157    1.5466105   538867 
 5637000    1.2657072   -3.2540651   -1.7072207  0.093988973   -3.2540651    1.5468444   538892 
 5638000    1.2652378   -3.2540098   -1.7077793  0.093308071   -3.2540098    1.5462306   538906 
 5639000    1.2645542   -3.2531799   -1.7078649    0.1002858   -3.2531799     1.545315   538934 
 5640000    1.2647509   -3.2539657   -1.7084391   0.09546478   -3.2539657    1.5455266   538944 
 5641000     1.263848   -3.2527485   -1.7084313  0.091620388   -3.2527485    1.5443173   538981 
 5642000    1.2654744   -3.2553326   -1.7090596  0.091061204   -3.2553326     1.546273   538992 
 5643000    1.2657111   -3.2545953   -1.7081048  0.095988434   -3.2545953    1.5464905   539017 
 5644000    1.2669105   -3.2565888   -1.7086873  0.093358868   -3.2565888    1.5479015   539036 
 5645000    1.2656917   -3.2563418   -1.7099697  0.097759518   -3.2563418    1.5463721   539050 
 5646000    1.2639094   -3.2532459   -1.7091373  0.096278444   -3.2532459    1.5441087   539080 
 5647000    1.2649037   -3.2552489   -1.7099141   0.10014196   -3.2552489    1.5453348   539076 
 5648000    1.2646726    -3.254671   -1.7096816  0.093774706    -3.254671    1.5449895   539098 
 5649000    1.2659398   -3.2557591   -1.7092962  0.096734769   -3.2557591    1.5464629   539124 
 5650000    1.2669851   -3.2560463   -1.7083236   0.09774094   -3.2560463    1.5477227   539130 
 5651000    1.2665586   -3.2560193   -1.7089124  0.099923142   -3.2560193     1.547107   539163 
 5652000    1.2664885    -3.255313   -1.7084008  0.093930097    -3.255313    1.5469122   539201 
 5653000     1.266503   -3.2553985   -1.7085489  0.098219864   -3.2553985    1.5468497   539229 
 5654000    1.2673923   -3.2570725    -1.709174  0.096759859   -3.2570725    1.5478985   539242 
 5655000    1.2678265   -3.2576584   -1.7092784  0.099925945   -3.2576584      1.54838   539259 
 5656000    1.2663868   -3.2558133   -1.7092461  0.098645402   -3.2558133    1.5465673   539278 
 5657000    1.2683512    -3.257949   -1.7090776  0.094928072    -3.257949    1.5488715   539311 
 5658000    1.2661337   -3.2546005   -1.7084771  0.097101473   -3.2546005    1.5461234   539325 
 5659000    1.2677725   -3.2581747   -1.7100645  0.096550965   -3.2581747    1.5481102   539330 
 5660000    1.2678121   -3.2579365   -1.7098382  0.095283476   -3.2579365    1.5480983   539351 
 5661000    1.2670424   -3.2575771   -1.7105821   0.10006471   -3.2575771     1.546995   539408 
 5662000    1.2657326   -3.2559111    -1.710587  0.099768894   -3.2559111    1.5453242   539433 
 5663000    1.2671991   -3.2589495   -1.7119324  0.090166973   -3.2589495    1.5470171   539467 
 5664000    1.2660693   -3.2578465   -1.7122574  0.098229525   -3.2578465    1.5455891   539484 
 5665000    1.2655642   -3.2562692   -1.7113539  0.094288378   -3.2562692    1.5449152   539504 
 5666000    1.2662175   -3.2566725   -1.7109598  0.097431035   -3.2566725    1.5457127   539504 
 5667000    1.2658334   -3.2568802   -1.7117251  0.094845081   -3.2568802    1.5451551   539535 
 5668000     1.264869   -3.2558365   -1.7119331   0.10184764   -3.2558365    1.5439034   539561 
 5669000     1.266158   -3.2572736   -1.7118799  0.095286163   -3.2572736    1.5453938   539590 
 5670000     1.267948   -3.2585115   -1.7109932  0.094787733   -3.2585115    1.5475183   539611 
 5671000    1.2654038   -3.2551049    -1.710769  0.095815582   -3.2551049    1.5443359   539638 
 5672000     1.265987   -3.2569716   -1.7119641  0.091527351   -3.2569716    1.5450075   539652 
 5673000    1.2676673   -3.2588372   -1.7118679  0.092165804   -3.2588372    1.5469693   539683 
 5674000    1.2670916   -3.2573333   -1.7111181  0.091873122   -3.2573333    1.5462152   539701 
 5675000    1.2675319   -3.2576905   -1.7110327  0.091575592   -3.2576905    1.5466579   539734 
 5676000    1.2669732   -3.2567307   -1.7108175  0.098020921   -3.2567307    1.5459131   539756 
 5677000    1.2658767   -3.2558335    -1.711347   0.10295902   -3.2558335    1.5444866   539787 
 5678000    1.2673953   -3.2575247   -1.7112397  0.096107039   -3.2575247    1.5462849   539806 
 5679000    1.2682441   -3.2570728   -1.7098383   0.10157584   -3.2570728    1.5472345   539836 
 5680000    1.2673124   -3.2561629   -1.7101281  0.098351688   -3.2561629    1.5460348   539858 
 5681000    1.2656182   -3.2558116   -1.7118779  0.099304814   -3.2558116    1.5439337   539870 
 5682000    1.2672978    -3.256356   -1.7104335   0.09543889    -3.256356    1.5459225   539891 
 5683000    1.2691401   -3.2580689   -1.7099564  0.090662848   -3.2580689    1.5481125   539911 
 5684000    1.2675158   -3.2565876   -1.7104878  0.098428026   -3.2565876    1.5460997   539922 
 5685000    1.2676442   -3.2571864   -1.7109645  0.097789017   -3.2571864    1.5462219   539934 
 5686000    1.2677509   -3.2567957   -1.7104951  0.098806757   -3.2567957    1.5463005   539952 
 5687000    1.2689206   -3.2577931   -1.7101662  0.093593488   -3.2577931    1.5476269   539987 
 5688000    1.2688782   -3.2580182   -1.7105747  0.095261861   -3.2580182    1.5474434   540033 
 5689000    1.2667227   -3.2560491    -1.711303  0.099426658   -3.2560491     1.544746   540057 
 5690000     1.268812   -3.2587923   -1.7115988  0.096651655   -3.2587923    1.5471936   540092 
 5691000     1.266937   -3.2570848   -1.7122491  0.093164988   -3.2570848    1.5448357   540117 
 5692000    1.2669321   -3.2565216   -1.7117347  0.095192933   -3.2565216    1.5447869   540132 
 5693000    1.2675807   -3.2568535   -1.7112844  0.098505102   -3.2568535    1.5455691   540135 
 5694000    1.2688068   -3.2580502   -1.7111006  0.094445872   -3.2580502    1.5469496   540175 
 5695000    1.2674749    -3.257784   -1.7124812  0.095529757    -3.257784    1.5453028   540183 
 5696000    1.2667008   -3.2557937   -1.7115462  0.098853148   -3.2557937    1.5442475   540222 
 5697000    1.2689505   -3.2575416   -1.7106058  0.094287585   -3.2575416    1.5469358   540241 
 5698000    1.2688254   -3.2576832   -1.7108972  0.095386421   -3.2576832     1.546786   540240 
 5699000    1.2693205    -3.257691   -1.7103672  0.093387146    -3.257691    1.5473238   540263 
 5700000    1.2698247   -3.2587335    -1.710838  0.094414745   -3.2587335    1.5478955   540278 
 5701000    1.2692166   -3.2580285   -1.7109487  0.096340477   -3.2580285    1.5470797   540304 
 5702000    1.2702936   -3.2584188   -1.7101381   0.10027012   -3.2584188    1.5482807   540343 
 5703000    1.2704882   -3.2585066   -1.7100603  0.089274928   -3.2585066    1.5484463   540368 
 5704000    1.2693598   -3.2575525   -1.7105301  0.091752426   -3.2575525    1.5470223   540385 
 5705000    1.2681025   -3.2568904   -1.7114233  0.095798713   -3.2568904    1.5454671   540393 
 5706000    1.2697213   -3.2583468   -1.7108725  0.099007907   -3.2583468    1.5474744   540381 
 5707000    1.2682378   -3.2560538   -1.7104161  0.099414759   -3.2560538    1.5456377   540391 
 5708000     1.270085   -3.2584255   -1.7106397  0.091961331   -3.2584255    1.5477859   540427 
 5709000    1.2700875    -3.258895   -1.7111892  0.099218251    -3.258895    1.5477059   540456 
 5710000     1.270293   -3.2594402   -1.7116014  0.093972736   -3.2594402    1.5478388   540497 
 5711000    1.2700323    -3.260042   -1.7126468  0.098657271    -3.260042    1.5473952   540541 
 5712000    1.2691833   -3.2578752    -1.711643  0.099668295   -3.2578752    1.5462321   540586 
 5713000    1.2701615    -3.258003   -1.7106594   0.10088785    -3.258003    1.5473436   540614 
 5714000     1.269746   -3.2586074   -1.7118243   0.09620208   -3.2586074    1.5467832   540633 
 5715000    1.2697875   -3.2592726   -1.7124732   0.10176346   -3.2592726    1.5467994   540645 
 5716000    1.2693631   -3.2583417   -1.7121336  0.090773339   -3.2583417    1.5462081   540671 
 5717000    1.2694451   -3.2592493   -1.7130443  0.089888861   -3.2592493     1.546205   540707 
 5718000    1.2697749    -3.259706   -1.7131079  0.096166585    -3.259706    1.5465981   540710 
 5719000    1.2687438   -3.2590903    -1.713811  0.096894386   -3.2590903    1.5452793   540732 
 5720000      1.26926   -3.2593379   -1.7134928  0.094825956   -3.2593379    1.5458451   540754 
 5721000    1.2696034   -3.2597775   -1.7134884  0.095787983   -3.2597775    1.5462891   540745 
 5722000    1.2689737   -3.2608141   -1.7153577   0.09346635   -3.2608141    1.5454564   540768 
 5723000    1.2697845   -3.2604085   -1.7140161  0.098060024   -3.2604085    1.5463924   540786 
 5724000    1.2701719   -3.2612682   -1.7144584  0.094091395   -3.2612682    1.5468098   540805 
 5725000    1.2698161   -3.2599508   -1.7136228  0.098954959   -3.2599508     1.546328   540822 
 5726000    1.2679101   -3.2585431   -1.7145333   0.10121786   -3.2585431    1.5440098   540821 
 5727000    1.2687599   -3.2605174   -1.7155041  0.096358716   -3.2605174    1.5450132   540832 
 5728000    1.2689145   -3.2607228   -1.7155527  0.098621594   -3.2607228    1.5451701   540843 
 5729000    1.2676257   -3.2604624   -1.7168674  0.091646883   -3.2604624     1.543595   540845 
 5730000    1.2684374   -3.2610681   -1.7165075  0.094337803   -3.2610681    1.5445606   540853 
 5731000    1.2694612   -3.2620977    -1.716362  0.097891349   -3.2620977    1.5457357   540878 
 5732000    1.2696679   -3.2617897    -1.715888  0.096403329   -3.2617897    1.5459017   540908 
 5733000    1.2691329   -3.2613674   -1.7162457  0.097605312   -3.2613674    1.5451217   540953 
 5734000    1.2689435   -3.2614763   -1.7167365   0.09528044   -3.2614763    1.5447398   541006 
 5735000    1.2688975   -3.2612952   -1.7166771  0.095467445   -3.2612952    1.5446181   541029 
 5736000    1.2708787    -3.263128   -1.7161696  0.096790702    -3.263128    1.5469584   541054 
 5737000    1.2708725   -3.2626476   -1.7157168  0.097095567   -3.2626476    1.5469308   541061 
 5738000    1.2715315   -3.2636353   -1.7159453  0.099821008   -3.2636353      1.54769   541076 
 5739000    1.2704145   -3.2628133   -1.7165686   0.10052609   -3.2628133    1.5462447   541106 
 5740000    1.2707295   -3.2628952   -1.7163586  0.098799279   -3.2628952    1.5465366   541138 
 5741000    1.2718028   -3.2633524    -1.715621   0.09605301   -3.2633524    1.5477313   541177 
 5742000    1.2698461   -3.2621864   -1.7169306  0.096598812   -3.2621864    1.5452559   541210 
 5743000    1.2686803   -3.2613259   -1.7176199  0.099461061   -3.2613259     1.543706   541256 
 5744000    1.2696451    -3.261533   -1.7167586  0.091658825    -3.261533    1.5447744   541293 
 5745000    1.2709898   -3.2639303   -1.7175798  0.092729768   -3.2639303    1.5463505   541314 
 5746000    1.2699811    -3.261769   -1.7167171  0.087990492    -3.261769    1.5450519   541339 
 5747000     1.270783   -3.2618587    -1.715914  0.095404657   -3.2618587    1.5459447   541368 
 5748000    1.2687815   -3.2604156   -1.7169771   0.10130045   -3.2604156    1.5434385   541393 
 5749000    1.2691399   -3.2618444   -1.7179899  0.093327488   -3.2618444    1.5438545   541400 
 5750000    1.2679115   -3.2614951    -1.719152  0.095447957   -3.2614951    1.5423431   541406 
 5751000    1.2694305   -3.2633917   -1.7192579   0.09506692   -3.2633917    1.5441339   541426 
 5752000    1.2690898   -3.2624467   -1.7187672  0.097458928   -3.2624467    1.5436795   541440 
 5753000    1.2694472   -3.2624262   -1.7183661  0.095035994   -3.2624262    1.5440601   541459 
 5754000    1.2685995   -3.2624724   -1.7194776  0.097613315   -3.2624724    1.5429948   541471 
 5755000    1.2711673   -3.2637054    -1.717653  0.096597701   -3.2637054    1.5460524   541494 
 5756000    1.2711214   -3.2635976   -1.7176553  0.091289178   -3.2635976    1.5459423   541513 
 5757000    1.2714869   -3.2641116   -1.7177391  0.092593841   -3.2641116    1.5463726   541518 
 5758000     1.270454   -3.2630041   -1.7179135  0.099285326   -3.2630041    1.5450907   541527 
 5759000    1.2703842   -3.2629863    -1.718012  0.096394057   -3.2629863    1.5449743   541538 
 5760000    1.2694823   -3.2621758    -1.718324  0.094304242   -3.2621758    1.5438518   541547 
 5761000    1.2691211   -3.2616745   -1.7183445  0.094529527   -3.2616745      1.54333   541576 
 5762000      1.27225   -3.2640971   -1.7170564   0.10397182   -3.2640971    1.5470407   541609 
 5763000    1.2719721   -3.2627916   -1.7161689  0.095142288   -3.2627916    1.5466227   541637 
 5764000    1.2725379   -3.2624829   -1.7152265   0.10180483   -3.2624829    1.5472564   541656 
 5765000    1.2724857   -3.2621951   -1.7150364    0.1078496   -3.2621951    1.5471588   541668 
 5766000    1.2733353    -3.263788   -1.7156592  0.098212223    -3.263788    1.5481288   541690 
 5767000    1.2740982   -3.2645049   -1.7155315   0.09743542   -3.2645049    1.5489734   541719 
 5768000     1.271568   -3.2621742   -1.7163283   0.10019575   -3.2621742     1.545846   541737 
 5769000    1.2719683   -3.2626435   -1.7163194  0.098777741   -3.2626435    1.5463241   541740 
 5770000    1.2726815   -3.2631411   -1.7159871  0.099613191   -3.2631411     1.547154   541753 
 5771000    1.2735203   -3.2640591   -1.7159654  0.094104584   -3.2640591    1.5480937   541781 
 5772000    1.2734514   -3.2636542   -1.7156758  0.093629964   -3.2636542    1.5479784   541792 
 5773000    1.2715204   -3.2615748   -1.7159608   0.09240834   -3.2615748     1.545614   541798 
 5774000    1.2722488   -3.2619939    -1.715583  0.095840544   -3.2619939     1.546411   541829 
 5775000    1.2729487   -3.2629256   -1.7157895  0.094128663   -3.2629256    1.5471361   541873 
 5776000    1.2710091   -3.2601037   -1.7153819  0.098618436   -3.2601037    1.5447217   541893 
 5777000    1.2733351   -3.2629767   -1.7155253  0.093663064   -3.2629767    1.5474515   541927 
 5778000    1.2724899   -3.2619246   -1.7155516  0.097789133   -3.2619246    1.5463731   541945 
 5779000    1.2719186   -3.2607545   -1.7151698   0.09602853   -3.2607545    1.5455847   541978 
 5780000    1.2718826   -3.2613685   -1.7158589  0.098540528   -3.2613685    1.5455096   541989 
 5781000    1.2724065   -3.2619741   -1.7158593  0.092484105   -3.2619741    1.5461148   542000 
 5782000    1.2712329   -3.2601096   -1.7155321  0.099584247   -3.2601096    1.5445776   542039 
 5783000    1.2726522   -3.2610987   -1.7148194  0.094832121   -3.2610987    1.5462793   542047 
 5784000     1.272535   -3.2611677   -1.7151392  0.089220518   -3.2611677    1.5460285   542085 
 5785000    1.2734669   -3.2619369   -1.7147877  0.098439245   -3.2619369    1.5471492   542089 
 5786000    1.2717911   -3.2593944   -1.7143069  0.096443974   -3.2593944    1.5450876   542098 
 5787000    1.2709907    -3.259955   -1.7158454   0.10236421    -3.259955    1.5441096   542100 
 5788000    1.2723622    -3.262034   -1.7163096  0.097932164    -3.262034    1.5457244   542118 
 5789000    1.2740538   -3.2639006   -1.7161783  0.093887969   -3.2639006    1.5477223   542138 
 5790000    1.2723742    -3.262902   -1.7172742  0.096908795    -3.262902    1.5456278   542157 
 5791000    1.2740232   -3.2634003   -1.7158208  0.097181398   -3.2634003    1.5475795   542175 
 5792000    1.2724711   -3.2635532   -1.7179303    0.0937858   -3.2635532    1.5456229   542200 
 5793000    1.2724715    -3.263028   -1.7174758  0.097050616    -3.263028    1.5455521   542225 
 5794000    1.2731763   -3.2638567   -1.7174457   0.09774906   -3.2638567     1.546411   542224 
 5795000    1.2722902   -3.2638844   -1.7186408  0.097669265   -3.2638844    1.5452436   542256 
 5796000    1.2705545   -3.2626373   -1.7195843  0.096327291   -3.2626373     1.543053   542285 
 5797000    1.2728528   -3.2637242   -1.7179426  0.092867015   -3.2637242    1.5457815   542307 
 5798000    1.2728633    -3.264026   -1.7182232  0.089979686    -3.264026    1.5458028   542304 
 5799000    1.2715793   -3.2636479   -1.7195127  0.093828123   -3.2636479    1.5441352   542342 
 5800000    1.2716719   -3.2638311   -1.7196518    0.0958965   -3.2638311    1.5441793   542366 
 5801000    1.2715216   -3.2639725   -1.7200496  0.093374452   -3.2639725    1.5439229   542392 
 5802000    1.2726054   -3.2630914   -1.7178639  0.098495225   -3.2630914    1.5452275   542396 
 5803000    1.2731931   -3.2642511    -1.718347  0.096316817   -3.2642511    1.5459041   542409 
 5804000    1.2725005   -3.2639481   -1.7188309   0.10034144   -3.2639481    1.5451172   542390 
 5805000    1.2737815   -3.2646969    -1.718127  0.092397966   -3.2646969      1.54657   542426 
 5806000    1.2734061   -3.2638897   -1.7178269  0.096306938   -3.2638897    1.5460628   542444 
 5807000    1.2731565   -3.2652057   -1.7194629  0.094228726   -3.2652057    1.5457427   542450 
 5808000    1.2738004   -3.2656538   -1.7191635  0.095326198   -3.2656538    1.5464903   542462 
 5809000    1.2732402    -3.264502   -1.7187488  0.095293373    -3.264502    1.5457532   542482 
 5810000    1.2739404   -3.2653979   -1.7188746  0.095672425   -3.2653979    1.5465234   542510 
 5811000    1.2753083   -3.2663471    -1.718186  0.097083849   -3.2663471    1.5481611   542518 
 5812000     1.273914   -3.2654927   -1.7190327   0.09865297   -3.2654927      1.54646   542521 
 5813000    1.2731726   -3.2648611   -1.7193011  0.099059571   -3.2648611      1.54556   542521 
 5814000    1.2738392   -3.2657112   -1.7193277   0.10026947   -3.2657112    1.5463835   542516 
 5815000    1.2730868   -3.2648393   -1.7194518  0.094057104   -3.2648393    1.5453874   542545 
 5816000    1.2739361   -3.2662574   -1.7198362  0.092842584   -3.2662574    1.5464212   542544 
 5817000    1.2741537   -3.2664029   -1.7198258  0.094987818   -3.2664029    1.5465771   542582 
 5818000    1.2732184   -3.2650607   -1.7196531  0.099657837   -3.2650607    1.5454076   542594 
 5819000    1.2742823   -3.2671596   -1.7205433  0.097251159   -3.2671596    1.5466163   542623 
 5820000    1.2743175   -3.2662363   -1.7196485   0.10064763   -3.2662363    1.5465878   542648 
 5821000    1.2744277   -3.2666501   -1.7200027  0.094866379   -3.2666501    1.5466474   542674 
 5822000    1.2737551   -3.2655525   -1.7197954  0.094728166   -3.2655525     1.545757   542700 
 5823000    1.2754589   -3.2671197   -1.7193178  0.097023982   -3.2671197     1.547802   542708 
 5824000    1.2745428   -3.2666099    -1.719951   0.10107644   -3.2666099    1.5466589   542719 
 5825000    1.2745635    -3.266241    -1.719671   0.10242613    -3.266241      1.54657   542759 
 5826000    1.2744803   -3.2661129   -1.7197209   0.10020465   -3.2661129     1.546392   542786 
 5827000    1.2739271   -3.2672282     -1.72157  0.096505119   -3.2672282    1.5456582   542808 
 5828000    1.2724267   -3.2649588   -1.7212376  0.097847923   -3.2649588    1.5437212   542849 
 5829000     1.273892   -3.2668253    -1.721352  0.096686077   -3.2668253    1.5454733   542858 
 5830000    1.2749784   -3.2664556   -1.7197014    0.1004735   -3.2664556    1.5467542   542871 
 5831000    1.2757157   -3.2677685   -1.7201882  0.099723352   -3.2677685    1.5475802   542895 
 5832000    1.2755643   -3.2686109   -1.7212514   0.09091253   -3.2686109    1.5473596   542908 
 5833000    1.2759835   -3.2678479   -1.7200626   0.10131312   -3.2678479    1.5477854   542937 
 5834000    1.2757829   -3.2684687   -1.7210291    0.1013283   -3.2684687    1.5474395   542973 
 5835000    1.2746316   -3.2669927   -1.7209895  0.096776442   -3.2669927    1.5460032   542987 
 5836000    1.2741868   -3.2671842   -1.7217974   0.10294345   -3.2671842    1.5453868   543014 
 5837000    1.2741477   -3.2662225   -1.7209144  0.099556374   -3.2662225    1.5453081   543025 
 5838000    1.2756988   -3.2685238   -1.7213886  0.094711845   -3.2685238    1.5471352   543044 
 5839000    1.2749503    -3.268101   -1.7219106  0.090958023    -3.268101    1.5461903   543057 
 5840000    1.2765116   -3.2701093   -1.7220768  0.096534505   -3.2701093    1.5480325   543075 
 5841000    1.2757184   -3.2678237    -1.720753   0.10393657   -3.2678237    1.5470707   543075 
 5842000    1.2759971   -3.2690618   -1.7216903  0.097588213   -3.2690618    1.5473715   543088 
 5843000    1.2753096   -3.2675855   -1.7211445   0.10360756   -3.2675855     1.546441   543122 
 5844000    1.2758058   -3.2680252   -1.7210338  0.094426404   -3.2680252    1.5469914   543140 
 5845000    1.2745231   -3.2675732   -1.7221912   0.10037272   -3.2675732     1.545382   543159 
 5846000    1.2752937   -3.2688875   -1.7226508    0.0988962   -3.2688875    1.5462367   543187 
 5847000    1.2743568   -3.2695362   -1.7244809  0.095095391   -3.2695362    1.5450552   543203 
 5848000    1.2737485   -3.2669256    -1.722696  0.095830836   -3.2669256    1.5442296   543234 
 5849000     1.274538   -3.2669072   -1.7217744  0.095198513   -3.2669072    1.5451328   543253 
 5850000     1.277289   -3.2702544   -1.7218408  0.099087957   -3.2702544    1.5484136   543272 
 5851000    1.2759797    -3.267806   -1.7210195  0.097329366    -3.267806    1.5467865   543286 
 5852000    1.2757916   -3.2690259   -1.7225299  0.094577326   -3.2690259    1.5464959   543308 
 5853000    1.2750818   -3.2682753   -1.7226967  0.095991954   -3.2682753    1.5455786   543328 
 5854000    1.2751565   -3.2687883   -1.7231731  0.096375339   -3.2687883    1.5456151   543347 
 5855000    1.2761554   -3.2692181   -1.7224919   0.10315084   -3.2692181    1.5467262   543382 
 5856000    1.2762853   -3.2686569   -1.7218416  0.096787065   -3.2686569    1.5468153   543406 
 5857000    1.2757907   -3.2681926   -1.7220024   0.10063098   -3.2681926    1.5461903   543415 
 5858000    1.2755708   -3.2679209   -1.7220483   0.10160799   -3.2679209    1.5458726   543433 
 5859000    1.2764101   -3.2690171   -1.7221757  0.097195629   -3.2690171    1.5468413   543450 
 5860000     1.274483   -3.2667033   -1.7222542   0.10597426   -3.2667033    1.5444491   543470 
 5861000    1.2759116   -3.2685787    -1.722461  0.099613618   -3.2685787    1.5461177   543492 
 5862000    1.2751826   -3.2683385   -1.7231212  0.092927031   -3.2683385    1.5452172   543498 
 5863000    1.2744553   -3.2681501   -1.7238567  0.096635098   -3.2681501    1.5442934   543513 
 5864000    1.2752998   -3.2691157   -1.7238474  0.096046659   -3.2691157    1.5452683   543530 
 5865000    1.2739263   -3.2679036   -1.7243166   0.10018426   -3.2679036     1.543587   543536 
 5866000     1.274045   -3.2679034   -1.7242548   0.09356522   -3.2679034    1.5436485   543565 
 5867000    1.2736543    -3.266937   -1.7237903  0.092073529    -3.266937    1.5431468   543575 
 5868000    1.2768956   -3.2697502   -1.7227218   0.09480888   -3.2697502    1.5470284   543591 
 5869000    1.2771002    -3.270274   -1.7231031   0.10002065    -3.270274    1.5471709   543628 
 5870000    1.2752661   -3.2687886   -1.7239136  0.096269581   -3.2687886     1.544875   543654 
 5871000    1.2770527   -3.2701311    -1.723123  0.094313306   -3.2701311    1.5470081   543665 
 5872000    1.2762986   -3.2691933   -1.7231357  0.093566909   -3.2691933    1.5460576   543678 
 5873000    1.2750576   -3.2686256   -1.7240997   0.10081545   -3.2686256    1.5445259   543688 
 5874000    1.2751506   -3.2696333   -1.7250089  0.095052249   -3.2696333    1.5446244   543693 
 5875000    1.2750433   -3.2704262    -1.726017  0.092000703   -3.2704262    1.5444092   543723 
 5876000    1.2742808   -3.2699963   -1.7265335  0.096652478   -3.2699963    1.5434628   543731 
 5877000    1.2761376   -3.2720819   -1.7264042  0.099181288   -3.2720819    1.5456777   543743 
 5878000    1.2747379   -3.2701867   -1.7262554  0.099550523   -3.2701867    1.5439313   543761 
 5879000    1.2766065   -3.2719153   -1.7257122  0.099406755   -3.2719153    1.5462031   543758 
 5880000    1.2751219   -3.2702059   -1.7258493   0.10308612   -3.2702059    1.5443566   543775 
 5881000    1.2755097   -3.2716422   -1.7268813  0.097115414   -3.2716422    1.5447609   543798 
 5882000    1.2750702   -3.2711307   -1.7269957   0.09833097   -3.2711307     1.544135   543831 
 5883000    1.2757042   -3.2724854   -1.7276309  0.097869958   -3.2724854    1.5448545   543848 
 5884000    1.2771223   -3.2737031   -1.7271995  0.094474888   -3.2737031    1.5465036   543872 
 5885000    1.2756597   -3.2726423   -1.7280065  0.098096067   -3.2726423    1.5446358   543906 
 5886000    1.2746905     -3.27229   -1.7288986  0.099419283     -3.27229    1.5433914   543931 
 5887000    1.2759079   -3.2732068   -1.7283783   0.10087619   -3.2732068    1.5448285   543944 
 5888000    1.2753731   -3.2728526   -1.7287597  0.098072921   -3.2728526    1.5440929   543975 
 5889000     1.276399   -3.2737262   -1.7284196   0.10608055   -3.2737262    1.5453066   543985 
 5890000    1.2772874   -3.2746942   -1.7283661  0.098094136   -3.2746942    1.5463282   544004 
 5891000    1.2743937   -3.2723985    -1.729636  0.099088419   -3.2723985    1.5427625   544026 
 5892000    1.2753058   -3.2731009    -1.729271  0.091786996   -3.2731009    1.5438299   544039 
 5893000    1.2766447   -3.2752085   -1.7297947  0.097024216   -3.2752085    1.5454138   544052 
 5894000    1.2759701   -3.2733255   -1.7287398   0.10085593   -3.2733255    1.5445857   544056 
 5895000    1.2765075   -3.2743936   -1.7292255  0.096537205   -3.2743936    1.5451681   544080 
 5896000    1.2758141   -3.2736357   -1.7293353   0.09535978   -3.2736357    1.5443004   544090 
 5897000    1.2749395   -3.2722352   -1.7290899   0.09772004   -3.2722352    1.5431454   544124 
 5898000    1.2759208   -3.2737578    -1.729507  0.092509347   -3.2737578    1.5442508   544153 
 5899000    1.2768743   -3.2751973    -1.729909  0.097426406   -3.2751973    1.5452884   544194 
 5900000    1.2754805    -3.272635   -1.7290702   0.09549433    -3.272635    1.5435647   544207 
 5901000    1.2747889   -3.2716155   -1.7289473  0.094039947   -3.2716155    1.5426682   544228 
 5902000    1.2763505   -3.2736628   -1.7291332  0.099422996   -3.2736628    1.5445296   544238 
 5903000    1.2772657   -3.2736729   -1.7281011  0.093666895   -3.2736729    1.5455718   544261 
 5904000    1.2748168   -3.2719855   -1.7294564  0.099253154   -3.2719855    1.5425291   544289 
 5905000    1.2752396   -3.2724936   -1.7295295  0.095263884   -3.2724936    1.5429641   544316 
 5906000    1.2769718   -3.2739435   -1.7289574  0.093244627   -3.2739435    1.5449862   544342 
 5907000    1.2777243   -3.2749583   -1.7290532  0.097471702   -3.2749583    1.5459052   544339 
 5908000    1.2765053   -3.2731331   -1.7287226  0.097309161   -3.2731331    1.5444104   544346 
 5909000    1.2778502    -3.274629   -1.7286369  0.093137641    -3.274629    1.5459921   544362 
 5910000    1.2782822   -3.2740628   -1.7276019  0.098013685   -3.2740628    1.5464608   544381 
 5911000    1.2754057   -3.2695082   -1.7266011  0.096895305   -3.2695082    1.5429071   544407 
 5912000    1.2785757   -3.2734877   -1.7267741  0.096938262   -3.2734877    1.5467136   544417 
 5913000      1.27791   -3.2719423   -1.7261079  0.094526119   -3.2719423    1.5458344   544443 
 5914000    1.2784437   -3.2727306   -1.7263159  0.097430667   -3.2727306    1.5464148   544466 
 5915000    1.2774406   -3.2726468   -1.7275106  0.098861788   -3.2726468    1.5451361   544489 
 5916000    1.2780074   -3.2727697   -1.7270586  0.097381198   -3.2727697     1.545711   544528 
 5917000     1.277732   -3.2723432    -1.727022   0.10329906   -3.2723432    1.5453211   544548 
 5918000    1.2782468   -3.2730186   -1.7271884  0.097630369   -3.2730186    1.5458301   544588 
 5919000    1.2785525   -3.2719946   -1.7258714  0.098782926   -3.2719946    1.5461232   544615 
 5920000    1.2762681   -3.2709311   -1.7276271   0.10019048   -3.2709311     1.543304   544635 
 5921000    1.2781449   -3.2713891   -1.7259092   0.10133667   -3.2713891    1.5454799   544668 
 5922000     1.278917   -3.2723473   -1.7259367  0.099150236   -3.2723473    1.5464106   544669 
 5923000    1.2771188   -3.2711445   -1.7269648  0.096380202   -3.2711445    1.5441797   544689 
 5924000    1.2770431   -3.2699415   -1.7259441   0.09761274   -3.2699415    1.5439974   544721 
 5925000    1.2758054   -3.2701299   -1.7277167   0.08701652   -3.2701299    1.5424132   544752 
 5926000    1.2760516   -3.2710589   -1.7283594  0.092433506   -3.2710589    1.5426995   544756 
 5927000    1.2756335   -3.2710709   -1.7289788  0.091277485   -3.2710709    1.5420921   544792 
 5928000     1.275838   -3.2717003   -1.7294487  0.092545006   -3.2717003    1.5422516   544823 
 5929000     1.273947   -3.2699024   -1.7300158  0.093299552   -3.2699024    1.5398866   544851 
 5930000    1.2734103   -3.2705863   -1.7313795  0.091218134   -3.2705863    1.5392068   544862 
 5931000    1.2759333   -3.2721381    -1.729944  0.092324945   -3.2721381    1.5421941   544884 
 5932000    1.2763534   -3.2715288   -1.7289231  0.090796818   -3.2715288    1.5426057   544918 
 5933000    1.2777343   -3.2724371   -1.7282532  0.090762786   -3.2724371     1.544184   544950 
 5934000    1.2778147   -3.2726762   -1.7284603   0.09220826   -3.2726762    1.5442159   544973 
 5935000    1.2775539   -3.2724673   -1.7286148   0.10001954   -3.2724673    1.5438525   544990 
 5936000    1.2797651   -3.2737264   -1.7272699  0.094963597   -3.2737264    1.5464566   545014 
 5937000    1.2784606   -3.2720953   -1.7273199  0.090985409   -3.2720953    1.5447754   545051 
 5938000    1.2787695   -3.2728238    -1.727746  0.096824872   -3.2728238    1.5450777   545076 
 5939000    1.2766144   -3.2718839    -1.729461  0.097348212   -3.2718839    1.5424229   545094 
 5940000    1.2788022   -3.2747678     -1.72971   0.09293109   -3.2747678    1.5450577   545097 
 5941000    1.2784657   -3.2739371   -1.7293284  0.097233811   -3.2739371    1.5446087   545112 
 5942000    1.2796375   -3.2753993    -1.729494  0.097722801   -3.2753993    1.5459054   545154 
 5943000    1.2794639   -3.2739067   -1.7282621  0.096746674   -3.2739067    1.5456445   545172 
 5944000    1.2786269   -3.2729766   -1.7283941   0.10302834   -3.2729766    1.5445825   545190 
 5945000     1.279291   -3.2744417   -1.7291506  0.094407937   -3.2744417    1.5452911   545223 
 5946000    1.2775674   -3.2731459   -1.7299849  0.098974565   -3.2731459     1.543161   545240 
 5947000    1.2777673   -3.2745632   -1.7312117  0.097938751   -3.2745632    1.5433515   545258 
 5948000    1.2807623   -3.2767088   -1.7297455  0.093719429   -3.2767088    1.5469633   545260 
 5949000    1.2787438    -3.275068   -1.7305766  0.096190416    -3.275068    1.5444914   545272 
 5950000    1.2792271   -3.2756562    -1.730618  0.092122939   -3.2756562    1.5450383   545285 
 5951000    1.2782166   -3.2756226   -1.7318756    0.0988014   -3.2756226     1.543747   545310 
 5952000    1.2797131   -3.2779144   -1.7323402  0.095239564   -3.2779144    1.5455742   545303 
 5953000    1.2778672   -3.2747648   -1.7314794   0.10396654   -3.2747648    1.5432854   545324 
 5954000    1.2781416   -3.2761166   -1.7325196   0.09676746   -3.2761166     1.543597   545331 
 5955000     1.278598   -3.2754387   -1.7313698  0.098096239   -3.2754387    1.5440689   545359 
 5956000    1.2781118   -3.2751274   -1.7317023  0.097498353   -3.2751274    1.5434251   545379 
 5957000    1.2779331   -3.2743097   -1.7311231  0.098294433   -3.2743097    1.5431867   545387 
 5958000     1.279646   -3.2758556   -1.7307478  0.097305174   -3.2758556    1.5451078   545439 
 5959000     1.278516     -3.27486   -1.7311703  0.094304351     -3.27486    1.5436897   545458 
 5960000     1.279194   -3.2755744   -1.7310605  0.094800917   -3.2755744    1.5445139   545456 
 5961000    1.2769284   -3.2729233   -1.7312071  0.090950736   -3.2729233    1.5417162   545478 
 5962000    1.2778574   -3.2742278   -1.7314606  0.095925606   -3.2742278    1.5427672   545503 
 5963000    1.2805082   -3.2764573   -1.7305295  0.092157001   -3.2764573    1.5459278   545517 
 5964000    1.2793914   -3.2760358   -1.7314847  0.091609386   -3.2760358    1.5445512   545527 
 5965000    1.2798059   -3.2767675    -1.731747  0.096386426   -3.2767675    1.5450205   545538 
 5966000    1.2788841   -3.2749915    -1.731149  0.096540363   -3.2749915    1.5438425   545561 
 5967000     1.279172   -3.2751081   -1.7310142   0.10098481   -3.2751081    1.5440939   545595 
 5968000    1.2805138   -3.2754873   -1.7298474  0.099178672   -3.2754873    1.5456399   545621 
 5969000    1.2798269   -3.2739566    -1.729177  0.095069123   -3.2739566    1.5447797   545632 
 5970000    1.2801468   -3.2733311   -1.7282164  0.099077977   -3.2733311    1.5451147   545650 
 5971000    1.2791422   -3.2729785   -1.7291301   0.09884134   -3.2729785    1.5438484   545669 
 5972000    1.2802456   -3.2734775    -1.728368   0.10013436   -3.2734775    1.5451095   545694 
 5973000    1.2799228    -3.273505   -1.7288078  0.093750474    -3.273505    1.5446972   545702 
 5974000    1.2788428   -3.2721163   -1.7287762  0.097632006   -3.2721163    1.5433401   545721 
 5975000    1.2795206   -3.2740485   -1.7299245  0.095387202   -3.2740485     1.544124   545733 
 5976000    1.2807414   -3.2746683   -1.7291021  0.095988203   -3.2746683    1.5455662   545744 
 5977000    1.2785798    -3.272487    -1.729586  0.095440169    -3.272487    1.5429011   545764 
 5978000    1.2799156   -3.2750589   -1.7305826  0.095841216   -3.2750589    1.5444763   545777 
 5979000    1.2787021   -3.2740786   -1.7311516   0.09071271   -3.2740786    1.5429271   545807 
 5980000    1.2794599    -3.275372   -1.7315447  0.094453098    -3.275372    1.5438273   545812 
 5981000    1.2790832   -3.2745417   -1.7312114  0.099215479   -3.2745417    1.5433304   545827 
 5982000    1.2803555   -3.2752543   -1.7303803   0.09779296   -3.2752543     1.544874   545824 
 5983000    1.2810102   -3.2763964    -1.730789  0.095628743   -3.2763964    1.5456074   545844 
 5984000    1.2794993   -3.2754226   -1.7316948  0.091826804   -3.2754226    1.5437278   545864 
 5985000    1.2802278   -3.2761579   -1.7315936  0.093697991   -3.2761579    1.5445643   545879 
 5986000    1.2791931   -3.2761656   -1.7329034  0.099105796   -3.2761656    1.5432622   545898 
 5987000    1.2777155   -3.2749388   -1.7335016  0.096761221   -3.2749388    1.5414373   545913 
 5988000    1.2794515   -3.2771943   -1.7337334  0.088249563   -3.2771943    1.5434609   545938 
 5989000     1.280666   -3.2787102   -1.7338379   0.10166397   -3.2787102    1.5448723   545957 
 5990000    1.2799468   -3.2774292   -1.7334698   0.10019525   -3.2774292    1.5439594   545973 
 5991000    1.2789563   -3.2766585   -1.7339588   0.10161642   -3.2766585    1.5426996   545996 
 5992000    1.2803268   -3.2775645   -1.7332655  0.090156319   -3.2775645     1.544299   546015 
 5993000    1.2812187   -3.2793692   -1.7339972  0.095069395   -3.2793692     1.545372   546016 
 5994000    1.2797916   -3.2787153   -1.7351297  0.098310581   -3.2787153    1.5435856   546039 
 5995000    1.2814565   -3.2809418   -1.7353877  0.095342683   -3.2809418    1.5455541   546053 
 5996000    1.2813606   -3.2809577   -1.7355702  0.099748934   -3.2809577    1.5453875   546071 
 5997000    1.2809621   -3.2806589   -1.7358058  0.097878219   -3.2806589     1.544853   546090 
 5998000    1.2806377   -3.2799386   -1.7355333  0.097946402   -3.2799386    1.5444053   546110 
 5999000    1.2814246   -3.2802555   -1.7349097  0.099713281   -3.2802555    1.5453458   546113 
 6000000    1.2804549   -3.2805732   -1.7364845  0.096248286   -3.2805732    1.5440887   546144 
 6001000    1.2798854   -3.2807178   -1.7373582  0.096428979   -3.2807178    1.5433596   546159 
 6002000    1.2815483   -3.2830801    -1.737721  0.092696031   -3.2830801    1.5453591   546161 
 6003000     1.280645   -3.2804407   -1.7361907   0.09944146   -3.2804407    1.5442501   546168 
 6004000    1.2811927   -3.2808201   -1.7359378   0.10013741   -3.2808201    1.5448822   546178 
 6005000    1.2813824   -3.2807139   -1.7356538  0.094410482   -3.2807139    1.5450601   546196 
 6006000    1.2818251   -3.2812267   -1.7356611   0.09881834   -3.2812267    1.5455656   546206 
 6007000    1.2793283   -3.2797727    -1.737243   0.10111703   -3.2797727    1.5425297   546215 
 6008000    1.2799663   -3.2806451   -1.7374337  0.093953815   -3.2806451    1.5432114   546246 
 6009000    1.2789796   -3.2794318   -1.7374976  0.097963522   -3.2794318    1.5419342   546277 
 6010000    1.2814987   -3.2818189    -1.736876  0.090439887   -3.2818189    1.5449429   546287 
 6011000    1.2804127   -3.2801827   -1.7365575   0.09977466   -3.2801827    1.5436252   546290 
 6012000     1.280675   -3.2812302   -1.7373679   0.09505096   -3.2812302    1.5438623   546318 
 6013000    1.2816239   -3.2826071   -1.7376772   0.09163867   -3.2826071    1.5449299   546345 
 6014000    1.2779238    -3.277427   -1.7370082  0.098490595    -3.277427    1.5404189   546363 
 6015000    1.2801348   -3.2799138   -1.7368778  0.093701026   -3.2799138     1.543036   546380 
 6016000    1.2790616    -3.278335   -1.7366379  0.094593122    -3.278335    1.5416972   546396 
 6017000     1.281139   -3.2811684   -1.7370351  0.094328474   -3.2811684    1.5441333   546420 
 6018000    1.2800802   -3.2807436   -1.7378949  0.094708767   -3.2807436    1.5428487   546423 
 6019000    1.2800486   -3.2802862   -1.7375348   0.09640619   -3.2802862    1.5427514   546444 
 6020000    1.2791969    -3.278945     -1.73724   0.10052496    -3.278945    1.5417051   546451 
 6021000    1.2802618    -3.278577   -1.7356252   0.10201706    -3.278577    1.5429518   546464 
 6022000    1.2828623   -3.2822084   -1.7361876  0.097626132   -3.2822084    1.5460208   546487 
 6023000    1.2815354   -3.2811725   -1.7368243  0.087982475   -3.2811725    1.5443482   546513 
 6024000    1.2818587   -3.2818956   -1.7372057  0.097821323   -3.2818956    1.5446898   546530 
 6025000    1.2812078   -3.2812406   -1.7374058  0.096354141   -3.2812406    1.5438348   546555 
 6026000    1.2803904   -3.2804265   -1.7376275  0.096080745   -3.2804265     1.542799   546573 
 6027000    1.2811808   -3.2814489   -1.7378387   0.10239622   -3.2814489    1.5436102   546623 
 6028000    1.2801619   -3.2801066   -1.7377578  0.093292646   -3.2801066    1.5423488   546635 
 6029000    1.2818728   -3.2816516    -1.737281  0.099518868   -3.2816516    1.5443705   546649 
 6030000    1.2804979   -3.2806296   -1.7379409  0.096171245   -3.2806296    1.5426887   546658 
 6031000    1.2821504   -3.2818747   -1.7372941   0.10225091   -3.2818747    1.5445806   546693 
 6032000    1.2814683   -3.2809196     -1.73722   0.10176204   -3.2809196    1.5436996   546714 
 6033000     1.282112   -3.2817617   -1.7373233  0.096516996   -3.2817617    1.5444383   546727 
 6034000    1.2809528   -3.2803716   -1.7373748   0.10185935   -3.2803716    1.5429968   546743 
 6035000    1.2835099   -3.2838333   -1.7378157  0.097517252   -3.2838333    1.5460176   546764 
 6036000    1.2808297   -3.2819659   -1.7391936  0.094835261   -3.2819659    1.5427724   546770 
 6037000    1.2817137   -3.2821834   -1.7384254  0.093237703   -3.2821834     1.543758   546798 
 6038000    1.2829032   -3.2834784   -1.7383074  0.092976966   -3.2834784     1.545171   546805 
 6039000    1.2815164   -3.2817003    -1.738273  0.096269077   -3.2817003    1.5434273   546831 
 6040000    1.2812619   -3.2815395   -1.7384328   0.10326145   -3.2815395    1.5431067   546836 
 6041000    1.2815804   -3.2817304   -1.7382994   0.10419993   -3.2817304     1.543431   546857 
 6042000    1.2810574   -3.2810784   -1.7383197  0.096816941   -3.2810784    1.5427587   546872 
 6043000     1.282478   -3.2830377   -1.7385963   0.10292238   -3.2830377    1.5444414   546882 
 6044000    1.2826175   -3.2842799   -1.7396904  0.093144294   -3.2842799    1.5445895   546889 
 6045000    1.2821369   -3.2839257   -1.7399771  0.096171476   -3.2839257    1.5439487   546911 
 6046000    1.2833939   -3.2855088   -1.7400464    0.1014345   -3.2855088    1.5454624   546911 
 6047000    1.2798545   -3.2816001   -1.7404844  0.097510203   -3.2816001    1.5411157   546941 
 6048000    1.2810608   -3.2826902   -1.7401304   0.10077532   -3.2826902    1.5425598   546944 
 6049000    1.2806849    -3.282843   -1.7408148  0.096347871    -3.282843    1.5420282   546972 
 6050000    1.2815631   -3.2843459   -1.7413562   0.09736662   -3.2843459    1.5429897   547006 
 6051000    1.2826398   -3.2841005   -1.7398229  0.096664081   -3.2841005    1.5442776   547009 
 6052000    1.2820138    -3.283232   -1.7397899  0.097317735    -3.283232    1.5434421   547038 
 6053000    1.2832712   -3.2844411   -1.7395501  0.095281103   -3.2844411     1.544891   547061 
 6054000     1.282678   -3.2843543   -1.7402227   0.10217284   -3.2843543    1.5441316   547077 
 6055000    1.2817616   -3.2823107   -1.7393584   0.10308696   -3.2823107    1.5429523   547104 
 6056000    1.2809966   -3.2823871   -1.7404347  0.097083187   -3.2823871    1.5419525   547132 
 6057000    1.2829794   -3.2848803   -1.7405834   0.09030378   -3.2848803    1.5442969   547147 
 6058000    1.2827249   -3.2834061   -1.7394353    0.1018095   -3.2834061    1.5439708   547154 
 6059000    1.2828715   -3.2841227   -1.7400433   0.10039217   -3.2841227    1.5440795   547178 
 6060000    1.2840166   -3.2860489   -1.7406165  0.090082868   -3.2860489    1.5454324   547187 
 6061000    1.2807049   -3.2835752   -1.7421682   0.09162741   -3.2835752     1.541407   547201 
 6062000    1.2818288   -3.2833112   -1.7406953  0.093199762   -3.2833112    1.5426159   547252 
 6063000    1.2811753   -3.2833326   -1.7415172  0.096866193   -3.2833326    1.5418154   547257 
 6064000    1.2827649    -3.285049    -1.741363  0.095137126    -3.285049    1.5436861   547272 
 6065000    1.2824571   -3.2834886   -1.7402576  0.093626901   -3.2834886     1.543231   547302 
 6066000     1.282917   -3.2834141   -1.7397087  0.098043459   -3.2834141    1.5437054   547330 
 6067000    1.2813654   -3.2825564   -1.7407968  0.094465298   -3.2825564    1.5417596   547358 
 6068000    1.2831425    -3.283644   -1.7397913  0.095066935    -3.283644    1.5438527   547374 
 6069000    1.2840944   -3.2842198   -1.7392783  0.094039541   -3.2842198    1.5449415   547394 
 6070000     1.285425   -3.2861407   -1.7396321  0.098079476   -3.2861407    1.5465085   547406 
 6071000    1.2840364   -3.2852732   -1.7404861  0.096322973   -3.2852732    1.5447871   547424 
 6072000    1.2823382   -3.2827566   -1.7400689   0.09372924   -3.2827566    1.5426877   547444 
 6073000    1.2840069   -3.2844665   -1.7398307  0.095744465   -3.2844665    1.5446359   547465 
 6074000    1.2836793   -3.2850082   -1.7408199   0.10064079   -3.2850082    1.5441883   547484 
 6075000    1.2855189   -3.2867618    -1.740437  0.096402834   -3.2867618    1.5463249   547511 
 6076000    1.2837103   -3.2852365    -1.741104  0.094258431   -3.2852365    1.5441325   547517 
 6077000    1.2854628   -3.2865688   -1.7403792   0.10030853   -3.2865688    1.5461896   547535 
 6078000    1.2847959   -3.2858218   -1.7404399  0.099298767   -3.2858218    1.5453819   547537 
 6079000    1.2838948   -3.2855915   -1.7413076   0.10319443   -3.2855915    1.5442839   547542 
 6080000    1.2844175   -3.2853128   -1.7404934   0.10437246   -3.2853128    1.5448194   547575 
 6081000     1.284905   -3.2868733   -1.7415493  0.097230512   -3.2868733    1.5453239   547604 
 6082000     1.284379   -3.2862833   -1.7416089  0.095976024   -3.2862833    1.5446744   547610 
 6083000     1.282684   -3.2855739   -1.7430534  0.095727693   -3.2855739    1.5425205   547651 
 6084000    1.2823597   -3.2857898   -1.7437523  0.095283798   -3.2857898    1.5420375   547684 
 6085000      1.28524   -3.2882987   -1.7428343  0.097077416   -3.2882987    1.5454644   547697 
 6086000    1.2829937   -3.2845284   -1.7417821  0.099349125   -3.2845284    1.5427463   547703 
 6087000    1.2828552   -3.2851342   -1.7426022   0.10237436   -3.2851342    1.5425319   547720 
 6088000    1.2842574   -3.2878529   -1.7436715  0.093711488   -3.2878529    1.5441814   547733 
 6089000    1.2845084   -3.2882851   -1.7438696  0.099346726   -3.2882851    1.5444155   547757 
 6090000    1.2851116   -3.2885395   -1.7434523  0.098194792   -3.2885395    1.5450872   547776 
 6091000    1.2837283   -3.2867713   -1.7433981  0.093612915   -3.2867713    1.5433732   547794 
 6092000    1.2814312   -3.2846477   -1.7441204  0.097302536   -3.2846477    1.5405272   547824 
 6093000    1.2860408   -3.2880701   -1.7420802  0.090249562   -3.2880701    1.5459898   547852 
 6094000    1.2862449   -3.2872952   -1.7411504  0.097049034   -3.2872952    1.5461448   547884 
 6095000    1.2836961   -3.2848318   -1.7418465  0.095635155   -3.2848318    1.5429853   547918 
 6096000    1.2854321   -3.2855232   -1.7405105  0.095612433   -3.2855232    1.5450127   547939 
 6097000    1.2846236    -3.284728   -1.7406476   0.10003611    -3.284728    1.5440804   547925 
 6098000    1.2851147   -3.2844953   -1.7398782   0.10032491   -3.2844953    1.5446171   547944 
 6099000    1.2847057   -3.2859123   -1.7418121  0.098502667   -3.2859123    1.5441002   547953 
 6100000    1.2858298   -3.2888859   -1.7434995  0.096872354   -3.2888859    1.5453864   547976 
 6101000    1.2845227   -3.2866015   -1.7428198   0.10214936   -3.2866015    1.5437817   547988 
 6102000    1.2848134   -3.2861296   -1.7420267  0.099239076   -3.2861296    1.5441029   547998 
 6103000    1.2836759   -3.2852017    -1.742542  0.095854121   -3.2852017    1.5426597   548025 
 6104000    1.2847208   -3.2869056    -1.743024  0.095084556   -3.2869056    1.5438816   548037 
 6105000    1.2841312    -3.286093   -1.7429959   0.10047781    -3.286093    1.5430971   548064 
 6106000    1.2840878   -3.2850974   -1.7421229   0.10441953   -3.2850974    1.5429745   548089 
 6107000    1.2844642   -3.2855888   -1.7421732  0.098163183   -3.2855888    1.5434156   548093 
 6108000    1.2844329   -3.2857058   -1.7424207  0.097328001   -3.2857058    1.5432851   548126 
 6109000    1.2858213   -3.2854702    -1.740562  0.094171501   -3.2854702    1.5449082   548142 
 6110000    1.2863498   -3.2870533   -1.7415694  0.094272299   -3.2870533    1.5454839   548163 
 6111000      1.28525   -3.2861655    -1.742017   0.10173919   -3.2861655    1.5441485   548168 
 6112000    1.2875948   -3.2884494   -1.7415713  0.097802716   -3.2884494    1.5468781   548199 
 6113000    1.2863555   -3.2868879   -1.7415606  0.093028125   -3.2868879    1.5453272   548221 
 6114000    1.2875019   -3.2878624    -1.741234  0.096852016   -3.2878624    1.5466283   548248 
 6115000    1.2859341   -3.2857817    -1.741096  0.096101529   -3.2857817    1.5446857   548269 
 6116000    1.2863964   -3.2866161   -1.7414652   0.10083312   -3.2866161    1.5451509   548301 
 6117000    1.2855807   -3.2861864   -1.7420856   0.10544482   -3.2861864    1.5441008   548326 
 6118000    1.2874668   -3.2884747   -1.7421622  0.097799848   -3.2884747    1.5463125   548345 
 6119000    1.2865406   -3.2878059   -1.7426621  0.099183282   -3.2878059    1.5451438   548365 
 6120000    1.2871064   -3.2895382   -1.7437741  0.099214778   -3.2895382    1.5457642   548386 
 6121000    1.2861224   -3.2885714   -1.7440059  0.096139532   -3.2885714    1.5445655   548392 
 6122000    1.2873385   -3.2900905   -1.7440984  0.097631454   -3.2900905    1.5459921   548404 
 6123000    1.2856668   -3.2890918    -1.745141  0.095123507   -3.2890918    1.5439508   548416 
 6124000    1.2864333   -3.2890319   -1.7441719  0.095487264   -3.2890319    1.5448599   548420 
 6125000    1.2828379   -3.2853322   -1.7448629   0.10189235   -3.2853322    1.5404693   548446 
 6126000     1.284736   -3.2881498   -1.7454322  0.098740124   -3.2881498    1.5427177   548457 
 6127000    1.2847192    -3.288242   -1.7455671  0.096489593    -3.288242    1.5426749   548465 
 6128000    1.2849749   -3.2886836   -1.7457072  0.097864936   -3.2886836    1.5429763   548467 
 6129000    1.2869514   -3.2910352   -1.7457447  0.096010336   -3.2910352    1.5452905   548488 
 6130000    1.2858106   -3.2900305   -1.7461435  0.094047582   -3.2900305     1.543887   548500 
 6131000    1.2876403   -3.2907073   -1.7446487    0.1015277   -3.2907073    1.5460586   548509 
 6132000    1.2865155   -3.2894248   -1.7447844   0.10178202   -3.2894248    1.5446405   548533 
 6133000    1.2875055   -3.2907243   -1.7449206   0.10031746   -3.2907243    1.5458037   548542 
 6134000    1.2863519   -3.2888086   -1.7444379   0.10095871   -3.2888086    1.5443707   548559 
 6135000    1.2882572    -3.290154   -1.7435662   0.10519439    -3.290154    1.5465878   548584 
 6136000     1.286546   -3.2897171   -1.7452372  0.097631133   -3.2897171    1.5444799   548603 
 6137000    1.2880918   -3.2917047   -1.7454847  0.098675935   -3.2917047      1.54622   548644 
 6138000    1.2850341    -3.287756    -1.745243  0.098786476    -3.287756    1.5425131   548657 
 6139000    1.2868262   -3.2900594   -1.7454063   0.10297577   -3.2900594     1.544653   548661 
 6140000    1.2857143   -3.2901344   -1.7468582  0.097801532   -3.2901344    1.5432761   548676 
 6141000    1.2844015    -3.287955   -1.7462772  0.096410288    -3.287955    1.5416778   548684 
 6142000    1.2851293   -3.2888554   -1.7463602   0.10186792   -3.2888554    1.5424952   548704 
 6143000    1.2855531   -3.2896868   -1.7467166  0.095379676   -3.2896868    1.5429702   548716 
 6144000    1.2835782   -3.2879123   -1.7473349   0.10050716   -3.2879123    1.5405774   548724 
 6145000    1.2851273   -3.2895326   -1.7471606  0.098054582   -3.2895326     1.542372   548747 
 6146000    1.2845378   -3.2882948   -1.7466641  0.097353525   -3.2882948    1.5416308   548759 
 6147000    1.2846293    -3.288305   -1.7466908   0.10045015    -3.288305    1.5416142   548804 
 6148000    1.2843072   -3.2872292   -1.7460269  0.099135505   -3.2872292    1.5412023   548813 
 6149000    1.2844451   -3.2877985   -1.7465262  0.095624162   -3.2877985    1.5412724   548847 
 6150000    1.2862205   -3.2894022   -1.7460557  0.095592941   -3.2894022    1.5433465   548867 
 6151000    1.2867841   -3.2894948   -1.7455142  0.094232284   -3.2894948    1.5439806   548882 
 6152000    1.2868218    -3.289923   -1.7459619   0.09872083    -3.289923    1.5439611   548905 
 6153000    1.2852237   -3.2881281   -1.7461631   0.10209902   -3.2881281     1.541965   548933 
 6154000    1.2834171   -3.2860507   -1.7463401   0.10170948   -3.2860507    1.5397105   548964 
 6155000    1.2844456   -3.2866709   -1.7458135  0.096225777   -3.2866709    1.5408574   548995 
 6156000    1.2858287   -3.2902306   -1.7477477  0.096961118   -3.2902306    1.5424829   549007 
 6157000    1.2884647   -3.2931891   -1.7475835  0.093568798   -3.2931891    1.5456056   549021 
 6158000    1.2857856    -3.289392   -1.7470478  0.091279364    -3.289392    1.5423442   549038 
 6159000    1.2857209   -3.2898253   -1.7476206  0.096196394   -3.2898253    1.5422047   549060 
 6160000    1.2851434   -3.2889048   -1.7474097  0.091411197   -3.2889048    1.5414952   549066 
 6161000    1.2853644   -3.2898966     -1.74817  0.095029891   -3.2898966    1.5417266   549078 
 6162000    1.2845252   -3.2889307   -1.7482667  0.089712472   -3.2889307    1.5406639   549098 
 6163000     1.285542   -3.2913207   -1.7494682  0.094154467   -3.2913207    1.5418525   549109 
 6164000    1.2859413   -3.2917393   -1.7494331  0.094674674   -3.2917393    1.5423062   549118 
 6165000    1.2859534   -3.2919022   -1.7496377  0.094573817   -3.2919022    1.5422645   549138 
 6166000    1.2849193   -3.2903362   -1.7494073   0.09785158   -3.2903362    1.5409289   549172 
 6167000    1.2852764    -3.290628   -1.7493242  0.095393696    -3.290628    1.5413038   549191 
 6168000    1.2874498    -3.292663   -1.7488259   0.09318839    -3.292663    1.5438371   549217 
 6169000    1.2836849   -3.2892084   -1.7499561  0.097910186   -3.2892084    1.5392523   549242 
 6170000    1.2849285   -3.2905635   -1.7498929   0.10002041   -3.2905635    1.5406706   549268 
 6171000     1.285437    -3.290908   -1.7496839  0.092715399    -3.290908    1.5412241   549288 
 6172000    1.2856736   -3.2906664   -1.7491389   0.10077518   -3.2906664    1.5415275   549281 
 6173000    1.2864954    -3.291446   -1.7490624   0.10034403    -3.291446    1.5423837   549327 
 6174000    1.2861658   -3.2916506   -1.7496733  0.096790438   -3.2916506    1.5419774   549331 
 6175000     1.286646   -3.2916713   -1.7491351   0.10403522   -3.2916713    1.5425362   549337 
 6176000    1.2871988   -3.2929791   -1.7498645  0.096605357   -3.2929791    1.5431147   549367 
 6177000    1.2859748   -3.2926555    -1.751098  0.092989285   -3.2926555    1.5415575   549399 
 6178000    1.2871091   -3.2933754   -1.7505144  0.096509944   -3.2933754     1.542861   549419 
 6179000    1.2859028   -3.2921598   -1.7507756   0.09301809   -3.2921598    1.5413842   549430 
 6180000    1.2864242   -3.2930068   -1.7510649   0.09271145   -3.2930068    1.5419419   549454 
 6181000    1.2869243   -3.2937458   -1.7512775  0.096699545   -3.2937458    1.5424683   549480 
 6182000    1.2859091   -3.2922815   -1.7510777   0.09570249   -3.2922815    1.5412038   549497 
 6183000    1.2863575   -3.2926938   -1.7509778  0.096026084   -3.2926938     1.541716   549506 
 6184000    1.2860928   -3.2930169   -1.7516209  0.098676773   -3.2930169     1.541396   549507 
 6185000    1.2883841   -3.2949423   -1.7508845  0.093985489   -3.2949423    1.5440578   549537 
 6186000    1.2880944   -3.2945949   -1.7509292  0.092945121   -3.2945949    1.5436657   549553 
 6187000    1.2867605   -3.2926228   -1.7506118  0.098262488   -3.2926228     1.542011   549573 
 6188000    1.2874418   -3.2937967    -1.751031  0.093648429   -3.2937967    1.5427657   549595 
 6189000    1.2860081   -3.2926845   -1.7517069   0.10154809   -3.2926845    1.5409776   549620 
 6190000    1.2857707   -3.2935169   -1.7528799  0.095567897   -3.2935169     1.540637   549640 
 6191000    1.2881626   -3.2939195   -1.7504614  0.096035401   -3.2939195    1.5434581   549656 
 6192000    1.2871555   -3.2929995    -1.750807  0.095878239   -3.2929995    1.5421925   549677 
 6193000    1.2888997   -3.2949097   -1.7506977  0.094462696   -3.2949097     1.544212   549702 
 6194000    1.2882085   -3.2941376   -1.7507817   0.09859227   -3.2941376    1.5433559   549712 
 6195000    1.2874487   -3.2926114   -1.7502191  0.097370177   -3.2926114    1.5423923   549731 
 6196000     1.288352   -3.2938372   -1.7503629  0.094582188   -3.2938372    1.5434744   549731 
 6197000    1.2872414   -3.2932519   -1.7511249  0.098788425   -3.2932519     1.542127   549737 
 6198000    1.2867081   -3.2924225   -1.7509428   0.10400753   -3.2924225    1.5414797   549740 
 6199000    1.2883306   -3.2941241    -1.750782  0.097478517   -3.2941241    1.5433421   549769 
 6200000    1.2885118   -3.2932675   -1.7497448  0.098304729   -3.2932675    1.5435227   549782 
 6201000    1.2878829   -3.2920576   -1.7493164  0.096385321   -3.2920576    1.5427413   549792 
 6202000     1.289547   -3.2948447   -1.7501832  0.098306519   -3.2948447    1.5446616   549818 
 6203000    1.2876832   -3.2930596   -1.7506389   0.09897139   -3.2930596    1.5424207   549821 
 6204000    1.2875033   -3.2920843   -1.7499268   0.10032215   -3.2920843    1.5421575   549838 
 6205000    1.2882453   -3.2928131   -1.7498398   0.09799873   -3.2928131    1.5429733   549864 
 6206000    1.2884272   -3.2923708   -1.7492442  0.097301331   -3.2923708    1.5431267   549887 
 6207000    1.2891432   -3.2942559   -1.7503307  0.095896098   -3.2942559    1.5439252   549908 
 6208000    1.2877238   -3.2919578    -1.749783  0.093394242   -3.2919578    1.5421749   549926 
 6209000    1.2878257   -3.2918882    -1.749625   0.10485981   -3.2918882    1.5422632   549938 
 6210000    1.2875439   -3.2916941   -1.7497909  0.096633596   -3.2916941    1.5419033   549946 
 6211000    1.2887903   -3.2933068    -1.749995   0.09550388   -3.2933068    1.5433117   549976 
 6212000     1.290527   -3.2959704   -1.7506604  0.092553077   -3.2959704      1.54531   550005 
 6213000    1.2883367    -3.292824   -1.7501705   0.09987507    -3.292824    1.5426535   550017 
 6214000    1.2882394   -3.2925405    -1.750026  0.099541338   -3.2925405    1.5425145   550025 
 6215000    1.2896271   -3.2942943   -1.7501995  0.096778511   -3.2942943    1.5440948   550054 
 6216000    1.2885137    -3.292771    -1.750029  0.097303106    -3.292771    1.5427421   550061 
 6217000    1.2897905   -3.2938986   -1.7496222  0.094972691   -3.2938986    1.5442764   550059 
 6218000     1.288506   -3.2933244   -1.7506617   0.10161435   -3.2933244    1.5426627   550086 
 6219000    1.2898437   -3.2938689   -1.7497028  0.098141843   -3.2938689    1.5441661   550121 
 6220000     1.290097   -3.2944294   -1.7499797  0.097951445   -3.2944294    1.5444496   550128 
 6221000    1.2882228   -3.2928959   -1.7507292   0.10064255   -3.2928959    1.5421666   550142 
 6222000    1.2883657   -3.2943144   -1.7519739  0.097223517   -3.2943144    1.5423405   550141 
 6223000    1.2897034   -3.2946809   -1.7507137   0.10300847   -3.2946809    1.5439672   550132 
 6224000    1.2887802   -3.2954137   -1.7525658  0.099860596   -3.2954137     1.542848   550137 
 6225000    1.2889918   -3.2954052     -1.75236  0.099883985   -3.2954052    1.5430451   550157 
 6226000    1.2889508   -3.2945708   -1.7515748    0.1006948   -3.2945708    1.5429961   550157 
 6227000    1.2886943   -3.2945569    -1.751924  0.097045326   -3.2945569    1.5426329   550177 
 6228000    1.2898101   -3.2957828   -1.7518563   0.09485351   -3.2957828    1.5439265   550192 
 6229000    1.2891236   -3.2960795   -1.7529832  0.096938668   -3.2960795    1.5430964   550195 
 6230000    1.2888788   -3.2960556    -1.753283   0.10113922   -3.2960556    1.5427726   550206 
 6231000     1.287894   -3.2958102   -1.7542753  0.096508307   -3.2958102    1.5415349   550227 
 6232000    1.2888462   -3.2968664   -1.7542367   0.09851764   -3.2968664    1.5426298   550243 
 6233000    1.2896002   -3.2976582   -1.7541708  0.097588313   -3.2976582    1.5434874   550259 
 6234000    1.2885661   -3.2970599   -1.7548438  0.098819825   -3.2970599    1.5422161   550271 
 6235000    1.2862898   -3.2937839   -1.7543286  0.098274517   -3.2937839    1.5394553   550284 
 6236000    1.2882801   -3.2959329   -1.7541264  0.094541326   -3.2959329    1.5418064   550295 
 6237000      1.29067   -3.2984885   -1.7538667  0.090722782   -3.2984885    1.5446218   550311 
 6238000    1.2892259   -3.2964825   -1.7536366  0.096478121   -3.2964825    1.5428459   550328 
 6239000    1.2884185   -3.2954653   -1.7536277  0.096432789   -3.2954653    1.5418376   550343 
 6240000    1.2901001   -3.2973183   -1.7535328   0.10150483   -3.2973183    1.5437855   550366 
 6241000    1.2894524   -3.2967217   -1.7537366   0.10061797   -3.2967217    1.5429851   550375 
 6242000    1.2869264   -3.2942546   -1.7543983  0.093764587   -3.2942546    1.5398562   550413 
 6243000    1.2877833   -3.2956882   -1.7548543   0.09416739   -3.2956882    1.5408339   550430 
 6244000    1.2910676   -3.2992426   -1.7545464  0.091208152   -3.2992426    1.5446962   550454 
 6245000    1.2899245   -3.2978301   -1.7545408  0.094751642   -3.2978301    1.5432893   550468 
 6246000    1.2892843   -3.2969761   -1.7544807   0.10016971   -3.2969761    1.5424954   550478 
 6247000    1.2898708   -3.2968784    -1.753715  0.097381909   -3.2968784    1.5431633   550490 
 6248000    1.2892942   -3.2974204   -1.7550113  0.099353867   -3.2974204    1.5424091   550513 
 6249000    1.2900656   -3.2973736   -1.7540389  0.096167721   -3.2973736    1.5433347   550512 
 6250000    1.2881145   -3.2968236   -1.7558846  0.097538714   -3.2968236     1.540939   550534 
 6251000     1.287598   -3.2952493   -1.7549813    0.1047808   -3.2952493     1.540268   550553 
 6252000    1.2887833   -3.2967032   -1.7550089   0.10012969   -3.2967032    1.5416943   550550 
 6253000     1.290127   -3.2985834   -1.7553518  0.094247767   -3.2985834    1.5432316   550575 
 6254000    1.2907926   -3.2993069    -1.755324  0.091092076   -3.2993069    1.5439829   550591 
 6255000    1.2903871   -3.2978611    -1.754394  0.097898979   -3.2978611     1.543467   550602 
 6256000    1.2892839   -3.2971634   -1.7550775  0.098124594   -3.2971634    1.5420859   550624 
 6257000    1.2905947   -3.2984207   -1.7547866  0.099121763   -3.2984207     1.543634   550631 
 6258000    1.2905109   -3.2981757   -1.7546503   0.10630739   -3.2981757    1.5435254   550634 
 6259000    1.2914734   -3.2985648   -1.7539303  0.091422271   -3.2985648    1.5446345   550649 
 6260000    1.2905884   -3.2978729   -1.7542828  0.096715376   -3.2978729    1.5435901   550644 
 6261000    1.2899676   -3.2970606   -1.7542691  0.099315653   -3.2970606    1.5427915   550664 
 6262000    1.2902278   -3.2975271   -1.7544748   0.10182856   -3.2975271    1.5430523   550682 
 6263000    1.2910283   -3.2984225   -1.7544801  0.096018414   -3.2984225    1.5439424   550706 
 6264000    1.2912607   -3.2985854   -1.7544241  0.095695687   -3.2985854    1.5441614   550727 
 6265000    1.2905881   -3.2990731   -1.7557833  0.096859336   -3.2990731    1.5432898   550751 
 6266000    1.2917137   -3.3009209   -1.7562598  0.093115539   -3.3009209    1.5446611   550742 
 6267000    1.2903706   -3.2993784   -1.7563655  0.099739688   -3.2993784    1.5430129   550757 
 6268000    1.2895003   -3.2973865   -1.7554618  0.098094401   -3.2973865    1.5419247   550774 
 6269000    1.2898471   -3.2987786   -1.7564786  0.093558704   -3.2987786    1.5423001   550788 
 6270000    1.2899658   -3.2997245   -1.7573748  0.099358673   -3.2997245    1.5423497   550821 
 6271000     1.290138   -3.2985788   -1.7560484  0.094616485   -3.2985788    1.5425304   550830 
 6272000    1.2899991   -3.2987236   -1.7563734  0.093078861   -3.2987236    1.5423502   550835 
 6273000    1.2902957   -3.2984047    -1.755781   0.09476369   -3.2984047    1.5426237   550864 
 6274000    1.2891089    -3.296698   -1.7555688  0.095404581    -3.296698    1.5411292   550891 
 6275000    1.2896733    -3.296739   -1.7550358   0.10121431    -3.296739    1.5417032   550927 
 6276000    1.2905305   -3.2973561   -1.7546926   0.10103564   -3.2973561    1.5426636   550950 
 6277000    1.2899899   -3.2969479   -1.7550342   0.10323603   -3.2969479    1.5419137   550987 
 6278000    1.2895126   -3.2965366   -1.7552409   0.09799911   -3.2965366    1.5412957   551004 
 6279000    1.2897825   -3.2972636   -1.7556313  0.096991909   -3.2972636    1.5416323   550999 
 6280000    1.2902293   -3.2969827   -1.7548974  0.095334285   -3.2969827    1.5420852   551028 
 6281000    1.2906531   -3.2977387   -1.7552365  0.095122897   -3.2977387    1.5425022   551060 
 6282000    1.2907154   -3.2986262   -1.7560664  0.099390936   -3.2986262    1.5425598   551066 
 6283000    1.2896979   -3.2963923   -1.7550933   0.10506483   -3.2963923     1.541299   551082 
 6284000    1.2898204   -3.2975751   -1.7561745  0.099351119   -3.2975751    1.5414006   551098 
 6285000    1.2912233   -3.2980866   -1.7550625  0.098119413   -3.2980866     1.543024   551117 
 6286000    1.2900525   -3.2967784   -1.7551731   0.10029403   -3.2967784    1.5416053   551124 
 6287000    1.2918743   -3.2989819   -1.7552696  0.095141609   -3.2989819    1.5437123   551149 
 6288000    1.2900871   -3.2973709   -1.7559228  0.097519933   -3.2973709    1.5414481   551195 
 6289000    1.2916125   -3.2994527    -1.756224   0.09603077   -3.2994527    1.5432287   551210 
 6290000    1.2904589   -3.2979375   -1.7561375  0.098051618   -3.2979375       1.5418   551228 
 6291000    1.2911824   -3.2993233   -1.7566897  0.098638807   -3.2993233    1.5426336   551239 
 6292000    1.2890574   -3.2953569   -1.7553264   0.09943903   -3.2953569    1.5400305   551262 
 6293000    1.2913712    -3.299176   -1.7564764  0.092169652    -3.299176    1.5426996   551296 
 6294000    1.2912223   -3.2997124   -1.7572521  0.097790603   -3.2997124    1.5424603   551318 
 6295000    1.2907641   -3.2981791   -1.7563249   0.10187544   -3.2981791    1.5418542   551339 
 6296000    1.2927112   -3.2997416   -1.7556148  0.097450789   -3.2997416    1.5441269   551358 
 6297000    1.2928299   -3.2996873   -1.7554999  0.099903864   -3.2996873    1.5441873   551387 
 6298000    1.2911098   -3.2982366   -1.7561989  0.096446883   -3.2982366    1.5420377   551421 
 6299000     1.292802   -3.2997399   -1.7556755  0.096300871   -3.2997399    1.5440644   551419 
 6300000    1.2933373   -3.3005209    -1.755862  0.091962662   -3.3005209    1.5446589   551435 
 6301000    1.2929503   -3.2994773   -1.7553282  0.095630453   -3.2994773    1.5441491   551452 
 6302000    1.2926047   -3.2992116    -1.755492    0.1014773   -3.2992116    1.5437196   551458 
 6303000    1.2913824   -3.2984208   -1.7562309    0.1023455   -3.2984208      1.54219   551483 
 6304000    1.2938775   -3.3000809   -1.7549785  0.096726907   -3.3000809    1.5451024   551507 
 6305000    1.2926288   -3.3000829   -1.7564997  0.095828258   -3.3000829    1.5435832   551517 
 6306000    1.2920292   -3.2989855   -1.7561462  0.094371033   -3.2989855    1.5428392   551527 
 6307000    1.2911065   -3.2987981   -1.7571361  0.098507758   -3.2987981     1.541662   551554 
 6308000     1.291173   -3.2996954   -1.7580519  0.096240656   -3.2996954    1.5416436   551589 
 6309000    1.2898956   -3.2986781   -1.7585988   0.09792132   -3.2986781    1.5400793   551603 
 6310000    1.2910287    -3.299622   -1.7582206  0.095314939    -3.299622    1.5414014   551614 
 6311000    1.2902959   -3.2982265      -1.7577  0.095185855   -3.2982265    1.5405265   551614 
 6312000    1.2909714   -3.2979341   -1.7566598  0.095383616   -3.2979341    1.5412743   551635 
 6313000    1.2910795   -3.2976221   -1.7562858  0.097166107   -3.2976221    1.5413363   551659 
 6314000    1.2924435   -3.2990826   -1.7561571  0.097932413   -3.2990826    1.5429255   551673 
 6315000    1.2916455   -3.2980635   -1.7561185  0.094195551   -3.2980635     1.541945   551683 
 6316000    1.2927093   -3.2981265   -1.7549788  0.095349002   -3.2981265    1.5431478   551707 
 6317000    1.2912376   -3.2974254   -1.7560932   0.10346189   -3.2974254    1.5413322   551728 
 6318000    1.2935018    -3.299921   -1.7559644  0.093108209    -3.299921    1.5439567   551756 
 6319000    1.2935044   -3.2989023   -1.7549369   0.09663937   -3.2989023    1.5439654   551754 
 6320000    1.2952311   -3.2987485   -1.7527585   0.10261079   -3.2987485      1.54599   551767 
 6321000    1.2957987   -3.2997433     -1.75316   0.10432263   -3.2997433    1.5465834   551797 
 6322000    1.2939967   -3.2989874    -1.754538  0.098296487   -3.2989874    1.5444494   551791 
 6323000    1.2939969    -3.298704   -1.7543102   0.10130248    -3.298704    1.5443937   551811 
 6324000    1.2936228   -3.2976308   -1.7537228  0.098993279   -3.2976308     1.543908   551825 
 6325000    1.2948533    -3.299444    -1.754129   0.10482439    -3.299444     1.545315   551847 
 6326000     1.293816   -3.2987813   -1.7547574  0.095443729   -3.2987813    1.5440239   551866 
 6327000     1.295178   -3.3003725   -1.7547792  0.099954199   -3.3003725    1.5455932   551886 
 6328000    1.2920167   -3.2971614    -1.755363  0.094649889   -3.2971614    1.5417984   551894 
 6329000    1.2929466   -3.2981463   -1.7552689  0.094741146   -3.2981463    1.5428774   551905 
 6330000    1.2933228   -3.2997534   -1.7564664  0.098132559   -3.2997534     1.543287   551919 
 6331000    1.2912457    -3.297815    -1.757026  0.093392468    -3.297815     1.540789   551926 
 6332000    1.2922367   -3.2990075   -1.7571198  0.092385713   -3.2990075    1.5418877   551956 
 6333000    1.2934951   -3.3007094   -1.7573649  0.099014534   -3.3007094    1.5433445   551972 
 6334000    1.2931162   -3.2995106   -1.7566517  0.099962572   -3.2995106    1.5428589   551984 
 6335000    1.2941771   -3.3003965   -1.7562606  0.097182281   -3.3003965    1.5441359   551980 
 6336000    1.2940882   -3.3004665   -1.7564954  0.094950506   -3.3004665    1.5439711   552001 
 6337000    1.2927462   -3.2998741   -1.7575098  0.096767983   -3.2998741    1.5423643   552003 
 6338000    1.2949412   -3.3012033   -1.7562929  0.099805851   -3.3012033    1.5449104   552029 
 6339000    1.2941411   -3.3006972   -1.7567638   0.10345445   -3.3006972    1.5439334   552037 
 6340000     1.292795   -3.2993683    -1.757077   0.10052005   -3.2993683    1.5422912   552050 
 6341000    1.2935927    -3.299688   -1.7564507   0.10045362    -3.299688    1.5432373   552052 
 6342000    1.2930535   -3.2994412   -1.7568556  0.098608359   -3.2994412    1.5425857   552055 
 6343000    1.2938154   -3.3014139   -1.7579445  0.093357265   -3.3014139    1.5434694   552064 
 6344000    1.2946697   -3.3026341   -1.7581344  0.093766505   -3.3026341    1.5444997   552060 
 6345000    1.2947293   -3.3025455   -1.7580669   0.10084904   -3.3025455    1.5444786   552093 
 6346000    1.2931061   -3.3005354   -1.7580407  0.099271562   -3.3005354    1.5424947   552110 
 6347000     1.292538   -3.3001283   -1.7583755  0.099594382   -3.3001283    1.5417528   552133 
 6348000    1.2937318   -3.3019977    -1.758888  0.095975233   -3.3019977    1.5431097   552157 
 6349000    1.2933966   -3.3019191   -1.7592595  0.096935105   -3.3019191    1.5426596   552175 
 6350000    1.2919945   -3.3006351   -1.7596702  0.097974017   -3.3006351     1.540965   552183 
 6351000    1.2950216   -3.3041983   -1.7597376  0.093921561   -3.3041983    1.5444607   552224 
 6352000    1.2935496   -3.3025502   -1.7598646  0.096403939   -3.3025502    1.5426856   552231 
 6353000     1.292835    -3.302132   -1.7603657  0.095688061    -3.302132    1.5417664   552255 
 6354000    1.2940697   -3.3032284    -1.760037   0.10061012   -3.3032284    1.5431913   552272 
 6355000    1.2929256   -3.3036171   -1.7618013  0.095013298   -3.3036171    1.5418158   552276 
 6356000    1.2929124   -3.3032381    -1.761505  0.095444864   -3.3032381    1.5417331   552300 
 6357000    1.2947536   -3.3042768    -1.760432  0.099470359   -3.3042768    1.5438448   552330 
 6358000     1.293409   -3.3029208   -1.7607324   0.10163551   -3.3029208    1.5421884   552349 
 6359000    1.2953575   -3.3042792   -1.7597647  0.097484081   -3.3042792    1.5445145   552348 
 6360000    1.2931696   -3.3021657   -1.7603185   0.09941293   -3.3021657    1.5418472   552369 
 6361000    1.2947929   -3.3041307    -1.760362  0.093020813   -3.3041307    1.5437687   552374 
 6362000    1.2955662   -3.3042901    -1.759619   0.10100076   -3.3042901    1.5446711   552381 
 6363000    1.2932006   -3.3020711   -1.7602791   0.09927742   -3.3020711     1.541792   552402 
 6364000    1.2958129    -3.303753   -1.7589276   0.10368576    -3.303753    1.5448253   552431 
 6365000    1.2947018   -3.3035607   -1.7601271  0.097194666   -3.3035607    1.5434336   552455 
 6366000    1.2950917   -3.3028906    -1.758992  0.098381374   -3.3028906    1.5438985   552455 
 6367000    1.2951949    -3.303654   -1.7596744  0.099076417    -3.303654    1.5439796   552470 
 6368000    1.2946647   -3.3047773   -1.7614689  0.094530721   -3.3047773    1.5433084   552484 
 6369000    1.2929572   -3.3023479   -1.7610971   0.09870541   -3.3023479    1.5412508   552492 
 6370000    1.2951944   -3.3047482    -1.760853   0.10202923   -3.3047482    1.5438952   552500 
 6371000     1.295128   -3.3044513   -1.7607248  0.091061387   -3.3044513    1.5437266   552532 
 6372000    1.2934371   -3.3027161   -1.7610357   0.10474589   -3.3027161    1.5416804   552543 
 6373000    1.2942284   -3.3038053   -1.7612319  0.099581485   -3.3038053    1.5425734   552561 
 6374000    1.2949519   -3.3040246   -1.7606559  0.095804049   -3.3040246    1.5433687   552585 
 6375000    1.2936371   -3.3031726   -1.7614045  0.098947055   -3.3031726    1.5417682   552597 
 6376000    1.2954335   -3.3050157   -1.7611401  0.096226804   -3.3050157    1.5438756   552609 
 6377000    1.2936861   -3.3031991   -1.7614004  0.098404973   -3.3031991    1.5417987   552607 
 6378000    1.2945551   -3.3051917   -1.7623714  0.091917835   -3.3051917    1.5428203   552612 
 6379000    1.2944116   -3.3039808   -1.7614096   0.10265067   -3.3039808    1.5425712   552640 
 6380000    1.2955483     -3.30474    -1.760884  0.094347761     -3.30474     1.543856   552665 
 6381000    1.2950777   -3.3043632   -1.7611547   0.10122304   -3.3043632    1.5432086   552696 
 6382000    1.2933588   -3.3032283   -1.7621516  0.094201871   -3.3032283    1.5410767   552726 
 6383000    1.2952303   -3.3058866    -1.762594  0.099315229   -3.3058866    1.5432927   552731 
 6384000     1.294346   -3.3049337   -1.7627086  0.097462188   -3.3049337    1.5422251   552736 
 6385000    1.2929987   -3.3036193   -1.7630246   0.10547777   -3.3036193    1.5405947   552745 
 6386000    1.2954591    -3.306595   -1.7630715  0.096142199    -3.306595    1.5435235   552746 
 6387000    1.2949461    -3.306012   -1.7631445   0.10340283    -3.306012    1.5428675   552762 
 6388000    1.2945016   -3.3055404    -1.763222  0.098595017   -3.3055404    1.5423184   552769 
 6389000    1.2956531    -3.306884   -1.7632188   0.09552626    -3.306884    1.5436652   552778 
 6390000      1.29539   -3.3073265   -1.7639915   0.10032866   -3.3073265     1.543335   552784 
 6391000    1.2940662   -3.3051955   -1.7634935   0.10341153   -3.3051955    1.5417021   552804 
 6392000    1.2945037    -3.305545   -1.7634165  0.096079124    -3.305545    1.5421285   552838 
 6393000    1.2936158   -3.3057011   -1.7646695    0.1010117   -3.3057011    1.5410316   552852 
 6394000    1.2950184   -3.3081138   -1.7655034  0.097605732   -3.3081138    1.5426104   552885 
 6395000    1.2957346   -3.3087245      -1.7653  0.096904365   -3.3087245    1.5434245   552899 
 6396000    1.2939452     -3.30643    -1.765201  0.095830845     -3.30643     1.541229   552922 
 6397000    1.2934044   -3.3054479   -1.7649301    0.1014965   -3.3054479    1.5405179   552946 
 6398000    1.2932137   -3.3055478    -1.765282   0.09296466   -3.3055478    1.5402657   552955 
 6399000    1.2945196   -3.3064489   -1.7646725  0.093939748   -3.3064489    1.5417765   552971 
 6400000    1.2927275   -3.3061742   -1.7666074  0.099252005   -3.3061742    1.5395669   552998 
 6401000    1.2911462   -3.3050435   -1.7674489   0.09472243   -3.3050435    1.5375947   553030 
 6402000    1.2937871   -3.3071135   -1.7664101  0.089130822   -3.3071135    1.5407034   553043 
 6403000    1.2939279   -3.3072414   -1.7664092  0.096652941   -3.3072414    1.5408321   553057 
 6404000    1.2951532   -3.3078321   -1.7656105  0.096847527   -3.3078321    1.5422215   553082 
 6405000    1.2945347   -3.3076284   -1.7662437   0.10024805   -3.3076284    1.5413847   553118 
 6406000    1.2952091   -3.3082395   -1.7661857  0.093074042   -3.3082395    1.5420538   553166 
 6407000    1.2952126    -3.307464   -1.7654031  0.097260303    -3.307464    1.5420608   553165 
 6408000    1.2946092   -3.3070907   -1.7658152  0.097775541   -3.3070907    1.5412755   553189 
 6409000       1.2948   -3.3069398   -1.7654845   0.10589575   -3.3069398    1.5414553   553206 
 6410000    1.2950408   -3.3056675   -1.7639785  0.097660879   -3.3056675     1.541689   553225 
 6411000    1.2953225   -3.3044648   -1.7624933   0.10512522   -3.3044648    1.5419715   553244 
 6412000    1.2963785   -3.3055972   -1.7623631   0.10541382   -3.3055972    1.5432341   553242 
 6413000    1.2970046   -3.3071739   -1.7632391  0.099277813   -3.3071739    1.5439348   553258 
 6414000    1.2973118    -3.306849   -1.7625904  0.094876675    -3.306849    1.5442586   553273 
 6415000    1.2976436    -3.306782   -1.7621732   0.09566156    -3.306782    1.5446089   553289 
 6416000    1.2975442   -3.3074194   -1.7629567  0.099527693   -3.3074194    1.5444627   553299 
 6417000    1.2967791   -3.3080148   -1.7644824  0.095882253   -3.3080148    1.5435325   553306 
 6418000    1.2952287    -3.306451    -1.764842  0.092576586    -3.306451     1.541609   553334 
 6419000    1.2955245   -3.3074894   -1.7656231  0.095174712   -3.3074894    1.5418663   553368 
 6420000    1.2950031   -3.3066461   -1.7654365  0.096653005   -3.3066461    1.5412096   553381 
 6421000    1.2936878   -3.3044092   -1.7648095   0.10241831   -3.3044092    1.5395997   553397 
 6422000    1.2954917   -3.3067883   -1.7650975   0.10533411   -3.3067883    1.5416908   553417 
 6423000    1.2955404   -3.3070211   -1.7653531   0.09718892   -3.3070211     1.541668   553446 
 6424000    1.2951766   -3.3066795   -1.7654501   0.10360174   -3.3066795    1.5412294   553448 
 6425000     1.296332   -3.3077347   -1.7652139   0.10185106   -3.3077347    1.5425208   553478 
 6426000     1.295755   -3.3070339   -1.7652415  0.095540837   -3.3070339    1.5417923   553493 
 6427000     1.295805    -3.307708    -1.765898  0.098400716    -3.307708      1.54181   553508 
 6428000    1.2965389   -3.3089615   -1.7663172  0.095857363   -3.3089615    1.5426443   553522 
 6429000    1.2961382   -3.3078944   -1.7657798   0.10462678   -3.3078944    1.5421146   553541 
 6430000    1.2957327   -3.3072441   -1.7656621   0.10071682   -3.3072441     1.541582   553559 
 6431000    1.2971445   -3.3081808   -1.7649721  0.095806852   -3.3081808    1.5432087   553578 
 6432000     1.296396   -3.3079122   -1.7656441   0.10481699   -3.3079122    1.5422681   553596 
 6433000     1.296589    -3.308331   -1.7658668  0.096147525    -3.308331    1.5424642   553608 
 6434000    1.2962226   -3.3092702   -1.7673031   0.10018944   -3.3092702    1.5419671   553630 
 6435000    1.2962016   -3.3098836   -1.7680334  0.098341054   -3.3098836    1.5418502   553663 
 6436000    1.2959032    -3.308624   -1.7672262     0.103729    -3.308624    1.5413978   553698 
 6437000    1.2973659   -3.3107529   -1.7676627  0.093130323   -3.3107529    1.5430902   553715 
 6438000     1.298463   -3.3117966   -1.7674461  0.094608732   -3.3117966    1.5443505   553731 
 6439000    1.2965107    -3.310554   -1.7685812  0.096906803    -3.310554    1.5419728   553751 
 6440000    1.2974693   -3.3115223   -1.7684874  0.096741014   -3.3115223    1.5430349   553779 
 6441000    1.2960816   -3.3103705   -1.7690472  0.092727657   -3.3103705    1.5413233   553801 
 6442000    1.2955639   -3.3091536   -1.7685461   0.10006482   -3.3091536    1.5406075   553837 
 6443000    1.2963086   -3.3108537   -1.7693747  0.093162365   -3.3108537    1.5414791   553842 
 6444000    1.2951743   -3.3091327    -1.769044  0.098671863   -3.3091327    1.5400886   553857 
 6445000    1.2963827   -3.3115351   -1.7700792  0.098335795   -3.3115351    1.5414559   553882 
 6446000    1.2970357   -3.3118918    -1.769679  0.093923974   -3.3118918    1.5422128   553889 
 6447000    1.2971233   -3.3114279   -1.7691805  0.094790683   -3.3114279    1.5422474   553914 
 6448000    1.2972836   -3.3123288   -1.7699882  0.097526726   -3.3123288    1.5423406   553949 
 6449000    1.2972382   -3.3109722   -1.7687163   0.10186881   -3.3109722    1.5422559   553960 
 6450000    1.2971496   -3.3109239   -1.7687789  0.096844287   -3.3109239     1.542145   553962 
 6451000    1.2970276   -3.3110449   -1.7691145  0.096742186   -3.3110449    1.5419304   553987 
 6452000    1.2966218   -3.3100095   -1.7686144   0.10451184   -3.3100095    1.5413951   554006 
 6453000    1.2983114   -3.3107358   -1.7673906  0.096691442   -3.3107358    1.5433451   554027 
 6454000    1.2979543   -3.3106143   -1.7677325  0.096800363   -3.3106143    1.5428818   554041 
 6455000    1.2968482   -3.3098033   -1.7683365  0.096231684   -3.3098033    1.5414667   554077 
 6456000    1.2954203   -3.3092909   -1.7695242  0.098933835   -3.3092909    1.5397667   554078 
 6457000    1.2959726    -3.310144   -1.7697513  0.094138877    -3.310144    1.5403926   554089 
 6458000    1.2963561   -3.3099546   -1.7691285  0.095356978   -3.3099546    1.5408261   554097 
 6459000    1.2951706   -3.3093591   -1.7699558   0.10320145   -3.3093591    1.5394033   554102 
 6460000    1.2949156    -3.308599    -1.769535  0.095982773    -3.308599     1.539064   554115 
 6461000    1.2957063   -3.3099383   -1.7699817  0.099487919   -3.3099383    1.5399566   554132 
 6462000    1.2965311   -3.3103318    -1.769431  0.096043435   -3.3103318    1.5409007   554145 
 6463000    1.2967371   -3.3089496   -1.7679153  0.094867974   -3.3089496    1.5410343   554185 
 6464000    1.2972548   -3.3102434   -1.7686523  0.095682211   -3.3102434    1.5415911   554206 
 6465000    1.2955449    -3.307468   -1.7679172  0.098896626    -3.307468    1.5395508   554209 
 6466000     1.298743   -3.3101879   -1.7668896  0.096874866   -3.3101879    1.5432983   554228 
 6467000    1.2967291   -3.3087727    -1.767962  0.099831696   -3.3087727    1.5408107   554262 
 6468000    1.2961066   -3.3081631   -1.7681364  0.098488947   -3.3081631    1.5400266   554278 
 6469000    1.2968269    -3.308442   -1.7676292  0.095575822    -3.308442    1.5408129   554303 
 6470000    1.2991493   -3.3102831    -1.766772   0.09293178   -3.3102831    1.5435111   554325 
 6471000    1.2990577   -3.3110206   -1.7677297  0.090193405   -3.3110206    1.5432909   554365 
 6472000     1.295668   -3.3077618   -1.7685674   0.10086038   -3.3077618    1.5391944   554390 
 6473000    1.2964158   -3.3085818   -1.7685352  0.099429454   -3.3085818    1.5400467   554403 
 6474000    1.2958352   -3.3084806   -1.7691902  0.099461493   -3.3084806    1.5392904   554427 
 6475000    1.2977322    -3.310125    -1.768623  0.095386819    -3.310125     1.541502   554442 
 6476000    1.2984857   -3.3102763   -1.7678821  0.095765647   -3.3102763    1.5423942   554443 
 6477000    1.2988045    -3.310307   -1.7676065  0.099152303    -3.310307    1.5427006   554469 
 6478000    1.2985237    -3.308529    -1.766251   0.10437853    -3.308529    1.5422781   554501 
 6479000    1.2982626   -3.3076601   -1.7657089   0.10533054   -3.3076601    1.5419513   554507 
 6480000     1.298668   -3.3093042   -1.7668936   0.10376375   -3.3093042    1.5424105   554515 
 6481000    1.2988734   -3.3101038     -1.76753  0.097850748   -3.3101038    1.5425738   554544 
 6482000    1.3000892   -3.3122568   -1.7682948   0.10024794   -3.3122568     1.543962   554564 
 6483000    1.2997992   -3.3111564   -1.7675444    0.1015157   -3.3111564     1.543612   554566 
 6484000    1.2980488   -3.3095385   -1.7680441  0.099834247   -3.3095385    1.5414944   554580 
 6485000    1.2975616   -3.3093192    -1.768434  0.098766616   -3.3093192    1.5408853   554591 
 6486000     1.298112   -3.3104148   -1.7688981   0.09512276   -3.3104148    1.5415167   554599 
 6487000    1.2975292   -3.3089445   -1.7681589  0.097091434   -3.3089445    1.5407857   554613 
 6488000    1.2970403    -3.309543   -1.7694074  0.098925155    -3.309543    1.5401356   554638 
 6489000    1.2972604   -3.3112676    -1.770929   0.10033625   -3.3112676    1.5403387   554659 
 6490000    1.2993914   -3.3133118   -1.7704734  0.094624306   -3.3133118    1.5428384   554670 
 6491000    1.2977862   -3.3110245   -1.7701809  0.094371308   -3.3110245    1.5408436   554702 
 6492000    1.2985207   -3.3123977   -1.7707682  0.092219793   -3.3123977    1.5416295   554733 
 6493000    1.2979259   -3.3125947   -1.7716991  0.096851843   -3.3125947    1.5408956   554743 
 6494000    1.2972489   -3.3122872   -1.7722759  0.096278382   -3.3122872    1.5400114   554772 
 6495000    1.2968134   -3.3107237    -1.771307  0.099501111   -3.3107237    1.5394166   554800 
 6496000    1.2993446   -3.3137137   -1.7713674  0.092824296   -3.3137137    1.5423463   554827 
 6497000     1.298286   -3.3120925   -1.7710639  0.097335118   -3.3120925    1.5410286   554849 
 6498000    1.2984413   -3.3119863     -1.77079   0.10223917   -3.3119863    1.5411963   554855 
 6499000    1.2984472   -3.3119615   -1.7707721   0.10398679   -3.3119615    1.5411894   554860 
 6500000    1.2989777   -3.3124765   -1.7707075   0.10212823   -3.3124765     1.541769   554878 
 6501000    1.2983697   -3.3122483   -1.7712565   0.10085883   -3.3122483    1.5409918   554898 
 6502000    1.2987068   -3.3123721   -1.7710302  0.095728413   -3.3123721    1.5413419   554916 
 6503000    1.2999877   -3.3138213   -1.7710564  0.098702634   -3.3138213    1.5427649   554951 
 6504000    1.2985362   -3.3131491    -1.772168  0.099634442   -3.3131491    1.5409811   554973 
 6505000    1.2981307   -3.3145919   -1.7741224   0.10218323   -3.3145919    1.5404695   554984 
 6506000    1.2987612   -3.3146694    -1.773499  0.097810579   -3.3146694    1.5411704   555001 
 6507000    1.2988981   -3.3144726   -1.7731646   0.10089668   -3.3144726     1.541308   555010 
 6508000    1.2993581   -3.3146078    -1.772754   0.09193621   -3.3146078    1.5418537   555010 
 6509000    1.2993491   -3.3140632   -1.7723007  0.097976471   -3.3140632    1.5417625   555039 
 6510000    1.2979815   -3.3125024   -1.7724542   0.09918318   -3.3125024    1.5400482   555072 
 6511000    1.2976052   -3.3124487   -1.7729108   0.10114526   -3.3124487    1.5395379   555095 
 6512000    1.2974992   -3.3130866   -1.7737549  0.097639183   -3.3130866    1.5393318   555124 
 6513000    1.2991176   -3.3141949   -1.7730208   0.09861713   -3.3141949    1.5411741   555152 
 6514000     1.298334   -3.3134288   -1.7732398   0.10285767   -3.3134288    1.5401889   555172 
 6515000    1.3002525   -3.3154238   -1.7729729  0.097212471   -3.3154238    1.5424509   555177 
 6516000    1.2995742    -3.315884   -1.7742821  0.098085252    -3.315884    1.5416019   555193 
 6517000    1.2995139   -3.3165678    -1.775043   0.09155587   -3.3165678    1.5415248   555195 
 6518000    1.2985591   -3.3161449   -1.7758137  0.099180356   -3.3161449    1.5403312   555217 
 6519000    1.2988797   -3.3165564    -1.775881  0.092075578   -3.3165564    1.5406753   555230 
 6520000    1.2977752   -3.3159494   -1.7766202  0.093579937   -3.3159494    1.5393292   555243 
 6521000    1.2982463   -3.3154313   -1.7756348  0.096501001   -3.3154313    1.5397965   555276 
 6522000    1.2974477   -3.3148863   -1.7760369  0.090860692   -3.3148863    1.5388493   555276 
 6523000    1.2963432   -3.3136923   -1.7761973  0.092240634   -3.3136923     1.537495   555292 
 6524000    1.2970735    -3.314552   -1.7762047  0.097061097    -3.314552    1.5383472   555297 
 6525000    1.2991371   -3.3159728   -1.7752502  0.092965463   -3.3159728    1.5407226   555323 
 6526000    1.2981889   -3.3153321   -1.7757701  0.098127452   -3.3153321     1.539562   555336 
 6527000    1.2990539   -3.3173704   -1.7768103  0.098039702   -3.3173704    1.5405601   555346 
 6528000    1.2974092   -3.3166799   -1.7780841  0.096674387   -3.3166799    1.5385958   555351 
 6529000    1.2988961    -3.316458   -1.7761793   0.10084087    -3.316458    1.5402787   555380 
 6530000    1.2981312   -3.3169161    -1.777611  0.096886115   -3.3169161    1.5393051   555404 
 6531000    1.2975353   -3.3153221   -1.7767513  0.099012252   -3.3153221    1.5385708   555414 
 6532000    1.2993016   -3.3171177   -1.7764829   0.09195696   -3.3171177    1.5406348   555425 
 6533000    1.2996247   -3.3167666   -1.7757876   0.10030027   -3.3167666     1.540979   555439 
 6534000    1.2995265   -3.3156626   -1.7748028   0.10077995   -3.3156626    1.5408597   555440 
 6535000    1.3007313   -3.3168059   -1.7745232   0.10023921   -3.3168059    1.5422827   555442 
 6536000    1.3017006   -3.3172275     -1.77384   0.10134922   -3.3172275    1.5433876   555458 
 6537000    1.2989126   -3.3152623   -1.7752025   0.10090605   -3.3152623    1.5400597   555466 
 6538000    1.2987575   -3.3159338   -1.7760828  0.099943467   -3.3159338     1.539851   555475 
 6539000    1.2999793   -3.3170126    -1.775763  0.097226557   -3.3170126    1.5412496   555493 
 6540000    1.3006952   -3.3171552   -1.7751262  0.097961938   -3.3171552     1.542029   555518 
 6541000    1.2999687   -3.3157955   -1.7746612    0.1038198   -3.3157955    1.5411343   555530 
 6542000    1.3017616   -3.3177267   -1.7745085   0.10077354   -3.3177267    1.5432182   555545 
 6543000    1.3027849   -3.3186121   -1.7742586  0.095348352   -3.3186121    1.5443535   555573 
 6544000    1.3004611     -3.31626   -1.7746807  0.098727246     -3.31626    1.5415794   555580 
 6545000    1.3007091   -3.3156997    -1.773868  0.099730913   -3.3156997    1.5418318   555595 
 6546000    1.3014483   -3.3170159   -1.7743551   0.10279567   -3.3170159    1.5426607   555612 
 6547000    1.3010162   -3.3165749   -1.7744485  0.097500177   -3.3165749    1.5421263   555620 
 6548000     1.300354   -3.3161048   -1.7747938   0.10293283   -3.3161048     1.541311   555631 
 6549000    1.3006815   -3.3164506   -1.7748347  0.094053548   -3.3164506    1.5416159   555661 
 6550000    1.3005907   -3.3151788   -1.7737454   0.10040826   -3.3151788    1.5414333   555688 
 6551000    1.3003187   -3.3149345   -1.7738485      0.10331   -3.3149345     1.541086   555697 
 6552000    1.3008897   -3.3152749   -1.7735703   0.09885519   -3.3152749    1.5417045   555718 
 6553000     1.299618   -3.3147622   -1.7746119   0.10112358   -3.3147622    1.5401503   555735 
 6554000    1.3016476   -3.3171714   -1.7746713  0.096195357   -3.3171714    1.5425001   555755 
 6555000     1.298998   -3.3147668   -1.7754786  0.096264293   -3.3147668    1.5392882   555781 
 6556000    1.3014286   -3.3163829     -1.77427  0.096145242   -3.3163829    1.5421129   555801 
 6557000    1.3006442   -3.3154791   -1.7743817  0.094110907   -3.3154791    1.5410974   555832 
 6558000    1.2992502   -3.3141851   -1.7748058   0.10306065   -3.3141851    1.5393793   555856 
 6559000    1.2997773   -3.3158346   -1.7758586  0.094880033   -3.3158346    1.5399761   555866 
 6560000    1.3006065    -3.315757   -1.7748096  0.099285897    -3.315757    1.5409474   555870 
 6561000    1.2996271   -3.3134589   -1.7737355  0.097944926   -3.3134589    1.5397234   555893 
 6562000    1.2998324   -3.3140793   -1.7741903  0.098745757   -3.3140793     1.539889   555921 
 6563000     1.299348   -3.3143942    -1.775104  0.099561615   -3.3143942    1.5392902   555930 
 6564000    1.2989714   -3.3148101   -1.7759882  0.096713615   -3.3148101    1.5388219   555938 
 6565000    1.2991572   -3.3144945   -1.7755356  0.091980825   -3.3144945    1.5389589   555968 
 6566000    1.2998767   -3.3158107    -1.776041  0.093217502   -3.3158107    1.5397697   555983 
 6567000    1.2981314   -3.3156373   -1.7779737  0.093470927   -3.3156373    1.5376636   555997 
 6568000    1.2999733   -3.3170805   -1.7773182  0.099073431   -3.3170805    1.5397623   556027 
 6569000    1.2992304   -3.3162441    -1.777406  0.099385619   -3.3162441    1.5388381   556043 
 6570000     1.299813   -3.3170177   -1.7774979   0.10089842   -3.3170177    1.5395198   556046 
 6571000    1.3013902   -3.3180397   -1.7767239  0.095544319   -3.3180397    1.5413158   556072 
 6572000    1.3004815   -3.3170875   -1.7768673  0.097002511   -3.3170875    1.5402202   556079 
 6573000     1.301844   -3.3193895   -1.7776028   0.10503525   -3.3193895    1.5417867   556096 
 6574000    1.3038673   -3.3215587   -1.7774064   0.10189713   -3.3215587    1.5441524   556107 
 6575000    1.3034689   -3.3195815   -1.7759509  0.094734258   -3.3195815    1.5436306   556125 
 6576000    1.3028884   -3.3189798   -1.7760589   0.10033403   -3.3189798     1.542921   556133 
 6577000     1.302634   -3.3187487   -1.7761124   0.10091949   -3.3187487    1.5426363   556127 
 6578000    1.3027109   -3.3189585   -1.7763171   0.10256675   -3.3189585    1.5426415   556158 
 6579000    1.3021864    -3.318852   -1.7768538   0.10586688    -3.318852    1.5419982   556166 
 6580000    1.3035369   -3.3197655    -1.776182  0.097991314   -3.3197655    1.5435835   556171 
 6581000    1.3005463   -3.3174998   -1.7775103   0.10621696   -3.3174998    1.5399895   556190 
 6582000    1.3011917   -3.3174767   -1.7767451   0.10334581   -3.3174767    1.5407317   556198 
 6583000    1.3019825    -3.319878    -1.778246    0.1008951    -3.319878    1.5416319   556211 
 6584000    1.3005731   -3.3183469   -1.7784309  0.099022555   -3.3183469    1.5399161   556228 
 6585000    1.2995336   -3.3176352   -1.7790467   0.10011231   -3.3176352    1.5385885   556263 
 6586000    1.3012504   -3.3191964   -1.7786252   0.10307114   -3.3191964    1.5405712   556281 
 6587000    1.3003006   -3.3188985   -1.7795154   0.10237219   -3.3188985    1.5393831   556304 
 6588000    1.3020982   -3.3212588   -1.7797836   0.10351655   -3.3212588    1.5414752   556317 
 6589000    1.3013684   -3.3197765   -1.7791708  0.092237999   -3.3197765    1.5406057   556319 
 6590000    1.3009789   -3.3186105   -1.7785821   0.10221684   -3.3186105    1.5400284   556361 
 6591000    1.3007996   -3.3194642   -1.7796869  0.099163254   -3.3194642    1.5397773   556375 
 6592000     1.303198   -3.3218504   -1.7792923  0.094236233   -3.3218504    1.5425581   556396 
 6593000    1.3017736   -3.3188854   -1.7780437  0.097889618   -3.3188854    1.5408416   556407 
 6594000    1.3013816   -3.3177524   -1.7774052   0.10014106   -3.3177524    1.5403472   556418 
 6595000    1.3021439   -3.3194527   -1.7781949  0.098081546   -3.3194527    1.5412578   556415 
 6596000    1.3023065   -3.3208457   -1.7794175  0.098071547   -3.3208457    1.5414281   556423 
 6597000    1.3005127   -3.3183847   -1.7791462  0.099704439   -3.3183847    1.5392385   556447 
 6598000    1.3025642   -3.3213139   -1.7797028    0.0959597   -3.3213139    1.5416111   556467 
 6599000    1.3003455   -3.3196229   -1.7806458  0.094005209   -3.3196229     1.538977   556470 
 6600000    1.3007468   -3.3196358   -1.7802225   0.10130986   -3.3196358    1.5394133   556484 
 6601000    1.3006264   -3.3196742    -1.780398  0.099059621   -3.3196742    1.5392763   556482 
 6602000    1.3009758   -3.3191325   -1.7794787  0.097721753   -3.3191325    1.5396538   556495 
 6603000    1.2991936     -3.31775   -1.7802578   0.10047526     -3.31775    1.5374922   556514 
 6604000    1.3011329   -3.3201846   -1.7804528   0.08925778   -3.3201846    1.5397318   556534 
 6605000    1.3013739   -3.3193163   -1.7793325  0.092530612   -3.3193163    1.5399839   556546 
 6606000    1.2985756   -3.3163709   -1.7797344     0.104022   -3.3163709    1.5366366   556559 
 6607000    1.3001889   -3.3173684    -1.778845  0.096536444   -3.3173684    1.5385235   556567 
 6608000    1.3026321   -3.3197655   -1.7783731  0.095364132   -3.3197655    1.5413924   556575 
 6609000    1.3035343   -3.3215296   -1.7791057  0.093099618   -3.3215296     1.542424   556588 
 6610000    1.3019953   -3.3195515   -1.7789901   0.10427776   -3.3195515    1.5405614   556603 
 6611000    1.3025753   -3.3215842   -1.7803891  0.094416947   -3.3215842    1.5411951   556622 
 6612000    1.3000549   -3.3189824   -1.7808551  0.096360342   -3.3189824    1.5381273   556653 
 6613000    1.2999919   -3.3195525   -1.7815689  0.098518611   -3.3195525    1.5379836   556678 
 6614000    1.3008304    -3.319438   -1.7805204  0.097121573    -3.319438    1.5389176   556699 
 6615000    1.3031595   -3.3228343   -1.7812168  0.099174621   -3.3228343    1.5416176   556719 
 6616000    1.3022421   -3.3216964   -1.7812222   0.10035494   -3.3216964    1.5404742   556740 
 6617000     1.302232   -3.3229958   -1.7825501   0.10016806   -3.3229958    1.5404457   556746 
 6618000     1.301224   -3.3228854   -1.7836735  0.092550238   -3.3228854    1.5392119   556761 
 6619000    1.3017131   -3.3230051   -1.7832506  0.097951486   -3.3230051    1.5397545   556774 
 6620000    1.3021325   -3.3230286    -1.782825  0.094957005   -3.3230286    1.5402035   556791 
 6621000    1.3019557   -3.3224888   -1.7825553  0.098024474   -3.3224888    1.5399335   556813 
 6622000    1.2997917   -3.3199601   -1.7826248   0.10271994   -3.3199601    1.5373353   556827 
 6623000    1.3017128   -3.3221281   -1.7825676  0.091301522   -3.3221281    1.5395605   556844 
 6624000    1.3019546   -3.3227724   -1.7829785  0.091635192   -3.3227724    1.5397939   556863 
 6625000    1.3000838   -3.3205816   -1.7829947   0.09882678   -3.3205816    1.5375869   556861 
 6626000    1.3008957   -3.3219313   -1.7834201  0.094322667   -3.3219313    1.5385112   556874 
 6627000    1.3011463   -3.3223883   -1.7835918  0.095669483   -3.3223883    1.5387965   556878 
 6628000    1.3008641   -3.3227258   -1.7842961   0.10027855   -3.3227258    1.5384297   556890 
 6629000    1.3006961   -3.3228725   -1.7846525  0.098703865   -3.3228725      1.53822   556894 
 6630000    1.3015395   -3.3243932    -1.785187  0.096426157   -3.3243932    1.5392062   556898 
 6631000    1.3017831   -3.3244938   -1.7850187  0.097677701   -3.3244938     1.539475   556905 
 6632000    1.3005722   -3.3239105    -1.785909  0.098128122   -3.3239105    1.5380015   556920 
 6633000    1.3021668   -3.3257442    -1.785951  0.095000496   -3.3257442    1.5397932   556954 
 6634000    1.3001364     -3.32325   -1.7859239  0.098895277     -3.32325    1.5373262   556978 
 6635000    1.3000785   -3.3233537   -1.7861347   0.10502222   -3.3233537     1.537219   556992 
 6636000    1.3015103   -3.3242199   -1.7853549   0.10451384   -3.3242199     1.538865   557009 
 6637000    1.3012991   -3.3244182   -1.7858305  0.095162443   -3.3244182    1.5385877   557019 
 6638000    1.3013524   -3.3238768   -1.7852841   0.10037233   -3.3238768    1.5385927   557040 
 6639000    1.3024778   -3.3263309   -1.7864934  0.094098001   -3.3263309    1.5398375   557071 
 6640000     1.301251   -3.3241742   -1.7858423   0.10060025   -3.3241742     1.538332   557091 
 6641000    1.3014097   -3.3247258   -1.7862476  0.089647628   -3.3247258    1.5384782   557106 
 6642000    1.3021578   -3.3249185    -1.785614   0.10077814   -3.3249185    1.5393045   557127 
 6643000    1.3041942   -3.3263638   -1.7847046  0.095367124   -3.3263638    1.5416592   557146 
 6644000    1.3031446   -3.3253566   -1.7849879  0.097471948   -3.3253566    1.5403687   557164 
 6645000    1.3036581   -3.3251386   -1.7842016  0.099246979   -3.3251386    1.5409369   557178 
 6646000    1.3028051   -3.3244529   -1.7846181   0.10277743   -3.3244529    1.5398348   557212 
 6647000    1.3049487   -3.3274233   -1.7850909   0.10061509   -3.3274233    1.5423324   557225 
 6648000    1.3023139   -3.3249759   -1.7857576   0.10159613   -3.3249759    1.5392183   557225 
 6649000    1.3025584   -3.3245917   -1.7851176  0.097986789   -3.3245917    1.5394741   557237 
 6650000    1.3035017   -3.3248534    -1.784303   0.10275374   -3.3248534    1.5405503   557251 
 6651000    1.3023837   -3.3244878   -1.7852726  0.095931482   -3.3244878    1.5392152   557256 
 6652000    1.3019789   -3.3237423   -1.7850276   0.10307758   -3.3237423    1.5387147   557264 
 6653000    1.3007716   -3.3217326   -1.7845027   0.10368144   -3.3217326      1.53723   557285 
 6654000    1.3027444   -3.3235207   -1.7840036  0.099836987   -3.3235207    1.5395172   557301 
 6655000    1.3035086   -3.3243794   -1.7839702   0.10117525   -3.3243794    1.5404091   557305 
 6656000    1.3021703   -3.3234713   -1.7847043   0.10013885   -3.3234713    1.5387669   557327 
 6657000    1.3025214   -3.3244185   -1.7853002   0.09861356   -3.3244185    1.5391183   557350 
 6658000    1.3032201   -3.3248597   -1.7849379   0.10052578   -3.3248597    1.5399218   557358 
 6659000    1.3055017   -3.3275328   -1.7849787  0.096312906   -3.3275328    1.5425541   557381 
 6660000    1.3036282   -3.3248105   -1.7845308   0.09737951   -3.3248105    1.5402797   557403 
 6661000    1.3041944    -3.325101    -1.784216  0.099596139    -3.325101     1.540885   557426 
 6662000    1.3044727   -3.3250812   -1.7839227  0.092222796   -3.3250812    1.5411585   557446 
 6663000    1.3037023   -3.3231878   -1.7829919  0.095213141   -3.3231878    1.5401959   557465 
 6664000    1.3046127   -3.3241184   -1.7829354   0.10576299   -3.3241184    1.5411829   557497 
 6665000    1.3066014   -3.3260655   -1.7825887   0.10304632   -3.3260655    1.5434769   557517 
 6666000    1.3045012   -3.3236043   -1.7826664   0.10676648   -3.3236043     1.540938   557538 
 6667000    1.3055318   -3.3261016   -1.7840403   0.10045067   -3.3261016    1.5420613   557572 
 6668000    1.3046229     -3.32567   -1.7847624   0.09760457     -3.32567    1.5409076   557601 
 6669000    1.3056725   -3.3263514   -1.7843037   0.10125435   -3.3263514    1.5420477   557637 
 6670000     1.303983    -3.325111   -1.7851139   0.10425781    -3.325111    1.5399971   557657 
 6671000    1.3027604    -3.325182   -1.7866757  0.094155536    -3.325182    1.5385063   557674 
 6672000    1.3036723    -3.326158   -1.7865803  0.096466444    -3.326158    1.5395778   557676 
 6673000    1.3044161   -3.3263561   -1.7859912   0.10066367   -3.3263561    1.5403649   557709 
 6674000    1.3035639   -3.3252703   -1.7859615   0.10006877   -3.3252703    1.5393089   557727 
 6675000    1.3043041   -3.3259902   -1.7858624   0.10294711   -3.3259902    1.5401278   557747 
 6676000    1.3019417   -3.3250451   -1.7877482   0.10342482   -3.3250451    1.5372969   557762 
 6677000    1.3021439   -3.3246387   -1.7871416  0.096450348   -3.3246387    1.5374971   557776 
 6678000    1.3017971    -3.324999   -1.7879941  0.097949228    -3.324999    1.5370049   557806 
 6679000    1.3027565   -3.3263496   -1.7882505  0.099521907   -3.3263496    1.5380991   557820 
 6680000     1.306358   -3.3295739   -1.7872504   0.10237416   -3.3295739    1.5423235   557830 
 6681000    1.3051011   -3.3294686   -1.7886539  0.093524905   -3.3294686    1.5408147   557839 
 6682000    1.3027747   -3.3265649   -1.7885905   0.10456705   -3.3265649    1.5379744   557873 
 6683000    1.3047679   -3.3285618   -1.7882592  0.094775616   -3.3285618    1.5403026   557882 
 6684000     1.304527   -3.3280816   -1.7881351   0.09725308   -3.3280816    1.5399465   557908 
 6685000    1.3024472    -3.325208   -1.7877305   0.10211868    -3.325208    1.5374775   557913 
 6686000    1.3054434   -3.3288975   -1.7879245    0.1010479   -3.3288975     1.540973   557928 
 6687000    1.3028661   -3.3263456   -1.7884481   0.10199601   -3.3263456    1.5378976   557940 
 6688000    1.3026062   -3.3258865   -1.7883342   0.10482259   -3.3258865    1.5375523   557954 
 6689000    1.3042133   -3.3281777    -1.788723   0.09475702   -3.3281777    1.5394547   557952 
 6690000    1.3026658   -3.3265803   -1.7889632    0.1006846   -3.3265803    1.5376171   557956 
 6691000    1.3059845   -3.3297272   -1.7882482   0.10298199   -3.3297272     1.541479   557976 
 6692000    1.3058003   -3.3288407   -1.7876287  0.098979033   -3.3288407     1.541212   557994 
 6693000    1.3041777   -3.3279993   -1.7887136  0.094689142   -3.3279993    1.5392858   557998 
 6694000    1.3046036   -3.3282302   -1.7885108  0.096212578   -3.3282302    1.5397194   558023 
 6695000    1.3033749   -3.3269411   -1.7886773   0.09817337   -3.3269411    1.5382639   558025 
 6696000    1.3042462   -3.3281516   -1.7889229   0.10074912   -3.3281516    1.5392287   558048 
 6697000    1.3038984   -3.3275305    -1.788784  0.099308866   -3.3275305    1.5387465   558074 
 6698000    1.3036152   -3.3271059   -1.7887322   0.10132046   -3.3271059    1.5383737   558088 
 6699000    1.3043395   -3.3281731   -1.7890136  0.095598292   -3.3281731    1.5391595   558113 
 6700000    1.3035299   -3.3268051   -1.7886064  0.097202754   -3.3268051    1.5381987   558115 
 6701000    1.3029221   -3.3263792   -1.7889225  0.097963405   -3.3263792    1.5374567   558124 
 6702000    1.3039107   -3.3264523   -1.7878869   0.10766884   -3.3264523    1.5385654   558145 
 6703000    1.3031624   -3.3268202   -1.7891461  0.098271238   -3.3268202    1.5376741   558148 
 6704000    1.3047945   -3.3277032   -1.7880923  0.093974064   -3.3277032    1.5396109   558144 
 6705000    1.3038763   -3.3265326   -1.7880079  0.098330065   -3.3265326    1.5385248   558145 
 6706000    1.3050075   -3.3270194   -1.7872233  0.095890255   -3.3270194    1.5397961   558168 
 6707000    1.3056931   -3.3270115   -1.7864755   0.09808424   -3.3270115     1.540536   558193 
 6708000    1.3057692   -3.3270743   -1.7864596   0.10070459   -3.3270743    1.5406147   558197 
 6709000    1.3045417   -3.3265944   -1.7874803   0.10148918   -3.3265944    1.5391141   558216 
 6710000    1.3048841    -3.326892   -1.7873767  0.097474311    -3.326892    1.5395153   558217 
 6711000    1.3039185   -3.3263627   -1.7879811   0.10276306   -3.3263627    1.5383816   558215 
 6712000    1.3038032   -3.3270568   -1.7888085  0.092497244   -3.3270568    1.5382483   558214 
 6713000    1.3059247   -3.3289894   -1.7882823  0.092593625   -3.3289894    1.5407071   558230 
 6714000    1.3043945   -3.3276241   -1.7887581  0.094976247   -3.3276241     1.538866   558243 
 6715000    1.3035258   -3.3267245   -1.7889577   0.09844961   -3.3267245    1.5377668   558270 
 6716000    1.3034602   -3.3275559   -1.7898996  0.095674051   -3.3275559    1.5376563   558282 
 6717000    1.3032487   -3.3273803   -1.7900038  0.097798886   -3.3273803    1.5373765   558293 
 6718000    1.3044667   -3.3275186   -1.7887576  0.098800914   -3.3275186     1.538761   558312 
 6719000     1.301988   -3.3252677   -1.7894334  0.099459659   -3.3252677    1.5358343   558313 
 6720000    1.3047216    -3.329004    -1.790003  0.094604319    -3.329004     1.539001   558334 
 6721000    1.3031732   -3.3277693   -1.7906443  0.096539533   -3.3277693     1.537125   558352 
 6722000    1.3008288   -3.3261314     -1.79181  0.095739677   -3.3261314    1.5343213   558366 
 6723000    1.3034633   -3.3287023   -1.7912737  0.099692781   -3.3287023    1.5374286   558366 
 6724000    1.3037381   -3.3291698   -1.7914363  0.097501789   -3.3291698    1.5377336   558373 
 6725000    1.3033096   -3.3293054   -1.7921406  0.094612154   -3.3293054    1.5371648   558396 
 6726000    1.3043939   -3.3302353   -1.7918524  0.091739182   -3.3302353     1.538383   558418 
 6727000    1.3029569   -3.3284343   -1.7917515  0.099586889   -3.3284343    1.5366828   558420 
 6728000     1.302566   -3.3292461   -1.7930794  0.094252974   -3.3292461    1.5361667   558440 
 6729000    1.3031991   -3.3283965   -1.7915079   0.10255997   -3.3283965    1.5368886   558449 
 6730000    1.3048782   -3.3296708   -1.7907965   0.10371672   -3.3296708    1.5388743   558447 
 6731000    1.3058779   -3.3310931   -1.7911005   0.10426471   -3.3310931    1.5399926   558469 
 6732000      1.30433   -3.3291533   -1.7909971  0.099352407   -3.3291533    1.5381561   558473 
 6733000    1.3033251   -3.3277291   -1.7907827  0.098702531   -3.3277291    1.5369464   558482 
 6734000    1.3044405   -3.3291226    -1.790872   0.10186211   -3.3291226    1.5382506   558486 
 6735000    1.3057822   -3.3307717   -1.7909912  0.099277173   -3.3307717    1.5397804   558505 
 6736000    1.3049038   -3.3304634   -1.7917766   0.10071566   -3.3304634    1.5386868   558526 
 6737000    1.3048713   -3.3296755   -1.7910987  0.097826186   -3.3296755    1.5385769   558552 
 6738000    1.3038823   -3.3290793   -1.7917098  0.095105634   -3.3290793    1.5373695   558567 
 6739000    1.3054742   -3.3310663   -1.7918751   0.10137642   -3.3310663    1.5391913   558587 
 6740000    1.3048491   -3.3293812   -1.7909792    0.1013029   -3.3293812     1.538402   558606 
 6741000    1.3036093    -3.327079    -1.790191   0.10231367    -3.327079     1.536888   558625 
 6742000    1.3065297   -3.3313099   -1.7910147  0.099708296   -3.3313099    1.5402951   558638 
 6743000    1.3062409   -3.3302441   -1.7903445   0.10094436   -3.3302441    1.5398996   558658 
 6744000    1.3054074   -3.3290131   -1.7901321  0.099738184   -3.3290131    1.5388811   558671 
 6745000    1.3075444   -3.3311182   -1.7897372  0.094218036   -3.3311182     1.541381   558678 
 6746000    1.3061038   -3.3293134   -1.7896471   0.09995493   -3.3293134    1.5396662   558684 
 6747000    1.3052127   -3.3300306   -1.7914561  0.097737667   -3.3300306    1.5385745   558699 
 6748000    1.3059243   -3.3312702   -1.7919506    0.1003088   -3.3312702    1.5393196   558733 
 6749000    1.3060212   -3.3314457   -1.7920394  0.095644977   -3.3314457    1.5394063   558743 
 6750000    1.3045358   -3.3290808   -1.7914446  0.096585887   -3.3290808    1.5376363   558750 
 6751000    1.3052532   -3.3287838   -1.7903846  0.098057165   -3.3287838    1.5383992   558780 
 6752000    1.3053047   -3.3282587   -1.7898621  0.096953722   -3.3282587    1.5383966   558803 
 6753000    1.3058327   -3.3294665   -1.7904532    0.1011215   -3.3294665    1.5390133   558805 
 6754000    1.3060663   -3.3289506   -1.7896784  0.097807759   -3.3289506    1.5392721   558811 
 6755000    1.3070459   -3.3299019   -1.7895497  0.098629173   -3.3299019    1.5403522   558838 
 6756000    1.3058786   -3.3289689   -1.7900502   0.10035746   -3.3289689    1.5389187   558859 
 6757000    1.3055159   -3.3291437   -1.7907019  0.096090946   -3.3291437    1.5384418   558877 
 6758000    1.3056782     -3.32963   -1.7910382   0.10231581     -3.32963    1.5385918   558892 
 6759000    1.3053504   -3.3292244    -1.791041  0.089952358   -3.3292244    1.5381834   558900 
 6760000    1.3040005   -3.3282489   -1.7917304  0.098950205   -3.3282489    1.5365185   558927 
 6761000    1.3060455   -3.3300683   -1.7911869  0.096052307   -3.3300683    1.5388814   558944 
 6762000    1.3066075   -3.3308233   -1.7913018  0.097135819   -3.3308233    1.5395216   558952 
 6763000    1.3038046   -3.3271802   -1.7909887   0.10845124   -3.3271802    1.5361914   558962 
 6764000     1.307471   -3.3312746    -1.790766  0.098325647   -3.3312746    1.5405086   558963 
 6765000    1.3059849   -3.3301879   -1.7914935   0.09692425   -3.3301879    1.5386944   558986 
 6766000    1.3065112   -3.3311279   -1.7918409  0.097006852   -3.3311279    1.5392869   558996 
 6767000    1.3060175   -3.3305909   -1.7919489  0.098641832   -3.3305909     1.538642   559019 
 6768000    1.3066406   -3.3305707   -1.7912635   0.10144994   -3.3305707    1.5393072   559044 
 6769000     1.306659   -3.3315271   -1.7922341    0.1014321   -3.3315271    1.5392931   559057 
 6770000    1.3060019   -3.3314976   -1.7930392  0.098827122   -3.3314976    1.5384584   559079 
 6771000    1.3072663   -3.3325771   -1.7926871  0.098230959   -3.3325771      1.53989   559100 
 6772000     1.304998   -3.3297758   -1.7925826   0.10555861   -3.3297758    1.5371933   559109 
 6773000     1.306396   -3.3304504   -1.7916296   0.10480693   -3.3304504    1.5388208   559116 
 6774000    1.3055981   -3.3310745   -1.7932293   0.10439315   -3.3310745    1.5378452   559129 
 6775000    1.3060336   -3.3323432   -1.7939905   0.10459242   -3.3323432    1.5383527   559131 
 6776000    1.3082065    -3.333065   -1.7922163   0.10378473    -3.333065    1.5408487   559154 
 6777000     1.308952   -3.3339985   -1.7923158   0.10117388   -3.3339985    1.5416827   559170 
 6778000    1.3070038   -3.3316474   -1.7923034   0.10304917   -3.3316474     1.539344   559186 
 6779000    1.3068662    -3.332701   -1.7935824  0.096092968    -3.332701    1.5391186   559209 
 6780000    1.3069614   -3.3320558   -1.7928223   0.10005145   -3.3320558    1.5392335   559208 
 6781000    1.3069158   -3.3318468   -1.7926642    0.1003011   -3.3318468    1.5391826   559207 
 6782000    1.3078923    -3.332374   -1.7920993  0.099423726    -3.332374    1.5402747   559228 
 6783000    1.3073579   -3.3323044   -1.7927443   0.10268147   -3.3323044    1.5395601   559259 
 6784000    1.3065366    -3.331741   -1.7932004   0.10273319    -3.331741    1.5385406   559278 
 6785000    1.3054262   -3.3302775   -1.7930554   0.10294073   -3.3302775    1.5372221   559282 
 6786000    1.3085558   -3.3335354   -1.7926666  0.097593559   -3.3335354    1.5408688   559296 
 6787000     1.306754   -3.3313773   -1.7926273   0.10039145   -3.3313773    1.5387499   559295 
 6788000    1.3069736   -3.3318711   -1.7929039   0.10040422   -3.3318711    1.5389672   559310 
 6789000    1.3069898   -3.3310079   -1.7920877   0.09411963   -3.3310079    1.5389202   559334 
 6790000    1.3066263   -3.3304391   -1.7920046   0.10190788   -3.3304391    1.5384345   559355 
 6791000    1.3056546    -3.329626   -1.7924236   0.10089439    -3.329626    1.5372024   559387 
 6792000    1.3061318    -3.329746   -1.7920257   0.10189356    -3.329746    1.5377203   559403 
 6793000    1.3073736   -3.3307904   -1.7916412  0.094778805   -3.3307904    1.5391492   559415 
 6794000    1.3073702    -3.330451   -1.7913718  0.098610866    -3.330451    1.5390792   559439 
 6795000    1.3055917   -3.3289752   -1.7920199   0.10548445   -3.3289752    1.5369553   559450 
 6796000    1.3071463   -3.3305492   -1.7917748  0.092901335   -3.3305492    1.5387744   559454 
 6797000    1.3063048    -3.330132   -1.7924196  0.096414975    -3.330132    1.5377124   559480 
 6798000    1.3056375   -3.3293803   -1.7924919    0.1002668   -3.3293803    1.5368883   559494 
 6799000    1.3081346   -3.3323867   -1.7925727  0.096187767   -3.3323867     1.539814   559499 
 6800000     1.306684   -3.3302086   -1.7921434   0.10234142   -3.3302086    1.5380652   559514 
 6801000    1.3093152   -3.3334747   -1.7923839  0.090390164   -3.3334747    1.5410907   559540 
 6802000    1.3070931   -3.3305797   -1.7921182   0.09668804   -3.3305797    1.5384615   559545 
 6803000    1.3072163   -3.3315998   -1.7930235   0.10145665   -3.3315998    1.5385763   559556 
 6804000    1.3056587   -3.3290077   -1.7923307  0.099576725   -3.3290077     1.536677   559580 
 6805000    1.3070681   -3.3313706   -1.7930623  0.097830023   -3.3313706    1.5383084   559590 
 6806000    1.3068411   -3.3303873   -1.7923901  0.093490713   -3.3303873    1.5379972   559606 
 6807000    1.3062211   -3.3291829   -1.7919867  0.098750121   -3.3291829    1.5371962   559632 
 6808000    1.3070317   -3.3304383   -1.7923707   0.10144387   -3.3304383    1.5380676   559662 
 6809000    1.3071856   -3.3308263   -1.7926462  0.099869052   -3.3308263    1.5381801   559687 
 6810000    1.3068225   -3.3312535   -1.7935392  0.097420942   -3.3312535    1.5377143   559701 
 6811000    1.3072406   -3.3313359   -1.7931736  0.095633701   -3.3313359    1.5381623   559717 
 6812000    1.3074125    -3.332224   -1.7939171  0.097438446    -3.332224    1.5383069   559738 
 6813000    1.3078083   -3.3329042    -1.794151  0.097409886   -3.3329042    1.5387532   559745 
 6814000    1.3071385    -3.331654   -1.7937712   0.10869538    -3.331654    1.5378828   559775 
 6815000    1.3084578   -3.3327041   -1.7932637   0.10393938   -3.3327041    1.5394405   559773 
 6816000    1.3063967   -3.3311967    -1.794269  0.095554332   -3.3311967    1.5369277   559805 
 6817000    1.3080442    -3.333669   -1.7948553  0.097317728    -3.333669    1.5388137   559824 
 6818000    1.3077613   -3.3327346   -1.7943252   0.10043555   -3.3327346    1.5384094   559850 
 6819000     1.306689   -3.3321523   -1.7950043   0.10363327   -3.3321523     1.537148   559850 
 6820000    1.3083247   -3.3340172    -1.794989   0.10086339   -3.3340172    1.5390282   559866 
 6821000    1.3064292   -3.3319215   -1.7951889  0.099458551   -3.3319215    1.5367325   559890 
 6822000    1.3078355   -3.3342215   -1.7958595   0.09527142   -3.3342215    1.5383621   559899 
 6823000    1.3071091   -3.3336561   -1.7962336    0.1021403   -3.3336561    1.5374225   559930 
 6824000    1.3051866   -3.3314008   -1.7962889    0.0960186   -3.3314008    1.5351119   559948 
 6825000    1.3075511   -3.3353375    -1.797483  0.095415887   -3.3353375    1.5378545   559962 
 6826000    1.3070489   -3.3338032   -1.7965695   0.10380001   -3.3338032    1.5372336   559973 
 6827000    1.3075763   -3.3355674    -1.797763  0.096208015   -3.3355674    1.5378044   559991 
 6828000    1.3069426   -3.3342421    -1.797246  0.098956562   -3.3342421    1.5369961   560014 
 6829000    1.3079218   -3.3344819   -1.7964276  0.099898069   -3.3344819    1.5380543   560048 
 6830000    1.3074868   -3.3341057   -1.7965987  0.095456179   -3.3341057     1.537507   560061 
 6831000     1.308851    -3.334906   -1.7958497   0.10379921    -3.334906    1.5390562   560081 
 6832000    1.3106638   -3.3361573   -1.7949969   0.10440017   -3.3361573    1.5411604   560091 
 6833000    1.3091344    -3.334925    -1.795651  0.096676527    -3.334925     1.539274   560123 
 6834000    1.3108924   -3.3366617   -1.7953866  0.096023743   -3.3366617    1.5412751   560147 
 6835000    1.3078788   -3.3335647   -1.7958987  0.099326973   -3.3335647     1.537666   560171 
 6836000    1.3086381   -3.3336636   -1.7951077  0.099215337   -3.3336636    1.5385559   560172 
 6837000    1.3088037   -3.3339442   -1.7952347  0.095923185   -3.3339442    1.5387095   560187 
 6838000    1.3087744   -3.3345999   -1.7959166  0.099587297   -3.3345999    1.5386833   560184 
 6839000    1.3082588   -3.3333237   -1.7952933  0.095893757   -3.3333237    1.5380304   560201 
 6840000    1.3097138    -3.334222   -1.7945387   0.10215164    -3.334222    1.5396833   560222 
 6841000     1.307462   -3.3318181   -1.7948287   0.10877797   -3.3318181    1.5369893   560239 
 6842000    1.3091679   -3.3339348   -1.7950005  0.095524682   -3.3339348    1.5389343   560261 
 6843000    1.3098024   -3.3339358   -1.7942886   0.10143855   -3.3339358    1.5396473   560273 
 6844000    1.3097025   -3.3341185   -1.7946382  0.094563377   -3.3341185    1.5394803   560291 
 6845000    1.3088741   -3.3343584   -1.7958984  0.096171366   -3.3343584      1.53846   560308 
 6846000    1.3081269   -3.3333541   -1.7958218  0.098038901   -3.3333541    1.5375323   560326 
 6847000     1.308604   -3.3343854     -1.79635  0.093953077   -3.3343854    1.5380354   560347 
 6848000    1.3079571    -3.333417    -1.796183  0.097233231    -3.333417    1.5372339   560362 
 6849000    1.3092288   -3.3345218    -1.795829  0.094885431   -3.3345218    1.5386928   560375 
 6850000    1.3081549   -3.3336233   -1.7962063  0.096642193   -3.3336233     1.537417   560380 
 6851000     1.310351   -3.3350753   -1.7951598    0.1006203   -3.3350753    1.5399155   560410 
 6852000    1.3109225   -3.3358731   -1.7952997  0.090057754   -3.3358731    1.5405734   560415 
 6853000    1.3100673   -3.3344962   -1.7949224  0.099719276   -3.3344962    1.5395739   560413 
 6854000    1.3098698   -3.3358291   -1.7965477   0.09744065   -3.3358291    1.5392814   560435 
 6855000    1.3092472   -3.3357042   -1.7972149  0.099447548   -3.3357042    1.5384893   560457 
 6856000    1.3099497   -3.3359459   -1.7966723  0.098363736   -3.3359459    1.5392736   560472 
 6857000    1.3101374   -3.3374209   -1.7979871  0.095477433   -3.3374209    1.5394338   560494 
 6858000    1.3102122   -3.3372456   -1.7977541  0.095623646   -3.3372456    1.5394915   560505 
 6859000    1.3104373   -3.3364509   -1.7967554   0.10079532   -3.3364509    1.5396955   560527 
 6860000    1.3097052   -3.3358123   -1.7970538  0.098342947   -3.3358123    1.5387585   560555 
 6861000    1.3103319   -3.3379386   -1.7984575   0.10179399   -3.3379386     1.539481   560560 
 6862000    1.3103082   -3.3369013   -1.7974866  0.098254288   -3.3369013    1.5394147   560574 
 6863000    1.3101513   -3.3372079   -1.7980351   0.09412819   -3.3372079    1.5391728   560595 
 6864000    1.3077129    -3.335419    -1.799163   0.10324338    -3.335419     1.536256   560614 
 6865000    1.3107189   -3.3383146   -1.7985519   0.10077291   -3.3383146    1.5397627   560623 
 6866000    1.3120977   -3.3403384   -1.7989697  0.097162606   -3.3403384    1.5413686   560628 
 6867000    1.3088872   -3.3375629   -1.8000453  0.096002836   -3.3375629    1.5375176   560657 
 6868000    1.3068471   -3.3353307   -1.8002725   0.10429038   -3.3353307    1.5350582   560680 
 6869000    1.3096318   -3.3387395   -1.8004625  0.097445158   -3.3387395     1.538277   560699 
 6870000    1.3092522   -3.3395209   -1.8017637  0.099276911   -3.3395209    1.5377571   560726 
 6871000    1.3066521   -3.3366079   -1.8019321  0.099206475   -3.3366079    1.5346759   560736 
 6872000    1.3091157   -3.3379314   -1.8004004  0.096902513   -3.3379314     1.537531   560750 
 6873000    1.3091764   -3.3385798   -1.8010242    0.1013074   -3.3385798    1.5375557   560767 
 6874000    1.3091488   -3.3383199   -1.8008652  0.098586643   -3.3383199    1.5374547   560792 
 6875000    1.3084933   -3.3382211   -1.8015966   0.09864369   -3.3382211    1.5366246   560814 
 6876000    1.3091477   -3.3384637   -1.8011063   0.10093449   -3.3384637    1.5373574   560827 
 6877000    1.3084671   -3.3367279   -1.8001724    0.1018186   -3.3367279    1.5365555   560828 
 6878000    1.3091381   -3.3375694   -1.8002644  0.095774061   -3.3375694    1.5373051   560842 
 6879000    1.3094336   -3.3389468   -1.8013413  0.090014168   -3.3389468    1.5376055   560859 
 6880000    1.3084617   -3.3371904   -1.8007699  0.096001357   -3.3371904    1.5364204   560875 
 6881000    1.3092796   -3.3371527   -1.7997692  0.093316129   -3.3371527    1.5373835   560874 
 6882000    1.3087202     -3.33778   -1.8011109  0.095667232     -3.33778    1.5366692   560895 
 6883000    1.3101377   -3.3397462   -1.8014757  0.097203743   -3.3397462    1.5382705   560918 
 6884000    1.3099697   -3.3388987   -1.8008556  0.094827951   -3.3388987     1.538043   560929 
 6885000    1.3109934   -3.3392598   -1.8000422  0.096522788   -3.3392598    1.5392176   560939 
 6886000    1.3101821   -3.3379333   -1.7996793   0.10340533   -3.3379333     1.538254   560943 
 6887000    1.3093047   -3.3391607    -1.802019  0.097412976   -3.3391607    1.5371417   560973 
 6888000    1.3072733   -3.3376473   -1.8029206  0.095003237   -3.3376473    1.5347267   560984 
 6889000    1.3079827   -3.3382747    -1.802748  0.091326096   -3.3382747    1.5355267   560996 
 6890000    1.3094951   -3.3386093   -1.8013537  0.096415166   -3.3386093    1.5372557   561013 
 6891000    1.3090001   -3.3372495   -1.8006654   0.10329944   -3.3372495    1.5365842   561046 
 6892000    1.3097958    -3.339301   -1.8017966  0.095082405    -3.339301    1.5375045   561051 
 6893000    1.3103124   -3.3395917   -1.8015275  0.099505693   -3.3395917    1.5380643   561068 
 6894000    1.3095112   -3.3390257   -1.8019347   0.09409926   -3.3390257     1.537091   561080 
 6895000    1.3113319   -3.3400863    -1.800924   0.10113509   -3.3400863    1.5391623   561104 
 6896000    1.3138693   -3.3425555   -1.8004727  0.096657262   -3.3425555    1.5420828   561125 
 6897000    1.3117519   -3.3407517   -1.8012282   0.10062867   -3.3407517    1.5395235   561152 
 6898000    1.3110804   -3.3395454   -1.8008456   0.10264641   -3.3395454    1.5386997   561165 
 6899000    1.3108389   -3.3397269   -1.8013545  0.097310913   -3.3397269    1.5383724   561181 
 6900000    1.3092771   -3.3384063   -1.8018558   0.10120842   -3.3384063    1.5365505   561177 
 6901000    1.3098391   -3.3387613   -1.8016006   0.10208536   -3.3387613    1.5371608   561195 
 6902000    1.3083373    -3.338258   -1.8029253   0.10112838    -3.338258    1.5353326   561219 
 6903000    1.3080998   -3.3382479   -1.8032104   0.10140218   -3.3382479    1.5350375   561225 
 6904000     1.308913   -3.3407795   -1.8048014  0.093198029   -3.3407795    1.5359781   561230 
 6905000    1.3087411    -3.338498   -1.8027434  0.099088554    -3.338498    1.5357546   561238 
 6906000    1.3086023   -3.3389986   -1.8034124  0.096575992   -3.3389986    1.5355861   561240 
 6907000    1.3092121   -3.3403007   -1.8040346  0.097555848   -3.3403007    1.5362661   561253 
 6908000    1.3096201   -3.3400719   -1.8033434   0.09879752   -3.3400719    1.5367285   561259 
 6909000    1.3092031   -3.3392338   -1.8030631   0.10214232   -3.3392338    1.5361707   561284 
 6910000    1.3092252   -3.3398612      -1.8037  0.095365369   -3.3398612    1.5361612   561297 
 6911000    1.3087891   -3.3380098   -1.8023987  0.099216081   -3.3380098    1.5356111   561311 
 6912000    1.3092609   -3.3374973   -1.8013956   0.10332046   -3.3374973    1.5361017   561334 
 6913000    1.3096077   -3.3384693   -1.8019497  0.089610289   -3.3384693    1.5365196   561330 
 6914000    1.3091867   -3.3375693   -1.8016121   0.10036494   -3.3375693    1.5359572   561355 
 6915000    1.3115627   -3.3395497   -1.8008652   0.10333461   -3.3395497    1.5386845   561377 
 6916000    1.3103538   -3.3390755   -1.8018449  0.099050593   -3.3390755    1.5372306   561390 
 6917000    1.3093062   -3.3382509   -1.8023259  0.096680061   -3.3382509     1.535925   561418 
 6918000    1.3101795     -3.33915   -1.8022826  0.098953817     -3.33915    1.5368674   561448 
 6919000    1.3094814    -3.338664   -1.8026347  0.095776532    -3.338664    1.5360293   561455 
 6920000    1.3115365   -3.3406747   -1.8022731   0.10515272   -3.3406747    1.5384016   561469 
 6921000    1.3093064   -3.3386214   -1.8029368  0.097139042   -3.3386214    1.5356846   561506 
 6922000    1.3106841   -3.3399882   -1.8027425  0.098163219   -3.3399882    1.5372457   561526 
 6923000    1.3097098   -3.3390501   -1.8029608   0.10013896   -3.3390501    1.5360893   561531 
 6924000    1.3103562   -3.3399915   -1.8032262   0.09540089   -3.3399915    1.5367653   561561 
 6925000    1.3097148   -3.3385096   -1.8025676  0.096771694   -3.3385096     1.535942   561587 
 6926000    1.3102049   -3.3390826   -1.8025659   0.10038033   -3.3390826    1.5365167   561587 
 6927000    1.3101916   -3.3395701   -1.8031346  0.097316684   -3.3395701    1.5364355   561611 
 6928000      1.31157    -3.340764   -1.8027285  0.099153746    -3.340764    1.5380355   561617 
 6929000    1.3134264   -3.3411761   -1.8010076  0.099530967   -3.3411761    1.5401685   561633 
 6930000    1.3132895   -3.3414594   -1.8015418   0.10685372   -3.3414594    1.5399176   561666 
 6931000    1.3114388   -3.3393625   -1.8016561   0.10355675   -3.3393625    1.5377064   561681 
 6932000    1.3120739   -3.3402178   -1.8017913  0.099846285   -3.3402178    1.5384265   561690 
 6933000    1.3123074   -3.3408495    -1.802152  0.096931427   -3.3408495    1.5386975   561691 
 6934000    1.3122717   -3.3418478   -1.8032416   0.10397749   -3.3418478    1.5386063   561709 
 6935000    1.3114674   -3.3412506   -1.8036228   0.10172291   -3.3412506    1.5376278   561722 
 6936000    1.3136794   -3.3442221   -1.8040448  0.095829427   -3.3442221    1.5401772   561738 
 6937000     1.311399   -3.3426333    -1.805187  0.099108622   -3.3426333    1.5374463   561759 
 6938000    1.3113927    -3.341662   -1.8042506  0.094999008    -3.341662    1.5374114   561769 
 6939000    1.3119963   -3.3432617   -1.8051782   0.09518146   -3.3432617    1.5380835   561782 
 6940000    1.3095209   -3.3401401   -1.8049831   0.10432719   -3.3401401     1.535157   561791 
 6941000    1.3130645    -3.344417   -1.8051661    0.1002325    -3.344417    1.5392509   561813 
 6942000    1.3114596   -3.3434159   -1.8060655   0.10003116   -3.3434159    1.5373504   561820 
 6943000    1.3104209   -3.3428762   -1.8068063   0.09931807   -3.3428762    1.5360698   561843 
 6944000    1.3108475   -3.3423717   -1.8058291  0.098650132   -3.3423717    1.5365426   561853 
 6945000       1.3125   -3.3445236   -1.8061042  0.093852182   -3.3445236    1.5384194   561875 
 6946000    1.3105474   -3.3431783   -1.8071187   0.10149533   -3.3431783    1.5360596   561901 
 6947000    1.3114165   -3.3442259   -1.8072105  0.099067096   -3.3442259    1.5370154   561924 
 6948000    1.3107668   -3.3429446   -1.8067591   0.10426257   -3.3429446    1.5361855   561949 
 6949000    1.3119785   -3.3446346   -1.8071111  0.096412231   -3.3446346    1.5375235   561979 
 6950000    1.3121243   -3.3437801   -1.8061377   0.10512653   -3.3437801    1.5376423   561998 
 6951000    1.3109284   -3.3433597   -1.8071433   0.10680911   -3.3433597    1.5362163   562007 
 6952000    1.3118399   -3.3451337   -1.8078684    0.1006099   -3.3451337    1.5372654   562014 
 6953000    1.3117895   -3.3450744   -1.8079393   0.10057056   -3.3450744    1.5371352   562040 
 6954000    1.3106949   -3.3443037   -1.8084758   0.10319713   -3.3443037    1.5358279   562049 
 6955000    1.3144365   -3.3481993   -1.8080885  0.092800418   -3.3481993    1.5401108   562086 
 6956000    1.3108498   -3.3448032   -1.8088893   0.10057065   -3.3448032    1.5359138   562084 
 6957000    1.3099792   -3.3441941   -1.8093195   0.10112712   -3.3441941    1.5348746   562091 
 6958000    1.3112051   -3.3446379   -1.8083981  0.096923688   -3.3446379    1.5362399   562117 
 6959000    1.3115238    -3.344795   -1.8082226  0.099956696    -3.344795    1.5365723   562132 
 6960000    1.3118562    -3.345072   -1.8081622  0.099672062    -3.345072    1.5369097   562151 
 6961000    1.3102037   -3.3431823   -1.8082358   0.10101376   -3.3431823    1.5349465   562161 
 6962000    1.3121148   -3.3461946   -1.8090365  0.098727748   -3.3461946    1.5371581   562171 
 6963000    1.3118426   -3.3446271   -1.8077989  0.099318891   -3.3446271    1.5368282   562175 
 6964000    1.3118136   -3.3461759   -1.8093871   0.09735186   -3.3461759    1.5367888   562177 
 6965000    1.3105446   -3.3435933   -1.8083321  0.096998555   -3.3435933    1.5352612   562192 
 6966000    1.3120399   -3.3448737   -1.8079428  0.093204319   -3.3448737    1.5369309   562222 
 6967000    1.3131497   -3.3457194   -1.8075159  0.098896547   -3.3457194    1.5382035   562232 
 6968000    1.3127331   -3.3455784   -1.8078792  0.098217781   -3.3455784    1.5376992   562238 
 6969000    1.3127963   -3.3461487   -1.8084303  0.099161405   -3.3461487    1.5377185   562258 
 6970000    1.3119705   -3.3450443   -1.8083013  0.096154413   -3.3450443     1.536743   562261 
 6971000    1.3133477   -3.3463056   -1.8079987   0.09059616   -3.3463056    1.5383069   562279 
 6972000    1.3117293   -3.3455537   -1.8091835  0.093930664   -3.3455537    1.5363703   562294 
 6973000     1.311962   -3.3466805   -1.8101032  0.089648431   -3.3466805    1.5365773   562318 
 6974000    1.3118351   -3.3458758     -1.80948  0.093950012   -3.3458758    1.5363958   562330 
 6975000    1.3121402   -3.3453281   -1.8085722  0.096086429   -3.3453281    1.5367559   562329 
 6976000    1.3095641    -3.342967   -1.8092745   0.10465305    -3.342967    1.5336925   562346 
 6977000    1.3135717   -3.3474775   -1.8091874  0.095960297   -3.3474775    1.5382902   562381 
 6978000    1.3099023    -3.343828   -1.8099085  0.098812629    -3.343828    1.5339195   562408 
 6979000    1.3115689   -3.3446254   -1.8088226   0.10057104   -3.3446254    1.5358027   562433 
 6980000    1.3109975   -3.3442835   -1.8091908  0.096547358   -3.3442835    1.5350927   562448 
 6981000    1.3133737   -3.3474653   -1.8096531  0.088769673   -3.3474653    1.5378123   562471 
 6982000     1.311562   -3.3454348    -1.809763  0.093495081   -3.3454348    1.5356718   562478 
 6983000    1.3122706   -3.3463049    -1.809858  0.097510571   -3.3463049    1.5364469   562498 
 6984000    1.3118253   -3.3465434   -1.8106643  0.097530112   -3.3465434    1.5358791   562515 
 6985000    1.3132219   -3.3470004    -1.809478  0.095054255   -3.3470004    1.5375224   562512 
 6986000    1.3113317   -3.3448569   -1.8096022   0.10239784   -3.3448569    1.5352548   562532 
 6987000    1.3115626    -3.344439   -1.8090395   0.10276311    -3.344439    1.5353996   562578 
 6988000     1.312816   -3.3464981   -1.8096421  0.096330416   -3.3464981     1.536856   562582 
 6989000    1.3124389   -3.3456245   -1.8092537   0.10079435   -3.3456245    1.5363708   562598 
 6990000    1.3133875   -3.3462339    -1.808769  0.097030475   -3.3462339    1.5374649   562604 
 6991000    1.3130638   -3.3456477   -1.8085482   0.10078033   -3.3456477    1.5370996   562599 
 6992000    1.3127771   -3.3452379   -1.8085122  0.099856565   -3.3452379    1.5367258   562613 
 6993000    1.3132062   -3.3455272   -1.8083347   0.09795483   -3.3455272    1.5371925   562626 
 6994000    1.3127825    -3.345775   -1.8090729  0.098902837    -3.345775     1.536702   562624 
 6995000    1.3138829   -3.3472277   -1.8093114  0.092927495   -3.3472277    1.5379163   562651 
 6996000    1.3127566   -3.3452537   -1.8086667  0.099844153   -3.3452537     1.536587   562655 
 6997000    1.3139251   -3.3472793   -1.8093983  0.096963505   -3.3472793     1.537881   562682 
 6998000    1.3113977   -3.3441745   -1.8092927    0.1039685   -3.3441745    1.5348819   562697 
 6999000     1.313115   -3.3460092   -1.8091638   0.10140543   -3.3460092    1.5368454   562714 
 7000000    1.3137407   -3.3466388   -1.8090584   0.10188117   -3.3466388    1.5375805   562713 
 7001000    1.3137379   -3.3464955   -1.8089156  0.098052656   -3.3464955    1.5375799   562712 
 7002000    1.3134329    -3.347027   -1.8098588  0.098809568    -3.347027    1.5371682   562732 
 7003000    1.3127643   -3.3471503   -1.8108137    0.1014231   -3.3471503    1.5363366   562750 
 7004000    1.3126371    -3.349039   -1.8129304  0.093499882    -3.349039    1.5361087   562779 
 7005000    1.3110554   -3.3454573   -1.8112215  0.098047972   -3.3454573    1.5342358   562787 
 7006000    1.3120347   -3.3474845   -1.8121409  0.098918775   -3.3474845    1.5353436   562801 
 7007000    1.3107058   -3.3462379   -1.8124902   0.09829708   -3.3462379    1.5337477   562816 
 7008000     1.311972   -3.3476968   -1.8124975  0.097206161   -3.3476968    1.5351993   562827 
 7009000     1.313006   -3.3482537   -1.8118608  0.097062024   -3.3482537    1.5363929   562833 
 7010000    1.3126686   -3.3478498   -1.8118872   0.10111671   -3.3478498    1.5359626   562846 
 7011000    1.3122427   -3.3483164   -1.8128794   0.09797891   -3.3483164    1.5354369   562856 
 7012000    1.3135788   -3.3483082   -1.8113625   0.10317546   -3.3483082    1.5369457   562876 
 7013000    1.3132725   -3.3475744   -1.8110498   0.10028258   -3.3475744    1.5365245   562899 
 7014000    1.3141209   -3.3491696    -1.811748  0.098644927   -3.3491696    1.5374216   562934 
 7015000    1.3138365   -3.3481857   -1.8111705  0.098833266   -3.3481857    1.5370152   562961 
 7016000    1.3134845   -3.3489212   -1.8123479  0.094509039   -3.3489212    1.5365733   562972 
 7017000    1.3143787   -3.3495048   -1.8119182    0.1021244   -3.3495048    1.5375866   562984 
 7018000    1.3137381    -3.349724   -1.8129059  0.091234466    -3.349724    1.5368181   562991 
 7019000    1.3140623   -3.3505774   -1.8134209  0.097446334   -3.3505774    1.5371565   563006 
 7020000    1.3125985   -3.3494119   -1.8139842  0.096181992   -3.3494119    1.5354278   563012 
 7021000    1.3131498   -3.3517071    -1.815719   0.08975315   -3.3517071    1.5359881   563043 
 7022000    1.3127763   -3.3499302   -1.8144418  0.096291987   -3.3499302    1.5354884   563066 
 7023000    1.3128799   -3.3488721   -1.8133444   0.10140438   -3.3488721    1.5355278   563096 
 7024000    1.3124412   -3.3486834   -1.8137178    0.0982428   -3.3486834    1.5349656   563114 
 7025000    1.3121142   -3.3487673   -1.8142468   0.10274502   -3.3487673    1.5345205   563137 
 7026000    1.3102596   -3.3479341   -1.8156233   0.10018973   -3.3479341    1.5323108   563152 
 7027000    1.3119579   -3.3491597   -1.8148792  0.096088013   -3.3491597    1.5342805   563158 
 7028000    1.3124065   -3.3494698   -1.8147219   0.09824718   -3.3494698    1.5347479   563179 
 7029000     1.311316    -3.348458   -1.8150044   0.09245536    -3.348458    1.5334536   563186 
 7030000    1.3118877   -3.3486579   -1.8145901  0.094638779   -3.3486579    1.5340677   563206 
 7031000    1.3134929   -3.3515627   -1.8156562   0.10006093   -3.3515627    1.5359065   563220 
 7032000    1.3136687   -3.3511789   -1.8150886  0.097284174   -3.3511789    1.5360903   563228 
 7033000    1.3135178   -3.3514399   -1.8155125  0.093818591   -3.3514399    1.5359274   563223 
 7034000    1.3140111   -3.3512567   -1.8147797  0.099632007   -3.3512567     1.536477   563233 
 7035000    1.3127432   -3.3493592   -1.8144165  0.099468105   -3.3493592    1.5349427   563252 
 7036000    1.3130679   -3.3502457   -1.8149723   0.10024498   -3.3502457    1.5352734   563270 
 7037000    1.3133724   -3.3506985   -1.8151237    0.1019681   -3.3506985    1.5355748   563290 
 7038000    1.3134085   -3.3497998   -1.8142291   0.10383881   -3.3497998    1.5355707   563307 
 7039000    1.3133719   -3.3496233   -1.8141118   0.10378509   -3.3496233    1.5355115   563313 
 7040000    1.3128986   -3.3488212   -1.8139066  0.099417967   -3.3488212    1.5349146   563329 
 7041000    1.3131442   -3.3488084   -1.8136231   0.10257715   -3.3488084    1.5351853   563335 
 7042000    1.3129962   -3.3484997   -1.8134984  0.096959811   -3.3484997    1.5350014   563339 
 7043000    1.3123822   -3.3490344   -1.8147807  0.096599975   -3.3490344    1.5342537   563350 
 7044000    1.3134882   -3.3507933   -1.8152848  0.098643533   -3.3507933    1.5355085   563364 
 7045000    1.3116147    -3.348292   -1.8150255   0.10133194    -3.348292    1.5332665   563383 
 7046000      1.31455   -3.3518512   -1.8152105  0.093593615   -3.3518512    1.5366407   563404 
 7047000    1.3148627   -3.3516438   -1.8146894   0.10004059   -3.3516438    1.5369544   563423 
 7048000    1.3150318   -3.3511536    -1.814048   0.10189297   -3.3511536    1.5371056   563440 
 7049000    1.3148977   -3.3526467   -1.8157305  0.097166005   -3.3526467    1.5369162   563452 
 7050000    1.3136784   -3.3509053   -1.8154443  0.095953448   -3.3509053     1.535461   563463 
 7051000    1.3137914   -3.3489663   -1.8133895   0.09584321   -3.3489663    1.5355768   563469 
 7052000    1.3141637   -3.3494576   -1.8135002   0.10327849   -3.3494576    1.5359573   563489 
 7053000    1.3151917   -3.3509535   -1.8138246  0.094648747   -3.3509535    1.5371288   563500 
 7054000     1.313815   -3.3487717   -1.8132736   0.10062764   -3.3487717     1.535498   563508 
 7055000    1.3131587   -3.3490823   -1.8144166    0.0951411   -3.3490823    1.5346657   563532 
 7056000    1.3155391   -3.3525413   -1.8151619  0.099564895   -3.3525413    1.5373794   563557 
 7057000    1.3139543   -3.3513674   -1.8158782  0.092837375   -3.3513674    1.5354892   563571 
 7058000    1.3122444   -3.3493441   -1.8159048   0.09878257   -3.3493441    1.5334393   563590 
 7059000    1.3131378      -3.3503   -1.8158249  0.098388855      -3.3503    1.5344751   563593 
 7060000    1.3150076   -3.3521213    -1.815464  0.096689568   -3.3521213    1.5366573   563594 
 7061000    1.3150644   -3.3513268   -1.8146249   0.10090986   -3.3513268    1.5367019   563602 
 7062000     1.314611    -3.350292   -1.8141444   0.10296638    -3.350292    1.5361475   563611 
 7063000    1.3154049    -3.350375    -1.813308   0.10115578    -3.350375     1.537067   563614 
 7064000    1.3134753   -3.3488631   -1.8140699   0.10835555   -3.3488631    1.5347932   563621 
 7065000    1.3151762   -3.3509604   -1.8142178   0.10292802   -3.3509604    1.5367426   563635 
 7066000    1.3144898   -3.3505653    -1.814652   0.10191685   -3.3505653    1.5359133   563645 
 7067000    1.3143632   -3.3504557   -1.8147285   0.10493144   -3.3504557    1.5357272   563659 
 7068000    1.3162992   -3.3529679   -1.8149896   0.10040335   -3.3529679    1.5379783   563663 
 7069000    1.3152345   -3.3518201   -1.8150613   0.10351514   -3.3518201    1.5367588   563654 
 7070000    1.3152075   -3.3518254   -1.8151226   0.10040071   -3.3518254    1.5367028   563663 
 7071000    1.3149997   -3.3517886   -1.8153504   0.10304167   -3.3517886    1.5364382   563671 
 7072000    1.3162438   -3.3520432   -1.8141514   0.10260079   -3.3520432    1.5378918   563671 
 7073000    1.3124911   -3.3487985   -1.8153457   0.10200829   -3.3487985    1.5334528   563691 
 7074000     1.314638   -3.3515178   -1.8156084   0.10436361   -3.3515178    1.5359094   563710 
 7075000    1.3136868    -3.350231   -1.8154656  0.099814438    -3.350231    1.5347654   563722 
 7076000    1.3164339   -3.3524117   -1.8144915  0.097225542   -3.3524117    1.5379202   563742 
 7077000    1.3135388   -3.3506846   -1.8161629  0.099349824   -3.3506846    1.5345217   563748 
 7078000    1.3152671   -3.3522401   -1.8157567  0.096190698   -3.3522401    1.5364835   563769 
 7079000    1.3149808   -3.3518203   -1.8157202   0.10381246   -3.3518203       1.5361   563787 
 7080000    1.3162095   -3.3522908    -1.814791  0.099530624   -3.3522908    1.5374998   563800 
 7081000     1.314753   -3.3517574   -1.8159862   0.09599001   -3.3517574    1.5357712   563810 
 7082000    1.3153363   -3.3522019   -1.8157738  0.098324615   -3.3522019    1.5364281   563819 
 7083000    1.3143675   -3.3515748   -1.8163192  0.097299068   -3.3515748    1.5352556   563834 
 7084000    1.3133177   -3.3501113   -1.8160875   0.10212588   -3.3501113    1.5340239   563836 
 7085000    1.3149273   -3.3513616   -1.8154549  0.095092192   -3.3513616    1.5359067   563835 
 7086000    1.3145028   -3.3517968   -1.8164295   0.10100525   -3.3517968    1.5353673   563851 
 7087000    1.3143474   -3.3513965   -1.8162352  0.095732352   -3.3513965    1.5351613   563860 
 7088000     1.313857   -3.3524955    -1.817945  0.096965305   -3.3524955    1.5345504   563874 
 7089000     1.313281   -3.3509045    -1.817084  0.095135784   -3.3509045    1.5338205   563895 
 7090000    1.3120487   -3.3499476   -1.8176234   0.10042043   -3.3499476    1.5323243   563916 
 7091000    1.3140849   -3.3518856   -1.8172188   0.10198996   -3.3518856    1.5346669   563929 
 7092000    1.3122137   -3.3502906   -1.8178661    0.0971376   -3.3502906    1.5324245   563950 
 7093000    1.3163485   -3.3540119   -1.8167695  0.096134464   -3.3540119    1.5372423   563954 
 7094000    1.3168077   -3.3545222   -1.8168037  0.097249302   -3.3545222    1.5377186   563976 
 7095000    1.3145106   -3.3531073   -1.8181092  0.096073499   -3.3531073    1.5349981   563990 
 7096000    1.3136486   -3.3516923   -1.8177417  0.099674154   -3.3516923    1.5339506   564005 
 7097000    1.3143097   -3.3529239   -1.8182558   0.09461838   -3.3529239    1.5346681   564025 
 7098000    1.3146972   -3.3530593   -1.8179659  0.098163169   -3.3530593    1.5350934   564035 
 7099000    1.3134062   -3.3530795   -1.8195207  0.098803919   -3.3530795    1.5335588   564045 
 7100000    1.3145654   -3.3534272    -1.818504   0.10181588   -3.3534272    1.5349233   564041 
 7101000    1.3151528   -3.3536921    -1.818162   0.10165929   -3.3536921    1.5355301   564070 
 7102000    1.3144886   -3.3532105   -1.8184803  0.098398988   -3.3532105    1.5347301   564079 
 7103000    1.3156532   -3.3555426   -1.8195017  0.094358794   -3.3555426    1.5360409   564097 
 7104000    1.3154516   -3.3549053    -1.819146   0.09426731   -3.3549053    1.5357593   564114 
 7105000    1.3148025   -3.3530377    -1.818058   0.10230166   -3.3530377    1.5349797   564122 
 7106000    1.3160829   -3.3554235    -1.819009  0.094155896   -3.3554235    1.5364146   564144 
 7107000    1.3151023   -3.3533066   -1.8180586   0.10372058   -3.3533066     1.535248   564152 
 7108000    1.3158836   -3.3539336   -1.8178607   0.09915553   -3.3539336    1.5360729   564184 
 7109000    1.3169591   -3.3559941   -1.8187174  0.096131121   -3.3559941    1.5372767   564203 
 7110000    1.3159676   -3.3548222   -1.8187165   0.10338453   -3.3548222    1.5361057   564208 
 7111000     1.316288   -3.3553842    -1.818989  0.096939953   -3.3553842    1.5363953   564239 
 7112000    1.3142336   -3.3538449   -1.8198693  0.099107569   -3.3538449    1.5339756   564247 
 7113000    1.3141974   -3.3548446   -1.8209955  0.098975688   -3.3548446    1.5338491   564278 
 7114000    1.3138262   -3.3546744   -1.8213347   0.10237459   -3.3546744    1.5333397   564306 
 7115000     1.314885   -3.3555457    -1.820973  0.097513304   -3.3555457    1.5345727   564307 
 7116000    1.3133439   -3.3552187   -1.8224799   0.09186579   -3.3552187    1.5327389   564320 
 7117000    1.3173969   -3.3592779   -1.8218826  0.094777151   -3.3592779    1.5373953   564347 
 7118000    1.3136544   -3.3545658   -1.8215597  0.097502332   -3.3545658    1.5330061   564355 
 7119000    1.3141056   -3.3549443   -1.8214443  0.099070778   -3.3549443       1.5335   564367 
 7120000    1.3157744   -3.3558721   -1.8204247  0.097780809   -3.3558721    1.5354474   564367 
 7121000    1.3142687   -3.3538376   -1.8201827   0.10207295   -3.3538376     1.533655   564380 
 7122000     1.314712   -3.3547952   -1.8206337   0.10190805   -3.3547952    1.5341615   564384 
 7123000    1.3150393   -3.3547563   -1.8202319  0.098082716   -3.3547563    1.5345244   564391 
 7124000    1.3150559   -3.3551375   -1.8206508  0.097450201   -3.3551375    1.5344867   564412 
 7125000    1.3187532   -3.3584139   -1.8196485   0.10038966   -3.3584139    1.5387654   564425 
 7126000    1.3165082   -3.3565416   -1.8204311  0.093095371   -3.3565416    1.5361105   564438 
 7127000    1.3179325   -3.3579778   -1.8202516  0.096267185   -3.3579778    1.5377261   564455 
 7128000    1.3163618   -3.3572547   -1.8214131  0.098861268   -3.3572547    1.5358417   564474 
 7129000     1.316634   -3.3575564    -1.821495   0.10412755   -3.3575564    1.5360614   564510 
 7130000    1.3161494   -3.3577804   -1.8222844  0.096474888   -3.3577804     1.535496   564510 
 7131000    1.3145325   -3.3560909   -1.8225112  0.094992194   -3.3560909    1.5335797   564521 
 7132000    1.3158907   -3.3576159   -1.8224979  0.092626472   -3.3576159     1.535118   564538 
 7133000    1.3164849   -3.3561324   -1.8203647  0.098243926   -3.3561324    1.5357677   564554 
 7134000     1.315782   -3.3565011   -1.8216268    0.1009418   -3.3565011    1.5348743   564581 
 7135000     1.316355   -3.3584614   -1.8229459  0.097247328   -3.3584614    1.5355155   564591 
 7136000    1.3160535    -3.357135   -1.8220228   0.10236755    -3.357135    1.5351122   564610 
 7137000    1.3157575   -3.3581767   -1.8234396  0.099481171   -3.3581767     1.534737   564621 
 7138000    1.3160943   -3.3582257   -1.8231856   0.10168693   -3.3582257    1.5350401   564654 
 7139000    1.3153229   -3.3584456   -1.8242998    0.1004761   -3.3584456    1.5341459   564652 
 7140000     1.315598   -3.3588988   -1.8244837  0.097976284   -3.3588988    1.5344151   564671 
 7141000    1.3158594   -3.3582565   -1.8235392  0.098807241   -3.3582565    1.5347173   564672 
 7142000    1.3151952   -3.3572494   -1.8233693  0.099739831   -3.3572494    1.5338801   564695 
 7143000    1.3144111   -3.3570517   -1.8240997  0.099112027   -3.3570517     1.532952   564700 
 7144000    1.3149851   -3.3585497   -1.8249744  0.088644087   -3.3585497    1.5335753   564717 
 7145000    1.3165776   -3.3591265   -1.8237402  0.096341951   -3.3591265    1.5353863   564734 
 7146000    1.3147354   -3.3573887   -1.8241454  0.096775017   -3.3573887    1.5332433   564732 
 7147000    1.3165678    -3.359403   -1.8240471  0.098828984    -3.359403    1.5353559   564741 
 7148000    1.3157169   -3.3588165    -1.824472  0.095487965   -3.3588165    1.5343445   564748 
 7149000    1.3147069   -3.3575957   -1.8244453   0.10076463   -3.3575957    1.5331504   564754 
 7150000    1.3152528   -3.3582137   -1.8244348  0.096012487   -3.3582137    1.5337789   564757 
 7151000    1.3174162   -3.3607492   -1.8244856  0.095340322   -3.3607492    1.5362636   564771 
 7152000    1.3167633   -3.3600091   -1.8245585    0.1022041   -3.3600091    1.5354506   564790 
 7153000    1.3164296   -3.3592056   -1.8241822  0.097806255   -3.3592056    1.5350234   564804 
 7154000    1.3159466   -3.3580822   -1.8236382   0.10152593   -3.3580822    1.5344439   564810 
 7155000    1.3164825    -3.359532    -1.824504   0.10205868    -3.359532     1.535028   564825 
 7156000    1.3147541    -3.358768   -1.8257689  0.098591671    -3.358768    1.5329991   564830 
 7157000    1.3158297   -3.3594808   -1.8252302   0.09355384   -3.3594808    1.5342506   564831 
 7158000    1.3160267   -3.3602389   -1.8257858  0.096250687   -3.3602389    1.5344531   564841 
 7159000    1.3139801   -3.3581085   -1.8260851  0.091448145   -3.3581085    1.5320234   564857 
 7160000    1.3154778   -3.3592659   -1.8255316  0.096304022   -3.3592659    1.5337343   564870 
 7161000    1.3124709   -3.3561111   -1.8259205   0.10116993   -3.3561111    1.5301906   564884 
 7162000    1.3135936   -3.3574841   -1.8260253   0.10076257   -3.3574841    1.5314589   564899 
 7163000    1.3147401   -3.3594559   -1.8266467    0.0945006   -3.3594559    1.5328092   564894 
 7164000    1.3123844   -3.3574304   -1.8273921  0.097933632   -3.3574304    1.5300384   564903 
 7165000    1.3138722   -3.3582399   -1.8264996  0.093934196   -3.3582399    1.5317403   564915 
 7166000    1.3145497   -3.3583533   -1.8259018   0.10399074   -3.3583533    1.5324516   564944 
 7167000    1.3127479   -3.3579561   -1.8276158  0.097299291   -3.3579561    1.5303403   564948 
 7168000    1.3150496   -3.3592884   -1.8263491    0.0937264   -3.3592884    1.5329393   564979 
 7169000    1.3165448   -3.3601695   -1.8255497   0.10355904   -3.3601695    1.5346198   565002 
 7170000    1.3160564   -3.3597991   -1.8257676  0.098219781   -3.3597991    1.5340315   565009 
 7171000    1.3163698   -3.3597493   -1.8253878  0.095640799   -3.3597493    1.5343615   565022 
 7172000    1.3173748   -3.3589794   -1.8235062   0.10234651   -3.3589794    1.5354732   565044 
 7173000    1.3189272   -3.3614975   -1.8242231  0.099642212   -3.3614975    1.5372744   565047 
 7174000    1.3178481   -3.3607531   -1.8247528  0.091385197   -3.3607531    1.5360003   565053 
 7175000     1.317446   -3.3602605   -1.8247804   0.10070972   -3.3602605      1.53548   565072 
 7176000    1.3172223    -3.359649   -1.8244324   0.10142772    -3.359649    1.5352166   565073 
 7177000    1.3179251   -3.3605596   -1.8245701  0.099892005   -3.3605596    1.5359895   565090 
 7178000    1.3179811   -3.3609151   -1.8248712   0.10147178   -3.3609151    1.5360439   565094 
 7179000    1.3145887   -3.3583298   -1.8262831   0.10125662   -3.3583298    1.5320468   565110 
 7180000    1.3182578    -3.361492   -1.8251772  0.096935179    -3.361492    1.5363147   565113 
 7181000    1.3182311   -3.3610585    -1.824813    0.0908786   -3.3610585    1.5362455   565127 
 7182000    1.3190916   -3.3626123   -1.8254156  0.094126315   -3.3626123    1.5371967   565146 
 7183000    1.3169361   -3.3593804   -1.8247446  0.098762945   -3.3593804    1.5346359   565164 
 7184000    1.3170006   -3.3603556   -1.8256418  0.090782961   -3.3603556    1.5347137   565163 
 7185000     1.315406   -3.3574596   -1.8246556  0.097797666   -3.3574596     1.532804   565182 
 7186000    1.3173585   -3.3589962   -1.8239224  0.098169667   -3.3589962    1.5350738   565184 
 7187000    1.3173605   -3.3591726   -1.8241237  0.094111715   -3.3591726     1.535049   565194 
 7188000    1.3189061   -3.3607043   -1.8238571  0.098291224   -3.3607043    1.5368473   565195 
 7189000    1.3169222   -3.3586212   -1.8241292   0.10112204   -3.3586212     1.534492   565211 
 7190000     1.318887   -3.3597882   -1.8230257  0.093467475   -3.3597882    1.5367625   565218 
 7191000     1.317361   -3.3582725   -1.8233289  0.096105794   -3.3582725    1.5349436   565233 
 7192000     1.317458   -3.3583279   -1.8233174   0.10757364   -3.3583279    1.5350105   565250 
 7193000     1.317971   -3.3586043   -1.8229962   0.10093035   -3.3586043    1.5356082   565250 
 7194000    1.3180359   -3.3581085   -1.8224519   0.10082264   -3.3581085    1.5356566   565260 
 7195000    1.3171506   -3.3577554   -1.8231737   0.10221698   -3.3577554    1.5345818   565276 
 7196000     1.317739   -3.3586532   -1.8234593   0.10117722   -3.3586532    1.5351939   565303 
 7197000    1.3174201   -3.3584603   -1.8236107   0.10280661   -3.3584603    1.5348496   565293 
 7198000    1.3190887   -3.3603932   -1.8236431    0.1006849   -3.3603932    1.5367501   565309 
 7199000    1.3162931   -3.3579534    -1.824482   0.10184057   -3.3579534    1.5334714   565317 
 7200000    1.3182009   -3.3600389   -1.8244155  0.092074586   -3.3600389    1.5356234   565343 
 7201000     1.317765   -3.3596914   -1.8246464   0.10061681   -3.3596914     1.535045   565369 
 7202000    1.3157819   -3.3563683    -1.823693   0.10260183   -3.3563683    1.5326753   565391 
 7203000    1.3178303   -3.3594373   -1.8244384   0.10023096   -3.3594373    1.5349989   565414 
 7204000    1.3166904   -3.3590144    -1.825346  0.098443916   -3.3590144    1.5336684   565415 
 7205000    1.3178803   -3.3604575   -1.8254248  0.096675337   -3.3604575    1.5350326   565423 
 7206000    1.3183172   -3.3602757    -1.824764  0.098997552   -3.3602757    1.5355117   565434 
 7207000    1.3190882   -3.3611713   -1.8248187   0.09838478   -3.3611713    1.5363527   565455 
 7208000    1.3167483   -3.3585142   -1.8248732   0.10382722   -3.3585142     1.533641   565450 
 7209000    1.3171449   -3.3586924    -1.824633   0.10138747   -3.3586924    1.5340594   565466 
 7210000    1.3176173   -3.3599579   -1.8253863  0.099069606   -3.3599579    1.5345717   565480 
 7211000    1.3187999   -3.3608455   -1.8249428  0.095239519   -3.3608455    1.5359028   565497 
 7212000    1.3175222   -3.3591954   -1.8247996  0.097147962   -3.3591954    1.5343958   565504 
 7213000    1.3171361   -3.3598264   -1.8259209   0.10185118   -3.3598264    1.5339055   565519 
 7214000    1.3159082   -3.3574932   -1.8250367    0.1056159   -3.3574932    1.5324565   565526 
 7215000    1.3186486   -3.3610012   -1.8253968  0.099321551   -3.3610012    1.5356044   565542 
 7216000    1.3172495   -3.3609739   -1.8270151  0.095101314   -3.3609739    1.5339588   565548 
 7217000    1.3163299    -3.360018    -1.827206  0.095502321    -3.360018     1.532812   565576 
 7218000    1.3157471   -3.3596829   -1.8275848  0.094247181   -3.3596829    1.5320982   565589 
 7219000    1.3171739   -3.3612907   -1.8275744  0.094123372   -3.3612907    1.5337163   565605 
 7220000    1.3157367    -3.358666   -1.8266043  0.099182342    -3.358666    1.5320616   565598 
 7221000    1.3168869   -3.3592971    -1.825907   0.10560578   -3.3592971    1.5333902   565602 
 7222000    1.3184476   -3.3612897   -1.8261175  0.095843934   -3.3612897    1.5351722   565615 
 7223000    1.3168462   -3.3607315   -1.8274891  0.099623084   -3.3607315    1.5332424   565639 
 7224000    1.3179212   -3.3621364   -1.8276829  0.095029947   -3.3621364    1.5344535   565654 
 7225000    1.3181151   -3.3622948   -1.8276237    0.0964639   -3.3622948    1.5346711   565657 
 7226000    1.3180472   -3.3629216    -1.828373  0.097577419   -3.3629216    1.5345486   565673 
 7227000    1.3163345   -3.3606036   -1.8280816  0.098122478   -3.3606036     1.532522   565685 
 7228000    1.3172088   -3.3610616   -1.8276003  0.098979098   -3.3610616    1.5334613   565714 
 7229000    1.3166724   -3.3612712   -1.8284723  0.099200231   -3.3612712    1.5327989   565728 
 7230000    1.3174315    -3.361079   -1.8274534  0.099791654    -3.361079    1.5336257   565749 
 7231000    1.3173114   -3.3613414     -1.82788  0.095080888   -3.3613414    1.5334615   565758 
 7232000    1.3176318   -3.3618659   -1.8280776  0.092559778   -3.3618659    1.5337883   565775 
 7233000    1.3177767   -3.3621015   -1.8281851  0.095101479   -3.3621015    1.5339164   565790 
 7234000    1.3180632   -3.3620592   -1.8278391  0.093765655   -3.3620592    1.5342201   565801 
 7235000    1.3184399   -3.3624956    -1.827856  0.095328359   -3.3624956    1.5346396   565808 
 7236000    1.3178489   -3.3625302   -1.8286463  0.098505354   -3.3625302    1.5338839   565833 
 7237000    1.3163282   -3.3614834   -1.8294128  0.092772246   -3.3614834    1.5320706   565849 
 7238000    1.3174622   -3.3629767   -1.8296269  0.095328868   -3.3629767    1.5333498   565864 
 7239000    1.3161209   -3.3616509   -1.8299164  0.097326422   -3.3616509    1.5317345   565884 
 7240000    1.3177827   -3.3629631   -1.8293189  0.097121791   -3.3629631    1.5336442   565893 
 7241000    1.3185113   -3.3645392   -1.8300687  0.091879668   -3.3645392    1.5344705   565901 
 7242000    1.3196852   -3.3650339   -1.8292705  0.096408769   -3.3650339    1.5357634   565928 
 7243000    1.3179152   -3.3634224   -1.8297514      0.10099   -3.3634224     1.533671   565940 
 7244000    1.3192593   -3.3661712   -1.8309604  0.093980319   -3.3661712    1.5352108   565949 
 7245000    1.3189742    -3.365487   -1.8306269   0.10222015    -3.365487      1.53486   565956 
 7246000    1.3181081   -3.3658677   -1.8320562  0.094707962   -3.3658677    1.5338115   565971 
 7247000    1.3177882   -3.3653781   -1.8319959  0.098286786   -3.3653781    1.5333823   565992 
 7248000    1.3168956   -3.3641505    -1.831888  0.097297318   -3.3641505    1.5322625   566022 
 7249000    1.3180848    -3.364992   -1.8313674  0.098500672    -3.364992    1.5336245   566030 
 7250000    1.3178505   -3.3643619   -1.8310371  0.096356522   -3.3643619    1.5333248   566040 
 7251000    1.3202336   -3.3669139   -1.8308571  0.096693799   -3.3669139    1.5360568   566055 
 7252000    1.3172305   -3.3636964   -1.8311418   0.10274611   -3.3636964    1.5325546   566058 
 7253000    1.3175651   -3.3636785   -1.8307507    0.1008706   -3.3636785    1.5329278   566064 
 7254000    1.3187189   -3.3642562   -1.8300864   0.10185249   -3.3642562    1.5341698   566101 
 7255000    1.3200925   -3.3659898   -1.8302517   0.10082121   -3.3659898    1.5357381   566112 
 7256000    1.3192121    -3.365678   -1.8310022   0.10246041    -3.365678    1.5346758   566126 
 7257000    1.3181098   -3.3653053    -1.831947    0.1001219   -3.3653053    1.5333583   566139 
 7258000    1.3183806   -3.3666091    -1.832971  0.096611244   -3.3666091    1.5336381   566152 
 7259000    1.3176865   -3.3645612   -1.8317927   0.10064706   -3.3645612    1.5327685   566175 
 7260000    1.3177105   -3.3657313   -1.8330135  0.097632097   -3.3657313    1.5327178   566204 
 7261000    1.3162977   -3.3638551   -1.8328671   0.10797703   -3.3638551     1.530988   566236 
 7262000     1.317315   -3.3642761   -1.8321698  0.099535429   -3.3642761    1.5321063   566260 
 7263000    1.3171613   -3.3650572   -1.8331271  0.097254392   -3.3650572    1.5319302   566259 
 7264000    1.3177506   -3.3649165   -1.8323767   0.10308561   -3.3649165    1.5325398   566287 
 7265000    1.3181857   -3.3651838   -1.8321434  0.098178562   -3.3651838    1.5330404   566289 
 7266000    1.3171066   -3.3639636   -1.8321998  0.099837675   -3.3639636    1.5317638   566297 
 7267000    1.3173382   -3.3643977   -1.8324133  0.097278222   -3.3643977    1.5319844   566315 
 7268000    1.3175786   -3.3647914   -1.8325436  0.099929242   -3.3647914    1.5322478   566321 
 7269000    1.3160196     -3.36296   -1.8325901  0.097078042     -3.36296    1.5303699   566345 
 7270000     1.317574   -3.3655199    -1.833383  0.093589246   -3.3655199    1.5321369   566360 
 7271000    1.3169008   -3.3643069   -1.8330257  0.095582009   -3.3643069    1.5312811   566387 
 7272000    1.3189419   -3.3653349   -1.8317102  0.097740679   -3.3653349    1.5336247   566398 
 7273000    1.3205506   -3.3669295   -1.8314804  0.099400101   -3.3669295    1.5354491   566415 
 7274000      1.31864   -3.3651097   -1.8319146   0.09939811   -3.3651097    1.5331951   566427 
 7275000    1.3194219   -3.3664585   -1.8323217  0.097472074   -3.3664585    1.5341368   566415 
 7276000    1.3205728    -3.367663   -1.8321664  0.097923868    -3.367663    1.5354966   566407 
 7277000    1.3185153   -3.3647944   -1.8317307   0.10268713   -3.3647944    1.5330637   566422 
 7278000    1.3191554   -3.3653841   -1.8316303   0.10351945   -3.3653841    1.5337538   566442 
 7279000    1.3192057    -3.365757   -1.8319826   0.10114507    -3.365757    1.5337744   566456 
 7280000    1.3199351   -3.3663565   -1.8318452  0.094331192   -3.3663565    1.5345113   566497 
 7281000    1.3198211   -3.3654693   -1.8311393  0.098067188   -3.3654693    1.5343301   566515 
 7282000    1.3191989   -3.3660415    -1.832451   0.10026908   -3.3660415    1.5335905   566521 
 7283000    1.3190329   -3.3656392   -1.8322606  0.096494035   -3.3656392    1.5333786   566528 
 7284000    1.3191385   -3.3667096   -1.8332354   0.10254143   -3.3667096    1.5334743   566538 
 7285000    1.3186277   -3.3657885   -1.8329323   0.10761017   -3.3657885    1.5328561   566547 
 7286000    1.3170794   -3.3640688   -1.8330612   0.10608686   -3.3640688    1.5310077   566565 
 7287000    1.3188434   -3.3648663   -1.8319109   0.10276037   -3.3648663    1.5329553   566603 
 7288000    1.3204754   -3.3665346   -1.8317474     0.100039   -3.3665346    1.5347872   566627 
 7289000    1.3185273   -3.3653511   -1.8328633  0.099150772   -3.3653511    1.5324878   566640 
 7290000    1.3187522   -3.3645454   -1.8318124   0.10364742   -3.3645454     1.532733   566646 
 7291000    1.3204783   -3.3658459   -1.8310958   0.10560717   -3.3658459      1.53475   566642 
 7292000    1.3209845   -3.3655059   -1.8302136   0.10771248   -3.3655059    1.5352923   566659 
 7293000    1.3199358   -3.3652974   -1.8312646   0.10402625   -3.3652974    1.5340328   566674 
 7294000    1.3198151   -3.3655341   -1.8317038   0.10058689   -3.3655341    1.5338303   566697 
 7295000    1.3214175   -3.3668923   -1.8312458  0.098969397   -3.3668923    1.5356464   566714 
 7296000    1.3195827   -3.3657658   -1.8322623   0.10174159   -3.3657658    1.5335034   566718 
 7297000    1.3203699   -3.3668906   -1.8325482  0.092922707   -3.3668906    1.5343424   566746 
 7298000    1.3184113   -3.3646806   -1.8326305  0.098438709   -3.3646806    1.5320501   566752 
 7299000    1.3186764   -3.3651955   -1.8328697  0.095231153   -3.3651955    1.5323258   566764 
 7300000    1.3199343   -3.3668386   -1.8330998  0.092959687   -3.3668386    1.5337388   566782 
 7301000    1.3181996   -3.3640753   -1.8323927  0.099435341   -3.3640753    1.5316825   566797 
 7302000    1.3190666   -3.3651729   -1.8325046  0.092823417   -3.3651729    1.5326683   566805 
 7303000    1.3192963    -3.365353   -1.8324394   0.10023676    -3.365353    1.5329136   566813 
 7304000    1.3192906   -3.3655473   -1.8326728   0.10046782   -3.3655473    1.5328745   566825 
 7305000    1.3191436   -3.3649569   -1.8322776  0.096704993   -3.3649569    1.5326793   566834 
 7306000    1.3186574   -3.3643598   -1.8322615   0.10165132   -3.3643598    1.5320982   566840 
 7307000    1.3201253   -3.3653792   -1.8316025  0.098851339   -3.3653792    1.5337767   566850 
 7308000    1.3207019   -3.3656785   -1.8312211  0.097642526   -3.3656785    1.5344574   566846 
 7309000    1.3208927   -3.3661874   -1.8315029  0.097506391   -3.3661874    1.5346845   566844 
 7310000    1.3213558   -3.3662778   -1.8310878   0.10222361   -3.3662778    1.5351901   566856 
 7311000    1.3208518   -3.3660851    -1.831532   0.09957186   -3.3660851    1.5345531   566875 
 7312000    1.3205951   -3.3657389   -1.8315301  0.098197044   -3.3657389    1.5342089   566892 
 7313000    1.3226209   -3.3683802   -1.8318097   0.09568693   -3.3683802    1.5365704   566889 
 7314000      1.32139   -3.3668799    -1.831818  0.098396873   -3.3668799    1.5350619   566918 
 7315000    1.3203438    -3.365608   -1.8317749   0.10700552    -3.365608    1.5338331   566923 
 7316000     1.320866   -3.3652762   -1.8308311   0.10495648   -3.3652762    1.5344451   566921 
 7317000    1.3222247   -3.3676387    -1.831683   0.10074909   -3.3676387    1.5359557   566946 
 7318000    1.3222421   -3.3666131   -1.8306778  0.098384013   -3.3666131    1.5359353   566961 
 7319000     1.321572   -3.3656937   -1.8305151   0.10290356   -3.3656937    1.5351786   566953 
 7320000    1.3192683   -3.3645445   -1.8320095   0.10425893   -3.3645445     1.532535   566941 
 7321000    1.3195106   -3.3657402   -1.8329238   0.10143361   -3.3657402    1.5328164   566941 
 7322000    1.3190369    -3.365286   -1.8330928   0.10555427    -3.365286    1.5321932   566968 
 7323000    1.3199887   -3.3659694   -1.8327085   0.10518834   -3.3659694    1.5332609   566982 
 7324000    1.3193646   -3.3648893   -1.8323479   0.10653104   -3.3648893    1.5325414   566980 
 7325000    1.3206834   -3.3669239   -1.8328831   0.10252401   -3.3669239    1.5340408   566992 
 7326000    1.3193778   -3.3650816   -1.8326006  0.094903746   -3.3650816     1.532481   567008 
 7327000    1.3211528   -3.3664562   -1.8319107   0.10123231   -3.3664562    1.5345455   567007 
 7328000    1.3221835   -3.3674657   -1.8317393  0.098286245   -3.3674657    1.5357264   567013 
 7329000    1.3204324   -3.3658996   -1.8322125   0.10430085   -3.3658996    1.5336871   567015 
 7330000    1.3207908   -3.3673212   -1.8331881    0.1002298   -3.3673212    1.5341331   567004 
 7331000     1.320084   -3.3655891   -1.8323175   0.10017474   -3.3655891    1.5332715   567019 
 7332000    1.3203079   -3.3654081     -1.83189  0.099435407   -3.3654081    1.5335181   567024 
 7333000    1.3214179   -3.3665144   -1.8317638   0.10067393   -3.3665144    1.5347506   567045 
 7334000    1.3208272   -3.3657818   -1.8317281   0.10071255   -3.3657818    1.5340537   567049 
 7335000    1.3226063   -3.3673518   -1.8312806   0.10656621   -3.3673518    1.5360712   567067 
 7336000    1.3216823   -3.3662862   -1.8313261   0.10609776   -3.3662862    1.5349602   567081 
 7337000    1.3234466   -3.3675712   -1.8305701   0.10555474   -3.3675712    1.5370011   567084 
 7338000    1.3224061   -3.3670901   -1.8313273    0.0954309   -3.3670901    1.5357628   567095 
 7339000    1.3224703   -3.3664467   -1.8306228   0.10340704   -3.3664467    1.5358239   567100 
 7340000    1.3223476    -3.366367   -1.8306911   0.10139261    -3.366367    1.5356759   567102 
 7341000    1.3233028   -3.3668083   -1.8300474   0.10398545   -3.3668083    1.5367608   567111 
 7342000    1.3214798    -3.364624   -1.8299991   0.09636401    -3.364624    1.5346249   567118 
 7343000    1.3219958   -3.3657558   -1.8305507  0.096361542   -3.3657558    1.5352051   567125 
 7344000    1.3209135   -3.3653051   -1.8313974   0.10542642   -3.3653051    1.5339077   567140 
 7345000    1.3213949   -3.3654244   -1.8310389  0.095562496   -3.3654244    1.5343855   567170 
 7346000    1.3212743   -3.3661259   -1.8319318  0.098126514   -3.3661259    1.5341941   567189 
 7347000    1.3193635    -3.364894   -1.8329536    0.1011748    -3.364894    1.5319404   567202 
 7348000    1.3198174   -3.3653624   -1.8329058  0.099294617   -3.3653624    1.5324566   567206 
 7349000    1.3201851   -3.3656159   -1.8327433   0.10604995   -3.3656159    1.5328726   567210 
 7350000    1.3197598   -3.3652824   -1.8329359   0.10005895   -3.3652824    1.5323465   567222 
 7351000    1.3203497   -3.3666997   -1.8337305   0.10342133   -3.3666997    1.5329692   567245 
 7352000    1.3204884   -3.3673367   -1.8342065  0.096750977   -3.3673367    1.5331302   567245 
 7353000     1.321694   -3.3689956   -1.8345522  0.097045089   -3.3689956    1.5344434   567277 
 7354000    1.3204423    -3.366646    -1.833672   0.10121944    -3.366646     1.532974   567283 
 7355000    1.3211234   -3.3676152   -1.8338396   0.10116357   -3.3676152    1.5337756   567279 
 7356000    1.3202448   -3.3662156    -1.833506  0.096949513   -3.3662156    1.5327095   567296 
 7357000    1.3211804   -3.3673593    -1.833596  0.099910001   -3.3673593    1.5337633   567308 
 7358000    1.3191363   -3.3658042   -1.8344516   0.10114112   -3.3658042    1.5313525   567322 
 7359000    1.3215211   -3.3686683   -1.8345797  0.099274871   -3.3686683    1.5340885   567334 
 7360000    1.3209033   -3.3689248   -1.8356102   0.10064122   -3.3689248    1.5333146   567355 
 7361000     1.321067   -3.3685622    -1.835109  0.098135037   -3.3685622    1.5334533   567374 
 7362000    1.3203289   -3.3678109   -1.8352766   0.10475541   -3.3678109    1.5325344   567397 
 7363000    1.3223166   -3.3703059   -1.8354968   0.10451258   -3.3703059    1.5348091   567409 
 7364000      1.32215   -3.3712827   -1.8367292  0.096364478   -3.3712827    1.5345535   567432 
 7365000    1.3206938   -3.3680801   -1.8352167   0.10346252   -3.3680801    1.5328634   567432 
 7366000    1.3220507   -3.3691545   -1.8347487  0.099467083   -3.3691545    1.5344058   567444 
 7367000     1.320945   -3.3704119   -1.8372839   0.10384601   -3.3704119     1.533128   567442 
 7368000    1.3207452   -3.3691312   -1.8362568   0.10208515   -3.3691312    1.5328744   567450 
 7369000    1.3203386   -3.3692008   -1.8368171  0.099196466   -3.3692008    1.5323836   567457 
 7370000    1.3217722   -3.3710119   -1.8369537  0.098474622   -3.3710119    1.5340583   567453 
 7371000    1.3224184   -3.3731746   -1.8383773  0.096377927   -3.3731746    1.5347974   567457 
 7372000     1.320435   -3.3709036   -1.8384162   0.10021636   -3.3709036    1.5324874   567460 
 7373000    1.3203393   -3.3711068   -1.8387602   0.10039743   -3.3711068    1.5323466   567471 
 7374000     1.320109   -3.3706745   -1.8386222   0.10307662   -3.3706745    1.5320524   567481 
 7375000    1.3210797   -3.3707612   -1.8376661  0.096557563   -3.3707612    1.5330951   567512 
 7376000    1.3212572    -3.371292   -1.8379963  0.099477911    -3.371292    1.5332957   567514 
 7377000    1.3210403   -3.3707539    -1.837745  0.097923042   -3.3707539    1.5330089   567527 
 7378000    1.3200039   -3.3704081   -1.8386612  0.093980542   -3.3704081    1.5317469   567549 
 7379000    1.3201526   -3.3698864    -1.838013   0.10023685   -3.3698864    1.5318734   567566 
 7380000    1.3219311   -3.3712185   -1.8373435  0.098009275   -3.3712185     1.533875   567589 
 7381000    1.3223686    -3.371185   -1.8368239  0.097967761    -3.371185     1.534361   567597 
 7382000    1.3222466   -3.3712031   -1.8370431  0.096810598   -3.3712031      1.53416   567619 
 7383000    1.3223572   -3.3706647   -1.8364304  0.096289263   -3.3706647    1.5342343   567639 
 7384000    1.3219885   -3.3700525   -1.8362811  0.098929514   -3.3700525    1.5337714   567652 
 7385000    1.3210849    -3.368907   -1.8362217  0.096874968    -3.368907    1.5326853   567666 
 7386000     1.320842   -3.3686421   -1.8362603   0.09893538   -3.3686421    1.5323818   567674 
 7387000    1.3212463   -3.3686913   -1.8358647  0.099742407   -3.3686913    1.5328265   567683 
 7388000    1.3227472   -3.3706938   -1.8361368  0.099681822   -3.3706938    1.5345571   567687 
 7389000    1.3213486   -3.3696524   -1.8367314  0.093714478   -3.3696524    1.5329209   567692 
 7390000    1.3213851   -3.3692587   -1.8363522  0.098984092   -3.3692587    1.5329066   567713 
 7391000    1.3210852   -3.3698438    -1.837304  0.098871409   -3.3698438    1.5325398   567720 
 7392000    1.3196104   -3.3677942    -1.836976  0.099501499   -3.3677942    1.5308182   567724 
 7393000    1.3199581   -3.3690201   -1.8378282  0.094642629   -3.3690201    1.5311919   567735 
 7394000    1.3210399   -3.3703662   -1.8379248  0.095767987   -3.3703662    1.5324414   567737 
 7395000    1.3213156   -3.3697242   -1.8369765  0.096987984   -3.3697242    1.5327477   567742 
 7396000    1.3212693   -3.3690605   -1.8364313   0.10155046   -3.3690605    1.5326292   567766 
 7397000    1.3222086   -3.3706279   -1.8369605  0.097963233   -3.3706279    1.5336674   567785 
 7398000    1.3220299   -3.3707968   -1.8373906   0.10517182   -3.3707968    1.5334061   567805 
 7399000    1.3230528   -3.3728986   -1.8383357  0.099602516   -3.3728986    1.5345629   567816 
 7400000    1.3222438    -3.370369   -1.8367418   0.10186412    -3.370369    1.5336272   567815 
 7401000    1.3226446   -3.3721579   -1.8381117   0.10159504   -3.3721579    1.5340462   567832 
 7402000    1.3211566   -3.3695526   -1.8372835   0.10726306   -3.3695526    1.5322691   567851 
 7403000    1.3224561   -3.3720364   -1.8382872  0.094305985   -3.3720364    1.5337492   567861 
 7404000    1.3222833   -3.3711429   -1.8376265   0.10353607   -3.3711429    1.5335164   567873 
 7405000    1.3226493   -3.3718313   -1.8379309     0.101449   -3.3718313    1.5339004   567888 
 7406000     1.322545   -3.3723378   -1.8385935   0.10409302   -3.3723378    1.5337443   567901 
 7407000    1.3212511   -3.3713091   -1.8390843   0.10477476   -3.3713091    1.5322248   567908 
 7408000    1.3226413    -3.373954   -1.8401628   0.10105647    -3.373954    1.5337912   567925 
 7409000    1.3210978   -3.3714497     -1.83947   0.10350599   -3.3714497    1.5319796   567933 
 7410000    1.3225741   -3.3733122   -1.8396395   0.10245456   -3.3733122    1.5336727   567940 
 7411000    1.3223018   -3.3733903   -1.8400414   0.10163577   -3.3733903    1.5333489   567943 
 7412000    1.3221585   -3.3734555   -1.8402998   0.10087024   -3.3734555    1.5331557   567953 
 7413000    1.3214986    -3.373267   -1.8409359   0.10035426    -3.373267    1.5323311   567975 
 7414000     1.319885   -3.3719493   -1.8415162  0.099699149   -3.3719493    1.5304331   567985 
 7415000    1.3209457   -3.3730146   -1.8413866    0.1027225   -3.3730146     1.531628   567998 
 7416000    1.3226983   -3.3749188   -1.8412884   0.09882254   -3.3749188    1.5336304   568009 
 7417000    1.3213728   -3.3746263   -1.8425435  0.098954109   -3.3746263    1.5320828   568013 
 7418000    1.3213962    -3.373148   -1.8410382   0.10131275    -3.373148    1.5321098   568013 
 7419000    1.3218136   -3.3741595   -1.8416142   0.10389372   -3.3741595    1.5325452   568031 
 7420000    1.3210181   -3.3722751   -1.8406655   0.10558872   -3.3722751    1.5316095   568036 
 7421000    1.3221024   -3.3728135    -1.839955   0.10589427   -3.3728135    1.5328585   568039 
 7422000    1.3234873   -3.3743869   -1.8399984   0.10670094   -3.3743869    1.5343885   568067 
 7423000    1.3231463   -3.3734372   -1.8394926  0.099759765   -3.3734372    1.5339446   568085 
 7424000    1.3214562     -3.37175   -1.8397648   0.10367237     -3.37175    1.5319853   568085 
 7425000    1.3229506   -3.3730752   -1.8394141  0.099810198   -3.3730752    1.5336611   568106 
 7426000    1.3225945   -3.3723562   -1.8391566  0.099258097   -3.3723562    1.5331996   568124 
 7427000    1.3224631   -3.3738825   -1.8408676  0.098472259   -3.3738825     1.533015   568136 
 7428000    1.3227266   -3.3740894   -1.8408095   0.10625087   -3.3740894    1.5332798   568151 
 7429000     1.324689   -3.3753477   -1.8398282  0.098386811   -3.3753477    1.5355196   568164 
 7430000    1.3229354   -3.3734406   -1.8399861   0.09844645   -3.3734406    1.5334545   568176 
 7431000    1.3247036   -3.3745675   -1.8391445    0.0946656   -3.3745675     1.535423   568206 
 7432000    1.3236934   -3.3734258   -1.8392034   0.10238531   -3.3734258    1.5342224   568217 
 7433000      1.32278    -3.373046   -1.8399417  0.099160173    -3.373046    1.5331043   568239 
 7434000    1.3231359   -3.3742845   -1.8408001  0.099846429   -3.3742845    1.5334844   568251 
 7435000    1.3236871   -3.3750704   -1.8409525   0.10104936   -3.3750704    1.5341178   568253 
 7436000    1.3252611   -3.3752166   -1.8392555   0.10073898   -3.3752166     1.535961   568246 
 7437000    1.3249596   -3.3745026   -1.8389531    0.1073428   -3.3745026    1.5355495   568269 
 7438000    1.3245653   -3.3741762   -1.8391323   0.09988007   -3.3741762    1.5350439   568287 
 7439000    1.3236292   -3.3729503   -1.8390642     0.101594   -3.3729503    1.5338861   568314 
 7440000    1.3233966   -3.3727869   -1.8392054    0.1025273   -3.3727869    1.5335815   568327 
 7441000    1.3235475    -3.372616   -1.8388811   0.10196905    -3.372616    1.5337348   568335 
 7442000    1.3257964   -3.3745301   -1.8382218   0.10317609   -3.3745301    1.5363084   568347 
 7443000    1.3243634   -3.3736415   -1.8389936   0.10082633   -3.3736415    1.5346479   568347 
 7444000    1.3238544   -3.3730671   -1.8390496  0.099501684   -3.3730671    1.5340175   568362 
 7445000    1.3256295   -3.3750828   -1.8390517   0.10379679   -3.3750828    1.5360312   568378 
 7446000    1.3246799   -3.3748236   -1.8400007   0.10169473   -3.3748236    1.5348228   568418 
 7447000    1.3236483   -3.3734208   -1.8398363   0.10073548   -3.3734208    1.5335844   568434 
 7448000    1.3236794   -3.3743441   -1.8407749  0.097533696   -3.3743441    1.5335692   568453 
 7449000    1.3249548   -3.3750129   -1.8399823   0.10319174   -3.3750129    1.5350306   568459 
 7450000    1.3250539   -3.3747869   -1.8396765  0.099595131   -3.3747869    1.5351104   568472 
 7451000    1.3238961   -3.3751212   -1.8413927  0.098330654   -3.3751212    1.5337285   568487 
 7452000    1.3227067   -3.3746168   -1.8423094  0.099868185   -3.3746168    1.5323075   568503 
 7453000      1.32367   -3.3749596   -1.8415658  0.094965201   -3.3749596    1.5333938   568514 
 7454000    1.3226183   -3.3731959   -1.8410608   0.10144477   -3.3731959    1.5321351   568529 
 7455000    1.3218662   -3.3732809   -1.8420144   0.10202658   -3.3732809    1.5312665   568528 
 7456000    1.3233862   -3.3749149   -1.8418984   0.10091343   -3.3749149    1.5330164   568532 
 7457000    1.3213151   -3.3739435   -1.8433423  0.097274767   -3.3739435    1.5306012   568538 
 7458000    1.3232391    -3.375486   -1.8426831  0.096917366    -3.375486    1.5328029   568548 
 7459000    1.3212227   -3.3737054   -1.8432731  0.099154622   -3.3737054    1.5304322   568561 
 7460000    1.3228011   -3.3749017   -1.8427355   0.09864048   -3.3749017    1.5321662   568596 
 7461000     1.323183   -3.3757053   -1.8431371  0.095337774   -3.3757053    1.5325682   568611 
 7462000    1.3223478    -3.375798   -1.8442215  0.093499035    -3.375798    1.5315765   568620 
 7463000    1.3221927   -3.3753903   -1.8440392   0.09878341   -3.3753903    1.5313511   568637 
 7464000    1.3221584   -3.3751289   -1.8438471  0.096864624   -3.3751289    1.5312818   568648 
 7465000    1.3228675   -3.3753564   -1.8432831  0.092651053   -3.3753564    1.5320733   568659 
 7466000    1.3241474   -3.3767892   -1.8432632   0.10254163   -3.3767892     1.533526   568670 
 7467000     1.322999   -3.3744951   -1.8423395   0.10590761   -3.3744951    1.5321556   568685 
 7468000    1.3252623   -3.3780441    -1.843343  0.095239465   -3.3780441    1.5347011   568713 
 7469000    1.3235017   -3.3761486   -1.8435132   0.10396746   -3.3761486    1.5326354   568723 
 7470000    1.3238925   -3.3769064   -1.8438185  0.097537803   -3.3769064     1.533088   568723 
 7471000    1.3225116   -3.3763241   -1.8448191  0.098799008   -3.3763241     1.531505   568717 
 7472000    1.3231583   -3.3762532   -1.8440451  0.093605268   -3.3762532    1.5322081   568734 
 7473000    1.3238542   -3.3754724   -1.8425016  0.097658502   -3.3754724    1.5329708   568750 
 7474000    1.3220762   -3.3748023   -1.8439172  0.099934205   -3.3748023    1.5308851   568760 
 7475000    1.3233159   -3.3764511   -1.8441629  0.098546423   -3.3764511    1.5322882   568772 
 7476000    1.3237841    -3.376655   -1.8438543   0.10037579    -3.376655    1.5328006   568783 
 7477000    1.3249817   -3.3776537   -1.8435554  0.098332904   -3.3776537    1.5340983   568816 
 7478000    1.3247782   -3.3776232   -1.8438063  0.095251436   -3.3776232    1.5338169   568833 
 7479000    1.3231013   -3.3750768   -1.8432096  0.097572439   -3.3750768    1.5318673   568836 
 7480000    1.3247585    -3.376089   -1.8423569   0.10097909    -3.376089    1.5337321   568856 
 7481000    1.3221358   -3.3747055   -1.8440045  0.098208264   -3.3747055     1.530701   568854 
 7482000     1.323648    -3.375793   -1.8433385   0.10005172    -3.375793    1.5324545   568853 
 7483000    1.3224728    -3.374656   -1.8435944   0.10275794    -3.374656    1.5310616   568865 
 7484000    1.3249825    -3.377967   -1.8440106  0.097631756    -3.377967    1.5339564   568869 
 7485000     1.323905   -3.3760018   -1.8433332   0.10213274   -3.3760018    1.5326685   568884 
 7486000    1.3249104   -3.3757404   -1.8419349  0.099211565   -3.3757404    1.5338055   568894 
 7487000    1.3234645   -3.3753795   -1.8433045   0.10261472   -3.3753795     1.532075   568915 
 7488000    1.3226206   -3.3745664   -1.8434575  0.096548284   -3.3745664    1.5311089   568911 
 7489000    1.3229794   -3.3751504   -1.8436585   0.10723172   -3.3751504    1.5314919   568923 
 7490000    1.3245684   -3.3768123   -1.8434999  0.099955675   -3.3768123    1.5333125   568930 
 7491000    1.3218771   -3.3738982   -1.8437306    0.1044327   -3.3738982    1.5301675   568941 
 7492000    1.3234444   -3.3759524   -1.8440084   0.10327457   -3.3759524     1.531944   568955 
 7493000    1.3250207   -3.3782264   -1.8445116  0.094449834   -3.3782264    1.5337148   568975 
 7494000     1.324291     -3.37819   -1.8453602   0.10112151     -3.37819    1.5328297   568990 
 7495000    1.3244058    -3.378047   -1.8451276   0.10062296    -3.378047    1.5329195   569006 
 7496000    1.3236646    -3.376509   -1.8445066   0.10682528    -3.376509    1.5320024   569028 
 7497000    1.3250848   -3.3772112   -1.8435946   0.10408839   -3.3772112    1.5336166   569039 
 7498000    1.3256599   -3.3786059   -1.8443777  0.095617699   -3.3786059    1.5342281   569059 
 7499000     1.325934    -3.379503   -1.8449738   0.10189753    -3.379503    1.5345292   569065 
 7500000    1.3256144    -3.379084   -1.8449596   0.10098989    -3.379084    1.5341243   569078 
 7501000    1.3258868   -3.3796177   -1.8452159  0.095846556   -3.3796177    1.5344018   569092 
 7502000    1.3253793   -3.3783145   -1.8445162   0.10097133   -3.3783145    1.5337983   569098 
 7503000    1.3242086   -3.3775656   -1.8451408   0.10283219   -3.3775656    1.5324247   569105 
 7504000    1.3238489   -3.3785331   -1.8465759   0.10283152   -3.3785331    1.5319572   569124 
 7505000    1.3237914   -3.3787007   -1.8468343  0.098357708   -3.3787007    1.5318665   569133 
 7506000    1.3246585   -3.3808585   -1.8480047   0.09622039   -3.3808585    1.5328537   569139 
 7507000    1.3223153   -3.3777683   -1.8476422    0.1014273   -3.3777683    1.5301261   569145 
 7508000    1.3236421   -3.3781909   -1.8465832   0.10129056   -3.3781909    1.5316077   569165 
 7509000     1.324027   -3.3796304   -1.8475801  0.091796994   -3.3796304    1.5320503   569166 
 7510000    1.3224135   -3.3781313   -1.8479857  0.099372452   -3.3781313    1.5301457   569180 
 7511000    1.3234899   -3.3790067   -1.8476559  0.098572529   -3.3790067    1.5313508   569195 
 7512000    1.3229317   -3.3789817   -1.8482982   0.10442349   -3.3789817    1.5306834   569203 
 7513000    1.3240421   -3.3804222   -1.8484621  0.096769909   -3.3804222    1.5319601   569206 
 7514000    1.3242706   -3.3808833   -1.8487019   0.10069607   -3.3808833    1.5321814   569222 
 7515000    1.3242082   -3.3800664   -1.8479599    0.1007361   -3.3800664    1.5321065   569223 
 7516000    1.3234315   -3.3789885   -1.8477941  0.098142583   -3.3789885    1.5311944   569228 
 7517000     1.323234     -3.37955   -1.8486325  0.097732582     -3.37955    1.5309175   569246 
 7518000    1.3241416   -3.3800896   -1.8481706   0.10151171   -3.3800896    1.5319191   569264 
 7519000    1.3227672   -3.3788897   -1.8486036   0.10580374   -3.3788897    1.5302861   569280 
 7520000    1.3237252   -3.3796181    -1.848299   0.10040121   -3.3796181    1.5313191   569308 
 7521000    1.3242239   -3.3807414   -1.8488966  0.099255855   -3.3807414    1.5318449   569327 
 7522000    1.3222558   -3.3781594    -1.848645   0.09985658   -3.3781594    1.5295144   569347 
 7523000     1.323843   -3.3797185   -1.8483655   0.09505339   -3.3797185    1.5313531   569346 
 7524000    1.3212435   -3.3781898   -1.8498303   0.09864067   -3.3781898    1.5283595   569341 
 7525000    1.3232331   -3.3804689   -1.8498481  0.095343173   -3.3804689    1.5306207   569356 
 7526000    1.3236062   -3.3819556   -1.8508898  0.099717857   -3.3819556    1.5310657   569351 
 7527000    1.3220005   -3.3803918   -1.8512211  0.097600757   -3.3803918    1.5291707   569365 
 7528000    1.3236764   -3.3806321    -1.849555   0.10068345   -3.3806321     1.531077   569377 
 7529000    1.3235908   -3.3807616   -1.8498158  0.096812337   -3.3807616    1.5309458   569389 
 7530000    1.3253369   -3.3821976   -1.8492887   0.10283881   -3.3821976    1.5329089   569410 
 7531000     1.326173   -3.3829679   -1.8491674  0.096529098   -3.3829679    1.5338005   569438 
 7532000    1.3233053   -3.3796774   -1.8492204  0.099024496   -3.3796774     1.530457   569448 
 7533000    1.3228261   -3.3806644   -1.8507913  0.099806554   -3.3806644    1.5298731   569459 
 7534000    1.3223536   -3.3800644   -1.8507269   0.10596771   -3.3800644    1.5293375   569455 
 7535000    1.3247239   -3.3820499   -1.8499927   0.10008797   -3.3820499    1.5320572   569463 
 7536000     1.326317    -3.383636   -1.8497875  0.097875128    -3.383636    1.5338486   569482 
 7537000    1.3268372   -3.3853814   -1.8509475  0.097077662   -3.3853814    1.5344339   569488 
 7538000    1.3245253    -3.381975   -1.8502739   0.10351943    -3.381975    1.5317012   569510 
 7539000    1.3232104   -3.3799844   -1.8498361   0.10634201   -3.3799844    1.5301484   569522 
 7540000    1.3251432   -3.3817989   -1.8494532   0.10185308   -3.3817989    1.5323458   569536 
 7541000    1.3255886   -3.3832219   -1.8503934   0.10073557   -3.3832219    1.5328285   569548 
 7542000    1.3269398   -3.3842897   -1.8499364  0.094582813   -3.3842897    1.5343533   569562 
 7543000    1.3261731   -3.3829981   -1.8495396   0.10127098   -3.3829981    1.5334586   569565 
 7544000     1.324425   -3.3815219   -1.8501303   0.10025941   -3.3815219    1.5313916   569582 
 7545000    1.3257613    -3.381822   -1.8489633   0.10427046    -3.381822    1.5328587   569611 
 7546000    1.3242764   -3.3810767   -1.8499538  0.099507446   -3.3810767    1.5311229   569618 
 7547000    1.3232185   -3.3813441   -1.8514605   0.10460531   -3.3813441    1.5298837   569624 
 7548000    1.3268184   -3.3847428    -1.850705  0.091710251   -3.3847428    1.5340378   569627 
 7549000    1.3241332    -3.382408   -1.8515231   0.10180353    -3.382408    1.5308849   569645 
 7550000    1.3243804   -3.3809911   -1.8499039   0.10446737   -3.3809911    1.5310873   569676 
 7551000    1.3242003   -3.3810103   -1.8502173   0.10317271   -3.3810103    1.5307931   569708 
 7552000    1.3257262    -3.382342   -1.8498468   0.10104713    -3.382342    1.5324952   569731 
 7553000    1.3253748   -3.3831401   -1.8510323  0.099979971   -3.3831401    1.5321079   569724 
 7554000    1.3262367   -3.3833061   -1.8502504  0.098671096   -3.3833061    1.5330558   569742 
 7555000    1.3250117   -3.3816949   -1.8500956  0.099367905   -3.3816949    1.5315994   569757 
 7556000    1.3274284   -3.3835063   -1.8491699   0.10289737   -3.3835063    1.5343364   569778 
 7557000    1.3240032   -3.3805273   -1.8501662   0.10049242   -3.3805273    1.5303611   569784 
 7558000     1.324955   -3.3826997   -1.8512599   0.10040696   -3.3826997    1.5314398   569792 
 7559000    1.3255846   -3.3818254   -1.8497143  0.097645391   -3.3818254     1.532111   569813 
 7560000    1.3250212   -3.3827073   -1.8512932   0.10273614   -3.3827073    1.5314141   569830 
 7561000    1.3255708   -3.3822823    -1.850319  0.098893582   -3.3822823    1.5319633   569862 
 7562000    1.3273487   -3.3839035   -1.8499447    0.1017061   -3.3839035    1.5339588   569884 
 7563000    1.3250574   -3.3821012   -1.8508467   0.10314126   -3.3821012    1.5312545   569905 
 7564000    1.3256927   -3.3827951   -1.8508334  0.098034713   -3.3827951    1.5319617   569915 
 7565000    1.3230335   -3.3800522   -1.8511983   0.10271622   -3.3800522    1.5288539   569928 
 7566000    1.3253923   -3.3828978   -1.8513719   0.10424238   -3.3828978    1.5315259   569948 
 7567000    1.3247523   -3.3826866   -1.8519056   0.10201601   -3.3826866     1.530781   569950 
 7568000    1.3237116   -3.3814022   -1.8518747   0.10166013   -3.3814022    1.5295275   569969 
 7569000    1.3267873   -3.3837632    -1.850749    0.1028188   -3.3837632    1.5330141   569994 
 7570000    1.3281472   -3.3848267   -1.8502467   0.10373923   -3.3848267      1.53458   569996 
 7571000    1.3271751    -3.384605    -1.851175  0.098850412    -3.384605    1.5334299   570006 
 7572000    1.3277156   -3.3847801   -1.8507391   0.10363626   -3.3847801     1.534041   570011 
 7573000    1.3266452    -3.381847   -1.8490697   0.10705191    -3.381847    1.5327773   570021 
 7574000    1.3271134   -3.3839039   -1.8506072   0.10520282   -3.3839039    1.5332967   570029 
 7575000    1.3262507   -3.3839074   -1.8516396  0.094372869   -3.3839074    1.5322678   570041 
 7576000    1.3253978   -3.3818849   -1.8506482   0.10496788   -3.3818849    1.5312367   570058 
 7577000    1.3238924   -3.3801032   -1.8505842   0.10275175   -3.3801032     1.529519   570050 
 7578000    1.3273119   -3.3839543   -1.8505224  0.097712534   -3.3839543     1.533432   570064 
 7579000    1.3267422   -3.3844619   -1.8517338  0.099869542   -3.3844619     1.532728   570081 
 7580000    1.3256731   -3.3834857   -1.8520088   0.10336789   -3.3834857    1.5314769   570087 
 7581000    1.3256325   -3.3826682   -1.8512356  0.098026721   -3.3826682    1.5314326   570086 
 7582000     1.326222   -3.3837241   -1.8516265   0.10249465   -3.3837241    1.5320976   570092 
 7583000    1.3279297   -3.3852852   -1.8512149  0.096712842   -3.3852852    1.5340703   570092 
 7584000    1.3261669   -3.3837395   -1.8517379  0.099476246   -3.3837395    1.5320016   570104 
 7585000    1.3243014   -3.3812069   -1.8513845   0.10402569   -3.3812069    1.5298224   570113 
 7586000    1.3254042   -3.3825463   -1.8514875   0.10634356   -3.3825463    1.5310587   570127 
 7587000    1.3253956   -3.3803108   -1.8492942   0.10731427   -3.3803108    1.5310166   570139 
 7588000    1.3279627   -3.3853861   -1.8514069   0.10466796   -3.3853861    1.5339793   570140 
 7589000    1.3260539     -3.38294   -1.8512409   0.10301836     -3.38294    1.5316992   570168 
 7590000    1.3270687   -3.3839815   -1.8511425   0.10124789   -3.3839815    1.5328391   570180 
 7591000    1.3255844   -3.3827984     -1.85169    0.1029073   -3.3827984    1.5311085   570186 
 7592000    1.3246807   -3.3828319   -1.8527807   0.10464101   -3.3828319    1.5300512   570191 
 7593000    1.3271838   -3.3845436   -1.8516387  0.098301297   -3.3845436    1.5329048   570205 
 7594000    1.3265994   -3.3851821   -1.8529765  0.098815851   -3.3851821    1.5322056   570214 
 7595000    1.3268542   -3.3851814   -1.8527326    0.1024434   -3.3851814    1.5324488   570233 
 7596000    1.3269618   -3.3844729   -1.8519186   0.10468717   -3.3844729    1.5325543   570240 
 7597000    1.3242732   -3.3816484   -1.8522261   0.10552849   -3.3816484    1.5294223   570250 
 7598000    1.3267112   -3.3839316   -1.8517259   0.10442319   -3.3839316    1.5322057   570262 
 7599000    1.3271409   -3.3846312   -1.8519533   0.10556781   -3.3846312    1.5326778   570271 
 7600000    1.3280064   -3.3868028   -1.8531685   0.10300867   -3.3868028    1.5336343   570287 
 7601000    1.3282324     -3.38651   -1.8526389  0.097916828     -3.38651    1.5338711   570296 
 7602000    1.3275549   -3.3863113   -1.8532628   0.10531388   -3.3863113    1.5330485   570311 
 7603000     1.328136   -3.3873167   -1.8536753   0.10215385   -3.3873167    1.5336415   570340 
 7604000    1.3282854   -3.3873484   -1.8535424   0.10520864   -3.3873484     1.533806   570343 
 7605000    1.3265824   -3.3854794   -1.8536776   0.10497238   -3.3854794    1.5318018   570357 
 7606000    1.3275306   -3.3864751   -1.8536133  0.098860279   -3.3864751    1.5328618   570370 
 7607000    1.3275709   -3.3861304   -1.8532516   0.10110446   -3.3861304    1.5328788   570381 
 7608000    1.3267197   -3.3847461   -1.8529039   0.10715357   -3.3847461    1.5318422   570401 
 7609000     1.327339   -3.3857395   -1.8532387   0.10640734   -3.3857395    1.5325008   570422 
 7610000    1.3276815   -3.3860631   -1.8531884   0.10322962   -3.3860631    1.5328747   570430 
 7611000    1.3277453   -3.3879326    -1.855046  0.098018205   -3.3879326    1.5328867   570453 
 7612000    1.3246469     -3.38545   -1.8561834   0.09579151     -3.38545    1.5292666   570469 
 7613000    1.3251554   -3.3862866    -1.856492  0.099811818   -3.3862866    1.5297947   570491 
 7614000    1.3259322   -3.3882399   -1.8575431  0.099644607   -3.3882399    1.5306968   570489 
 7615000    1.3256096   -3.3867694   -1.8564987  0.095874376   -3.3867694    1.5302707   570509 
 7616000    1.3259169   -3.3868436   -1.8562584  0.095027201   -3.3868436    1.5305852   570524 
 7617000    1.3246815   -3.3861391   -1.8569986  0.096476772   -3.3861391    1.5291404   570531 
 7618000    1.3247892   -3.3868957   -1.8576739   0.09073664   -3.3868957    1.5292218   570547 
 7619000    1.3246066   -3.3854858   -1.8565338   0.10134593   -3.3854858    1.5289521   570569 
 7620000    1.3256953   -3.3854188   -1.8552772  0.096879965   -3.3854188    1.5301417   570594 
 7621000    1.3273344   -3.3875341    -1.855565   0.09797942   -3.3875341    1.5319691   570618 
 7622000    1.3268611   -3.3868676   -1.8554448  0.098845478   -3.3868676    1.5314228   570618 
 7623000     1.327205   -3.3867088   -1.8549481  0.093858783   -3.3867088    1.5317608   570640 
 7624000    1.3256777   -3.3858974   -1.8559315  0.093873517   -3.3858974    1.5299659   570652 
 7625000    1.3268775   -3.3873074   -1.8559997   0.10207519   -3.3873074    1.5313077   570668 
 7626000    1.3259702   -3.3856921   -1.8554504   0.10294658   -3.3856921    1.5302417   570675 
 7627000     1.326021   -3.3859352    -1.855659   0.10068556   -3.3859352    1.5302762   570684 
 7628000     1.325355   -3.3854765   -1.8559823    0.1023581   -3.3854765    1.5294942   570689 
 7629000    1.3275525   -3.3873791   -1.8553677  0.094887327   -3.3873791    1.5320114   570696 
 7630000    1.3271216   -3.3868735   -1.8554102  0.099720378   -3.3868735    1.5314632   570715 
 7631000     1.327992    -3.387312   -1.8548982  0.099109856    -3.387312    1.5324139   570735 
 7632000    1.3277989   -3.3871332    -1.854977   0.10303862   -3.3871332    1.5321562   570748 
 7633000     1.326534    -3.386706   -1.8560684   0.10227157    -3.386706    1.5306376   570770 
 7634000    1.3247828   -3.3854964   -1.8569009   0.10063163   -3.3854964    1.5285955   570778 
 7635000    1.3259657   -3.3871492   -1.8572237   0.10433696   -3.3871492    1.5299255   570791 
 7636000    1.3260416   -3.3863491   -1.8563359   0.10478948   -3.3863491    1.5300132   570791 
 7637000    1.3266843   -3.3874221    -1.856721   0.10545263   -3.3874221    1.5307011   570811 
 7638000     1.326747   -3.3878207   -1.8570579   0.10177669   -3.3878207    1.5307627   570815 
 7639000    1.3257917   -3.3868606   -1.8572297  0.099659829   -3.3868606     1.529631   570826 
 7640000    1.3257886    -3.386468    -1.856846   0.10334212    -3.386468     1.529622   570828 
 7641000    1.3269442   -3.3877736   -1.8568183   0.10045642   -3.3877736    1.5309554   570828 
 7642000     1.326979   -3.3876059   -1.8566237   0.10007162   -3.3876059    1.5309821   570833 
 7643000    1.3281477   -3.3871553    -1.854849   0.10742036   -3.3871553    1.5323063   570842 
 7644000     1.325855   -3.3847314   -1.8551238    0.1053984   -3.3847314    1.5296076   570862 
 7645000    1.3271365   -3.3867824   -1.8557554   0.10218568   -3.3867824     1.531027   570884 
 7646000    1.3281146   -3.3869236   -1.8547978  0.099741331   -3.3869236    1.5321258   570895 
 7647000    1.3278986   -3.3871818   -1.8553105   0.10748314   -3.3871818    1.5318713   570897 
 7648000    1.3275332   -3.3872278   -1.8558075  0.096990434   -3.3872278    1.5314203   570908 
 7649000    1.3276772   -3.3875351   -1.8559701  0.094396644   -3.3875351     1.531565   570916 
 7650000    1.3279119   -3.3867905    -1.854995   0.10436198   -3.3867905    1.5317955   570931 
 7651000    1.3278956   -3.3877868   -1.8560504   0.10203902   -3.3877868    1.5317364   570946 
 7652000    1.3277308   -3.3878874   -1.8563625   0.10021213   -3.3878874    1.5315248   570954 
 7653000    1.3261149   -3.3866813   -1.8570178  0.099253146   -3.3866813    1.5296636   570953 
 7654000    1.3277076   -3.3881947   -1.8567235  0.098944082   -3.3881947    1.5314712   570964 
 7655000    1.3274956   -3.3866429   -1.8554672    0.1027923   -3.3866429    1.5311757   570983 
 7656000    1.3280561   -3.3874199   -1.8556513   0.10216393   -3.3874199    1.5317686   571003 
 7657000     1.327246   -3.3863236   -1.8555269   0.10417776   -3.3863236    1.5307967   571017 
 7658000    1.3276682   -3.3860955   -1.8548279   0.10804157   -3.3860955    1.5312676   571023 
 7659000    1.3268662   -3.3864342   -1.8561131   0.10017368   -3.3864342    1.5303211   571031 
 7660000    1.3276555   -3.3873595   -1.8561817  0.099754543   -3.3873595    1.5311779   571051 
 7661000    1.3269418   -3.3879187   -1.8576068   0.10111315   -3.3879187    1.5303119   571067 
 7662000    1.3264838   -3.3879857   -1.8582368  0.097328936   -3.3879857    1.5297489   571080 
 7663000    1.3250699   -3.3857425   -1.8576777   0.10558363   -3.3857425    1.5280648   571100 
 7664000    1.3260603   -3.3861862   -1.8570035   0.10662881   -3.3861862    1.5291827   571109 
 7665000    1.3269289    -3.388045   -1.8579007   0.10703431    -3.388045    1.5301443   571124 
 7666000    1.3276348   -3.3893299   -1.8584092  0.099663535   -3.3893299    1.5309207   571138 
 7667000    1.3277794   -3.3898632   -1.8588293   0.10172464   -3.3898632    1.5310339   571158 
 7668000    1.3270162   -3.3874813    -1.857381   0.09858295   -3.3874813    1.5301003   571178 
 7669000    1.3280779   -3.3892147   -1.8579252  0.095291524   -3.3892147    1.5312896   571191 
 7670000    1.3282926   -3.3895065   -1.8580391   0.10387304   -3.3895065    1.5314674   571217 
 7671000    1.3288027   -3.3896739   -1.8576103   0.10217764   -3.3896739    1.5320636   571214 
 7672000    1.3279051   -3.3892574   -1.8582314   0.10524516   -3.3892574     1.531026   571215 
 7673000    1.3283987   -3.3900085   -1.8584429   0.10087403   -3.3900085    1.5315657   571226 
 7674000    1.3273905   -3.3890964   -1.8587495    0.1011476   -3.3890964    1.5303469   571247 
 7675000    1.3268112   -3.3888158   -1.8590965    0.1024638   -3.3888158    1.5297193   571232 
 7676000    1.3269995   -3.3884103   -1.8585088   0.10443725   -3.3884103    1.5299016   571245 
 7677000    1.3279075   -3.3897496   -1.8588387    0.1054486   -3.3897496    1.5309109   571259 
 7678000    1.3288739   -3.3905924    -1.858613   0.10329888   -3.3905924    1.5319793   571276 
 7679000      1.32887   -3.3903258   -1.8583241    0.1027495   -3.3903258    1.5320017   571266 
 7680000    1.3266523   -3.3887786   -1.8593604  0.095815237   -3.3887786    1.5294182   571276 
 7681000    1.3278869   -3.3902231   -1.8593842  0.096127031   -3.3902231    1.5308389   571277 
 7682000     1.326724   -3.3891084   -1.8596423  0.098805976   -3.3891084    1.5294661   571289 
 7683000    1.3283443   -3.3904536   -1.8591491   0.10333535   -3.3904536    1.5313045   571300 
 7684000    1.3265905   -3.3894483   -1.8601414   0.10070511   -3.3894483    1.5293069   571291 
 7685000    1.3264457   -3.3895466   -1.8604228  0.095498739   -3.3895466    1.5291238   571297 
 7686000    1.3266165   -3.3888545   -1.8595552  0.097071423   -3.3888545    1.5292993   571305 
 7687000    1.3276755   -3.3909639   -1.8604545  0.095210108   -3.3909639    1.5305094   571309 
 7688000    1.3269127   -3.3895508   -1.8599501   0.10452249   -3.3895508    1.5296007   571320 
 7689000    1.3259505   -3.3875436   -1.8590708   0.10494702   -3.3875436    1.5284727   571327 
 7690000    1.3273553   -3.3894901   -1.8594784  0.098284268   -3.3894901    1.5300117   571357 
 7691000    1.3269258   -3.3893873   -1.8598947  0.096075441   -3.3893873    1.5294926   571366 
 7692000    1.3275667   -3.3905749   -1.8603864  0.093676491   -3.3905749    1.5301885   571382 
 7693000    1.3281153   -3.3903936   -1.8595943  0.098723136   -3.3903936    1.5307993   571390 
 7694000    1.3271812   -3.3892851   -1.8595918  0.096380397   -3.3892851    1.5296933   571401 
 7695000    1.3283824   -3.3893233    -1.858283   0.10092938   -3.3893233    1.5310402   571415 
 7696000    1.3267763   -3.3877108   -1.8585645  0.096291215   -3.3877108    1.5291463   571431 
 7697000    1.3292112   -3.3900337   -1.8580972  0.097202289   -3.3900337    1.5319365   571437 
 7698000    1.3281146    -3.389815   -1.8591718  0.093771869    -3.389815    1.5306432   571448 
 7699000    1.3274656   -3.3892488   -1.8594018    0.1041164   -3.3892488     1.529847   571466 
 7700000     1.326953    -3.388254   -1.8589869  0.099500855    -3.388254     1.529267   571462 
 7701000    1.3283631   -3.3897059   -1.8588487   0.10446512   -3.3897059    1.5308573   571475 
 7702000    1.3279056   -3.3896143   -1.8593031  0.099808847   -3.3896143    1.5303113   571482 
 7703000     1.328066   -3.3893475   -1.8588862   0.10570381   -3.3893475    1.5304613   571495 
 7704000    1.3274426   -3.3897421   -1.8600527   0.10305399   -3.3897421    1.5296893   571515 
 7705000    1.3276383   -3.3879368   -1.8580889    0.1031719   -3.3879368    1.5298479   571540 
 7706000    1.3275001   -3.3881399   -1.8584752  0.099594523   -3.3881399    1.5296647   571549 
 7707000    1.3286472   -3.3894685   -1.8585143   0.10130557   -3.3894685    1.5309543   571561 
 7708000    1.3286106   -3.3893937    -1.858495   0.10226353   -3.3893937    1.5308987   571566 
 7709000    1.3303792   -3.3913374   -1.8584116    0.1017551   -3.3913374    1.5329259   571570 
 7710000    1.3293656   -3.3903682   -1.8586532   0.09895465   -3.3903682     1.531715   571586 
 7711000    1.3284671   -3.3893835   -1.8587171   0.09666246   -3.3893835    1.5306664   571591 
 7712000    1.3286771   -3.3891364   -1.8582361   0.10625892   -3.3891364    1.5309004   571594 
 7713000    1.3319691   -3.3933711   -1.8587073  0.096972282   -3.3933711    1.5346639   571605 
 7714000    1.3284708      -3.3896   -1.8589856   0.10389991      -3.3896    1.5306144   571612 
 7715000    1.3300738    -3.391936   -1.8595578   0.10213112    -3.391936    1.5323783   571643 
 7716000    1.3286486   -3.3911316   -1.8604087  0.096069354   -3.3911316    1.5307229   571648 
 7717000     1.329957   -3.3914361   -1.8592835   0.10078359   -3.3914361    1.5321526   571677 
 7718000    1.3306077   -3.3919446   -1.8590611   0.10400981   -3.3919446    1.5328834   571684 
 7719000    1.3291467   -3.3907291   -1.8595583   0.10084393   -3.3907291    1.5311708   571695 
 7720000    1.3285762   -3.3902861   -1.8597805   0.10562714   -3.3902861    1.5305056   571698 
 7721000    1.3289704   -3.3916863    -1.860748     0.101289   -3.3916863    1.5309383   571706 
 7722000    1.3297778   -3.3926657   -1.8607839   0.10089626   -3.3926657    1.5318818   571701 
 7723000    1.3284789   -3.3914712   -1.8611393   0.10063807   -3.3914712    1.5303319   571721 
 7724000    1.3297592    -3.392189   -1.8603929   0.10983379    -3.392189    1.5317961   571725 
 7725000    1.3293996   -3.3919563    -1.860628   0.10567571   -3.3919563    1.5313283   571745 
 7726000    1.3296639   -3.3921963   -1.8605448   0.10248178   -3.3921963    1.5316515   571738 
 7727000     1.328947   -3.3922333   -1.8614237   0.10346082   -3.3922333    1.5308096   571744 
 7728000    1.3303577   -3.3933079   -1.8609189  0.098817655   -3.3933079     1.532389   571761 
 7729000    1.3286674   -3.3911196   -1.8607231   0.10471096   -3.3911196    1.5303966   571778 
 7730000    1.3303926   -3.3932654   -1.8609112   0.10310098   -3.3932654    1.5323542   571789 
 7731000      1.33052   -3.3934563   -1.8610277   0.10347552   -3.3934563    1.5324285   571816 
 7732000    1.3298565   -3.3927978   -1.8611495   0.10081335   -3.3927978    1.5316483   571822 
 7733000    1.3292536   -3.3927467   -1.8618115  0.096782592   -3.3927467    1.5309352   571829 
 7734000    1.3265185   -3.3918265   -1.8640601    0.1037029   -3.3918265    1.5277664   571836 
 7735000    1.3273907   -3.3922702    -1.863526    0.1020599   -3.3922702    1.5287441   571846 
 7736000    1.3271945   -3.3916623   -1.8631761   0.10644535   -3.3916623    1.5284862   571858 
 7737000    1.3265525   -3.3922131   -1.8645065   0.10222471   -3.3922131    1.5277067   571873 
 7738000    1.3250071    -3.390601   -1.8647007  0.094149988    -3.390601    1.5259003   571883 
 7739000    1.3282315   -3.3925697   -1.8629802  0.095473363   -3.3925697    1.5295895   571892 
 7740000    1.3291148   -3.3939047   -1.8633301  0.097155511   -3.3939047    1.5305745   571904 
 7741000    1.3274846   -3.3915639   -1.8629601  0.097125682   -3.3915639    1.5286037   571939 
 7742000    1.3282617   -3.3922194    -1.862761   0.09731101   -3.3922194    1.5294584   571954 
 7743000    1.3274873    -3.391588   -1.8630987  0.097857446    -3.391588    1.5284892   571983 
 7744000    1.3284002   -3.3920869    -1.862584  0.097691404   -3.3920869    1.5295029   571997 
 7745000    1.3276957     -3.39204   -1.8633616   0.10105492     -3.39204    1.5286784   572002 
 7746000    1.3288972    -3.392997   -1.8629164   0.10026458    -3.392997    1.5300806   571995 
 7747000    1.3293431   -3.3920224   -1.8614606   0.10216949   -3.3920224    1.5305618   572007 
 7748000    1.3295888   -3.3927488   -1.8619255  0.097699827   -3.3927488    1.5308233   572015 
 7749000    1.3300438    -3.393183   -1.8618947   0.10170333    -3.393183    1.5312883   572037 
 7750000    1.3292547   -3.3918226   -1.8614669   0.10160016   -3.3918226    1.5303557   572046 
 7751000    1.3298356   -3.3922785   -1.8612754   0.10381105   -3.3922785     1.531003   572054 
 7752000     1.330237   -3.3937789   -1.8623673   0.10276144   -3.3937789    1.5314116   572074 
 7753000    1.3295028    -3.392139     -1.86161     0.107862    -3.392139     1.530529   572088 
 7754000    1.3299547   -3.3933783   -1.8623586   0.10517574   -3.3933783    1.5310197   572099 
 7755000    1.3295612   -3.3924021   -1.8618621   0.10771636   -3.3924021    1.5305401   572109 
 7756000    1.3297911   -3.3934599   -1.8626633  0.098426807   -3.3934599    1.5307966   572112 
 7757000    1.3314651    -3.394533   -1.8618415   0.10133642    -3.394533    1.5326915   572124 
 7758000    1.3311868    -3.393761   -1.8614541  0.097267724    -3.393761    1.5323069   572148 
 7759000    1.3311643   -3.3946752   -1.8624183   0.10491657   -3.3946752    1.5322569   572157 
 7760000    1.3309779   -3.3952694   -1.8632592  0.099787377   -3.3952694    1.5320102   572169 
 7761000    1.3280169   -3.3931646   -1.8645573  0.099580755   -3.3931646    1.5286073   572167 
 7762000    1.3288856   -3.3933744   -1.8637992  0.097348538   -3.3933744    1.5295752   572179 
 7763000    1.3283917   -3.3923345   -1.8633573   0.10372852   -3.3923345    1.5289772   572190 
 7764000    1.3301146   -3.3936844   -1.8627669   0.10090719   -3.3936844    1.5309175   572206 
 7765000    1.3294772   -3.3924022   -1.8622423   0.10471657   -3.3924022    1.5301598   572215 
 7766000    1.3310346   -3.3946757   -1.8627556   0.10101707   -3.3946757    1.5319201   572227 
 7767000    1.3310771   -3.3943267   -1.8623817   0.10368281   -3.3943267     1.531945   572236 
 7768000    1.3298142   -3.3923516   -1.8618976   0.10205018   -3.3923516    1.5304541   572250 
 7769000     1.330769   -3.3937715   -1.8622535   0.10293257   -3.3937715    1.5315181   572263 
 7770000    1.3299694   -3.3925036   -1.8619217   0.10539311   -3.3925036    1.5305819   572269 
 7771000    1.3298962     -3.39263   -1.8621779   0.10484821     -3.39263    1.5304521   572286 
 7772000    1.3312806   -3.3946261   -1.8626263  0.098752325   -3.3946261    1.5319998   572303 
 7773000    1.3295984    -3.392983   -1.8629431   0.10888162    -3.392983    1.5300399   572312 
 7774000    1.3311371   -3.3936314    -1.861877   0.10008703   -3.3936314    1.5317544   572333 
 7775000    1.3308025   -3.3938766   -1.8625099   0.10260033   -3.3938766    1.5313667   572334 
 7776000    1.3293312   -3.3931829   -1.8635333   0.10061284   -3.3931829    1.5296496   572343 
 7777000    1.3301018   -3.3948138    -1.864347  0.095818568   -3.3948138    1.5304667   572369 
 7778000    1.3296908   -3.3940786     -1.86409    0.1066075   -3.3940786    1.5299886   572371 
 7779000    1.3264537   -3.3911799   -1.8649347   0.10742491   -3.3911799    1.5262452   572378 
 7780000     1.329178   -3.3943653   -1.8650203   0.09424678   -3.3943653     1.529345   572391 
 7781000    1.3273152   -3.3922926   -1.8651016   0.10180321   -3.3922926     1.527191   572395 
 7782000    1.3276168   -3.3927411   -1.8652644   0.09704611   -3.3927411    1.5274767   572418 
 7783000    1.3278747   -3.3935455   -1.8657773   0.10090533   -3.3935455    1.5277681   572420 
 7784000    1.3294164   -3.3951111   -1.8655799  0.093367647   -3.3951111    1.5295312   572424 
 7785000    1.3286269   -3.3945128   -1.8659541  0.097175959   -3.3945128    1.5285587   572448 
 7786000    1.3284754   -3.3943665   -1.8660568  0.095956034   -3.3943665    1.5283097   572476 
 7787000    1.3287943   -3.3944186   -1.8657848   0.10159572   -3.3944186    1.5286338   572492 
 7788000    1.3305997   -3.3947715   -1.8640902  0.098017225   -3.3947715    1.5306813   572503 
 7789000    1.3301011    -3.394754   -1.8646783  0.099473927    -3.394754    1.5300757   572515 
 7790000    1.3303241   -3.3950981   -1.8648033   0.10096286   -3.3950981    1.5302948   572529 
 7791000    1.3298167    -3.395155   -1.8654572  0.099196417    -3.395155    1.5296978   572534 
 7792000    1.3313526   -3.3965993   -1.8651856  0.097141739   -3.3965993    1.5314137   572553 
 7793000    1.3277206   -3.3934497   -1.8662565   0.10297196   -3.3934497    1.5271932   572569 
 7794000    1.3290364    -3.395671   -1.8670043   0.10192017    -3.395671    1.5286667   572584 
 7795000    1.3287131     -3.39572   -1.8674812   0.10041546     -3.39572    1.5282388   572605 
 7796000    1.3287545   -3.3947181   -1.8665065   0.10583826   -3.3947181    1.5282117   572633 
 7797000    1.3292563   -3.3953836   -1.8666482  0.098279002   -3.3953836    1.5287354   572653 
 7798000    1.3300936   -3.3965479   -1.8669297  0.099441223   -3.3965479    1.5296182   572683 
 7799000    1.3285372   -3.3954746   -1.8676622   0.10070625   -3.3954746    1.5278124   572689 
 7800000    1.3307131   -3.3971685   -1.8668833  0.092746725   -3.3971685    1.5302852   572700 
 7801000    1.3279165   -3.3934138   -1.8663553   0.10498424   -3.3934138    1.5270585   572704 
 7802000    1.3308824   -3.3963068   -1.8658857  0.098193758   -3.3963068    1.5304211   572722 
 7803000    1.3299844   -3.3956869   -1.8663411  0.097923832   -3.3956869    1.5293457   572738 
 7804000    1.3302603   -3.3964516    -1.866834  0.099557409   -3.3964516    1.5296176   572755 
 7805000    1.3302896    -3.396977   -1.8673523   0.10186907    -3.396977    1.5296246   572765 
 7806000    1.3303073   -3.3966742   -1.8670747  0.096904749   -3.3966742    1.5295995   572782 
 7807000    1.3299762    -3.395356   -1.8661798   0.10250777    -3.395356    1.5291762   572798 
 7808000    1.3288398   -3.3941827   -1.8663639   0.10372738   -3.3941827    1.5278188   572817 
 7809000    1.3295235   -3.3943631   -1.8658222   0.10123584   -3.3943631    1.5285409   572841 
 7810000    1.3295305   -3.3956424   -1.8671255  0.097352096   -3.3956424    1.5285169   572853 
 7811000    1.3290743   -3.3944758   -1.8664995   0.09966604   -3.3944758    1.5279764   572859 
 7812000    1.3308488   -3.3965536   -1.8666013  0.099672458   -3.3965536    1.5299524   572883 
 7813000    1.3307836   -3.3964865   -1.8666411   0.10377503   -3.3964865    1.5298454   572895 
 7814000     1.329327   -3.3960571   -1.8679102   0.10076867   -3.3960571    1.5281469   572904 
 7815000    1.3319841   -3.3978501    -1.866686  0.095306673   -3.3978501     1.531164   572918 
 7816000    1.3312398   -3.3963594   -1.8661338   0.10168098   -3.3963594    1.5302256   572949 
 7817000    1.3290174   -3.3938719   -1.8662116   0.10365117   -3.3938719    1.5276603   572953 
 7818000    1.3316032   -3.3965461   -1.8659321   0.10651105   -3.3965461     1.530614   572960 
 7819000    1.3313851    -3.394368   -1.8640609   0.10331789    -3.394368    1.5303071   572981 
 7820000    1.3325227   -3.3946783   -1.8631492   0.10445651   -3.3946783    1.5315292   573013 
 7821000    1.3334324   -3.3956363   -1.8630803   0.11000661   -3.3956363    1.5325561   573020 
 7822000    1.3323665   -3.3956104   -1.8643035   0.10581116   -3.3956104    1.5313069   573029 
 7823000      1.33287    -3.396246   -1.8643899  0.097500266    -3.396246    1.5318561   573040 
 7824000    1.3307445   -3.3944173     -1.86502   0.10192566   -3.3944173    1.5293973   573046 
 7825000    1.3330392   -3.3963856   -1.8643831  0.099427879   -3.3963856    1.5320025   573058 
 7826000    1.3314975   -3.3952202   -1.8650536   0.10207288   -3.3952202    1.5301666   573082 
 7827000    1.3335654   -3.3966467   -1.8641464   0.10555286   -3.3966467    1.5325002   573098 
 7828000    1.3319496   -3.3953248   -1.8647108   0.10201031   -3.3953248    1.5306141   573109 
 7829000    1.3312644   -3.3957871   -1.8659899  0.097275778   -3.3957871    1.5297972   573120 
 7830000    1.3326838   -3.3970017   -1.8656081  0.099189238   -3.3970017    1.5313936   573133 
 7831000    1.3316681   -3.3959581   -1.8657557  0.099826286   -3.3959581    1.5302024   573142 
 7832000     1.331621   -3.3954697   -1.8653561  0.097010887   -3.3954697    1.5301136   573155 
 7833000    1.3320179    -3.395231   -1.8647147   0.10316112    -3.395231    1.5305163   573175 
 7834000    1.3311615   -3.3948521   -1.8653278   0.10242132   -3.3948521    1.5295243   573178 
 7835000    1.3322727   -3.3968344   -1.8660708   0.10382907   -3.3968344    1.5307637   573192 
 7836000    1.3319418   -3.3953925   -1.8650358   0.10312574   -3.3953925    1.5303567   573202 
 7837000     1.331275   -3.3953359   -1.8657853   0.10465738   -3.3953359    1.5295506   573217 
 7838000    1.3332336   -3.3969343   -1.8651627  0.099259737   -3.3969343    1.5317715   573228 
 7839000    1.3311333   -3.3954977   -1.8661526   0.10561737   -3.3954977    1.5293451   573233 
 7840000    1.3328582   -3.3982777   -1.8670124  0.098006965   -3.3982777    1.5312654   573256 
 7841000    1.3342013   -3.3984717   -1.8656927  0.097617255   -3.3984717    1.5327791   573267 
 7842000    1.3329698   -3.3975725   -1.8662697   0.10125183   -3.3975725    1.5313028   573290 
 7843000    1.3334248   -3.3979367   -1.8661459  0.099637151   -3.3979367    1.5317907   573303 
 7844000    1.3301623   -3.3944308   -1.8664464   0.10513095   -3.3944308    1.5279843   573325 
 7845000    1.3340304   -3.3975687   -1.8651732   0.10442355   -3.3975687    1.5323955   573337 
 7846000    1.3332854   -3.3964928   -1.8649798   0.10122085   -3.3964928     1.531513   573347 
 7847000    1.3324786   -3.3956284   -1.8650768   0.10189901   -3.3956284    1.5305516   573360 
 7848000    1.3332197   -3.3967436   -1.8653648   0.10836718   -3.3967436    1.5313788   573369 
 7849000    1.3329598   -3.3966213   -1.8655302   0.10551942   -3.3966213     1.531091   573365 
 7850000    1.3327937   -3.3972677   -1.8663728  0.098170301   -3.3972677    1.5308949   573367 
 7851000    1.3338233   -3.3984919   -1.8664678  0.099209421   -3.3984919    1.5320241   573387 
 7852000    1.3320102   -3.3962127   -1.8663218     0.110322   -3.3962127    1.5298909   573406 
 7853000    1.3334064   -3.3968536   -1.8653992   0.10459646   -3.3968536    1.5314544   573421 
 7854000    1.3349256   -3.3980031   -1.8648359   0.10735491   -3.3980031    1.5331672   573433 
 7855000    1.3353513   -3.3982047   -1.8645459   0.10420553   -3.3982047    1.5336587   573432 
 7856000     1.333682   -3.3971946   -1.8654957     0.104899   -3.3971946    1.5316989   573448 
 7857000    1.3339494    -3.397623   -1.8656518   0.10557525    -3.397623    1.5319712   573461 
 7858000    1.3326427   -3.3971214   -1.8666749   0.10354408   -3.3971214    1.5304465   573470 
 7859000    1.3319071   -3.3953779   -1.8658161   0.10759736   -3.3953779    1.5295617   573485 
 7860000    1.3321274   -3.3957867    -1.865996   0.10147305   -3.3957867    1.5297907   573494 
 7861000    1.3327248   -3.3962665   -1.8658164   0.10588556   -3.3962665    1.5304501   573504 
 7862000    1.3323946   -3.3957202   -1.8657027    0.1075961   -3.3957202    1.5300175   573524 
 7863000    1.3329255   -3.3966591   -1.8660293   0.10465169   -3.3966591    1.5306298   573523 
 7864000    1.3322968    -3.396625   -1.8667491   0.10704533    -3.396625    1.5298759   573535 
 7865000    1.3332125   -3.3973521   -1.8664675  0.096108138   -3.3973521    1.5308846   573551 
 7866000    1.3336126   -3.3983126   -1.8669551  0.093633567   -3.3983126    1.5313574   573546 
 7867000    1.3320449   -3.3966447   -1.8671301   0.10347013   -3.3966447    1.5295146   573562 
 7868000     1.334366   -3.3984558   -1.8663134  0.099126235   -3.3984558    1.5321424   573576 
 7869000    1.3340997   -3.3981482    -1.866357   0.10039303   -3.3981482    1.5317912   573593 
 7870000    1.3331264   -3.3978931   -1.8672034   0.10266773   -3.3978931    1.5306897   573587 
 7871000    1.3330779   -3.3976299    -1.867036   0.10726973   -3.3976299    1.5305939   573602 
 7872000    1.3327594   -3.3975271   -1.8673201  0.099653371   -3.3975271    1.5302069   573610 
 7873000    1.3327391    -3.398208   -1.8680671   0.10293157    -3.398208     1.530141   573626 
 7874000    1.3330537   -3.3978879   -1.8674365  0.099989683   -3.3978879    1.5304514   573645 
 7875000    1.3320923   -3.3964907   -1.8671591   0.10378211   -3.3964907    1.5293317   573651 
 7876000    1.3328982   -3.3985384   -1.8683349    0.1033096   -3.3985384    1.5302036   573671 
 7877000    1.3330418   -3.3989328   -1.8685936     0.105402   -3.3989328    1.5303392   573682 
 7878000    1.3333442   -3.3992698   -1.8686528   0.10103751   -3.3992698    1.5306169   573708 
 7879000    1.3332475   -3.3985828   -1.8680956   0.10548714   -3.3985828    1.5304872   573715 
 7880000    1.3334309   -3.3980059   -1.8673321   0.10601266   -3.3980059    1.5306737   573724 
 7881000    1.3344307   -3.3986322   -1.8668081   0.10861563   -3.3986322    1.5318241   573723 
 7882000    1.3338374    -3.399013   -1.8678779   0.10227405    -3.399013     1.531135   573726 
 7883000     1.334393    -3.399834   -1.8681039   0.10247992    -3.399834    1.5317301   573742 
 7884000    1.3345588   -3.3985875   -1.8667258   0.10444293   -3.3985875    1.5318617   573764 
 7885000    1.3334679   -3.3974055   -1.8668493   0.10729398   -3.3974055    1.5305562   573784 
 7886000    1.3334846   -3.3986667   -1.8681315   0.10258169   -3.3986667    1.5305353   573799 
 7887000     1.334936    -3.399315   -1.8671218   0.10726254    -3.399315    1.5321931   573802 
 7888000    1.3361008   -3.3995657   -1.8660918   0.10053186   -3.3995657     1.533474   573823 
 7889000    1.3356817    -3.399752    -1.866767   0.10776195    -3.399752     1.532985   573826 
 7890000    1.3374513   -3.4018003   -1.8667951   0.10343928   -3.4018003    1.5350052   573830 
 7891000    1.3334281    -3.398816   -1.8684496   0.10547887    -3.398816    1.5303664   573838 
 7892000    1.3371953   -3.4018601   -1.8672263   0.09886288   -3.4018601    1.5346339   573859 
 7893000    1.3334614   -3.3983219   -1.8679733   0.10330697   -3.3983219    1.5303486   573859 
 7894000    1.3341667   -3.3990855   -1.8679701   0.10372689   -3.3990855    1.5311154   573875 
 7895000    1.3335021   -3.3992047   -1.8688494   0.10294438   -3.3992047    1.5303553   573874 
 7896000    1.3334123   -3.3980963    -1.867884   0.10249319   -3.3980963    1.5302123   573889 
 7897000    1.3338452   -3.3988682   -1.8681564   0.11044089   -3.3988682    1.5307117   573888 
 7898000    1.3340199   -3.3985901   -1.8677312   0.10445635   -3.3985901    1.5308589   573908 
 7899000    1.3344676   -3.3990294    -1.867694  0.099527698   -3.3990294    1.5313353   573922 
 7900000    1.3342645    -3.400124   -1.8690644   0.10135547    -3.400124    1.5310596   573938 
 7901000    1.3339364   -3.4003655    -1.869733    0.1056694   -3.4003655    1.5306324   573957 
 7902000    1.3326069   -3.3984003   -1.8693174  0.099855042   -3.3984003    1.5290829   573966 
 7903000    1.3323396   -3.3986917   -1.8699368   0.10267177   -3.3986917    1.5287549   573974 
 7904000    1.3327521   -3.3980959   -1.8689104   0.10898113   -3.3980959    1.5291855   573990 
 7905000    1.3327497   -3.3982475   -1.8690914  0.098516497   -3.3982475    1.5291561   574000 
 7906000     1.333152   -3.3986442   -1.8690531  0.096645197   -3.3986442    1.5295911   574010 
 7907000    1.3339131    -3.399173   -1.8687299   0.10035824    -3.399173     1.530443   574018 
 7908000    1.3335169   -3.4002632   -1.8702747  0.097632656   -3.4002632    1.5299884   574018 
 7909000    1.3310376   -3.3975255    -1.870411   0.10458529   -3.3975255    1.5271145   574029 
 7910000    1.3320829   -3.3985669   -1.8702717   0.10846354   -3.3985669    1.5282953   574036 
 7911000    1.3338056   -3.3996044    -1.869362   0.10536102   -3.3996044    1.5302424   574047 
 7912000    1.3326079   -3.3976185   -1.8687662   0.11014142   -3.3976185    1.5288523   574053 
 7913000    1.3351067   -3.4004837   -1.8688207   0.10146176   -3.4004837     1.531663   574074 
 7914000     1.334875   -3.3997374   -1.8683909  0.098343782   -3.3997374    1.5313465   574093 
 7915000    1.3372622    -3.402739   -1.8686806  0.097772874    -3.402739    1.5340584   574103 
 7916000    1.3347359   -3.3999983   -1.8688859    0.1062699   -3.3999983    1.5311123   574121 
 7917000    1.3340585   -3.3987791   -1.8685105   0.10653585   -3.3987791    1.5302686   574146 
 7918000    1.3351918   -3.3997155   -1.8681736   0.10536616   -3.3997155    1.5315419   574156 
 7919000    1.3335318   -3.3989666   -1.8693901   0.10391644   -3.3989666    1.5295765   574179 
 7920000    1.3370489   -3.4032025   -1.8696239   0.10025825   -3.4032025    1.5335786   574191 
 7921000    1.3349852    -3.401043   -1.8698848  0.098998282    -3.401043    1.5311583   574211 
 7922000    1.3356679   -3.4013871   -1.8694699   0.10007419   -3.4013871    1.5319172   574220 
 7923000    1.3355808   -3.4009849   -1.8691702   0.10356657   -3.4009849    1.5318147   574221 
 7924000    1.3338251   -3.3994406   -1.8696689   0.10578807   -3.3994406    1.5297717   574232 
 7925000    1.3352274   -3.4011421   -1.8698394   0.10313375   -3.4011421    1.5313027   574261 
 7926000    1.3343064   -3.4006206   -1.8704194    0.1003799   -3.4006206    1.5302012   574278 
 7927000    1.3344609   -3.4014796     -1.87116  0.097518716   -3.4014796    1.5303197   574300 
 7928000    1.3342331   -3.4008067   -1.8707909   0.10651244   -3.4008067    1.5300158   574316 
 7929000    1.3347789   -3.4013443   -1.8707159   0.10119738   -3.4013443    1.5306285   574321 
 7930000    1.3361755   -3.4020344   -1.8698204   0.10342716   -3.4020344     1.532214   574327 
 7931000    1.3354077    -3.402011   -1.8706962   0.10418972    -3.402011    1.5313148   574334 
 7932000    1.3356139    -3.401615   -1.8700931   0.10011733    -3.401615    1.5315219   574345 
 7933000     1.334887   -3.4010863   -1.8704245  0.099125609   -3.4010863    1.5306617   574355 
 7934000    1.3335813   -3.4006571    -1.871559   0.10023694   -3.4006571     1.529098   574380 
 7935000    1.3354132   -3.4022433   -1.8710475   0.10206756   -3.4022433    1.5311958   574381 
 7936000    1.3370223   -3.4021015   -1.8690848    0.1052858   -3.4021015    1.5330168   574390 
 7937000    1.3366646   -3.4011304   -1.8685877   0.10546554   -3.4011304    1.5325427   574414 
 7938000    1.3360319   -3.4019129    -1.870141   0.10402401   -3.4019129    1.5317719   574431 
 7939000    1.3344187   -3.4008367    -1.870917   0.10409681   -3.4008367    1.5299197   574432 
 7940000    1.3354291   -3.4019685   -1.8708878  0.099396157   -3.4019685    1.5310807   574431 
 7941000    1.3357847   -3.4026622   -1.8711924   0.10139181   -3.4026622    1.5314698   574438 
 7942000    1.3367077   -3.4027762   -1.8702694   0.10461016   -3.4027762    1.5325067   574446 
 7943000    1.3341632   -3.4000062   -1.8704114   0.10316823   -3.4000062    1.5295948   574444 
 7944000    1.3348385   -3.4009551   -1.8706314   0.10460094   -3.4009551    1.5303237   574461 
 7945000    1.3343163    -3.400476   -1.8708042    0.1053718    -3.400476    1.5296718   574481 
 7946000    1.3350103   -3.4000889   -1.8696455   0.10910814   -3.4000889    1.5304434   574490 
 7947000    1.3374297   -3.4031504   -1.8699814    0.1025205   -3.4031504     1.533169   574508 
 7948000    1.3360914    -3.401985   -1.8703662   0.10119701    -3.401985    1.5316188   574514 
 7949000    1.3363581   -3.4008969   -1.8689884   0.10660186   -3.4008969    1.5319085   574520 
 7950000    1.3363944   -3.4008716   -1.8689295   0.10766977   -3.4008716    1.5319421   574523 
 7951000    1.3359394   -3.4006907   -1.8692887   0.10810227   -3.4006907    1.5314019   574530 
 7952000     1.335623   -3.4014788   -1.8704769   0.10507788   -3.4014788    1.5310019   574544 
 7953000    1.3362355   -3.4020351   -1.8703871   0.10490314   -3.4020351     1.531648   574565 
 7954000    1.3357901   -3.4002133   -1.8691025    0.1016783   -3.4002133    1.5311108   574575 
 7955000    1.3358605   -3.4014569   -1.8703213   0.10037874   -3.4014569    1.5311356   574596 
 7956000     1.335952   -3.4027947   -1.8716102    0.1041703   -3.4027947    1.5311845   574617 
 7957000    1.3344902   -3.4010005   -1.8715234   0.10533656   -3.4010005    1.5294771   574629 
 7958000    1.3364084   -3.4031311   -1.8714796   0.10332066   -3.4031311    1.5316516   574638 
 7959000    1.3364717   -3.4032378    -1.871583  0.098445994   -3.4032378    1.5316549   574664 
 7960000       1.3351   -3.4015296   -1.8714974   0.10249498   -3.4015296    1.5300322   574683 
 7961000    1.3354705   -3.4030089   -1.8725628   0.10465896   -3.4030089    1.5304462   574687 
 7962000    1.3352392   -3.4028398   -1.8726853   0.10235105   -3.4028398    1.5301545   574697 
 7963000    1.3355883   -3.4036306   -1.8730893   0.10243818   -3.4036306    1.5305412   574702 
 7964000    1.3348473    -3.402868    -1.873184    0.1043902    -3.402868     1.529684   574705 
 7965000    1.3339086   -3.4029165     -1.87434   0.10286013   -3.4029165    1.5285765   574717 
 7966000    1.3336932   -3.4021051   -1.8738287   0.10824974   -3.4021051    1.5282764   574737 
 7967000    1.3342737   -3.4026326   -1.8737521   0.11143921   -3.4026326    1.5288804   574760 
 7968000     1.334097   -3.4025447   -1.8739519   0.11023303   -3.4025447    1.5285929   574792 
 7969000    1.3366627   -3.4053374   -1.8738234   0.10151301   -3.4053374     1.531514   574799 
 7970000    1.3355198   -3.4033798   -1.8732365   0.11053661   -3.4033798    1.5301432   574822 
 7971000    1.3367664   -3.4051465   -1.8735884   0.10325589   -3.4051465    1.5315581   574827 
 7972000    1.3361512   -3.4041401   -1.8733268   0.11305826   -3.4041401    1.5308133   574842 
 7973000    1.3370752   -3.4057053   -1.8738413   0.10353265   -3.4057053     1.531864   574845 
 7974000    1.3365224   -3.4042438   -1.8730212   0.10905696   -3.4042438    1.5312227   574848 
 7975000    1.3358471   -3.4040478   -1.8736148   0.10421588   -3.4040478    1.5304331   574854 
 7976000     1.336316   -3.4042557   -1.8732881   0.10342411   -3.4042557    1.5309676   574855 
 7977000    1.3358372   -3.4045357   -1.8741699   0.10311958   -3.4045357    1.5303658   574875 
 7978000    1.3356024   -3.4035537   -1.8734995   0.10687649   -3.4035537    1.5300542   574891 
 7979000    1.3350347   -3.4037559   -1.8744186   0.10398099   -3.4037559    1.5293373   574916 
 7980000    1.3340532   -3.4028381   -1.8746544   0.10383762   -3.4028381    1.5281837   574927 
 7981000    1.3337236   -3.4018598   -1.8740908   0.10420863   -3.4018598     1.527769   574941 
 7982000    1.3344835   -3.4025968   -1.8740078   0.10264288   -3.4025968     1.528589   574960 
 7983000    1.3344436    -3.403111   -1.8746077   0.10033774    -3.403111    1.5285034   574975 
 7984000    1.3348142   -3.4029893    -1.874096   0.10213099   -3.4029893    1.5288933   574988 
 7985000     1.334881   -3.4033237   -1.8743645   0.10103053   -3.4033237    1.5289592   574992 
 7986000     1.335587    -3.403608    -1.873843   0.11077173    -3.403608    1.5297651   574993 
 7987000     1.335479   -3.4036631    -1.874035   0.10325446   -3.4036631    1.5296281   574998 
 7988000    1.3362807   -3.4050549   -1.8745245   0.10257911   -3.4050549    1.5305304   575004 
 7989000    1.3371644    -3.405144   -1.8736148   0.10687312    -3.405144    1.5315292   575009 
 7990000     1.334504   -3.4024554   -1.8739997   0.10371409   -3.4024554    1.5284556   575019 
 7991000    1.3366374   -3.4036119   -1.8727156   0.10591216   -3.4036119    1.5308963   575020 
 7992000    1.3378689   -3.4053305    -1.873061   0.10432333   -3.4053305    1.5322695   575034 
 7993000    1.3364624   -3.4033034   -1.8726634   0.10535925   -3.4033034      1.53064   575041 
 7994000    1.3365198   -3.4029998   -1.8723021   0.11627697   -3.4029998    1.5306978   575044 
 7995000    1.3358898   -3.4041602   -1.8741972   0.10266549   -3.4041602    1.5299629   575049 
 7996000    1.3370021   -3.4064583   -1.8752455  0.095966343   -3.4064583    1.5312128   575058 
 7997000    1.3359351   -3.4051042   -1.8751559   0.10112369   -3.4051042    1.5299483   575074 
 7998000    1.3366085   -3.4056421   -1.8749464    0.1044605   -3.4056421    1.5306956   575083 
 7999000    1.3352527   -3.4055422   -1.8764206   0.10554127   -3.4055422    1.5291217   575091 
 8000000    1.3346126   -3.4042945   -1.8759618   0.10833237   -3.4042945    1.5283327   575112 
Loop time of 10318.2 on 192 procs for 5000000 steps with 575112 atoms

Performance: 209339.625 tau/day, 484.582 timesteps/s
99.1% CPU use with 192 MPI tasks x 1 OpenMP threads

MPI task timing breakdown:
Section |  min time  |  avg time  |  max time  |%varavg|  %CPU | %total
-----------------------------------------------------------------------
Pair    | 2816.6     | 3849.4     | 4217.8     | 623.4 |  99.1 | 37.31
Bond    | 3.3257     | 3.4535     | 3.6217     |   3.0 | 100.0 |  0.03
Neigh   | 1566.2     | 1889.3     | 2002.9     | 251.3 |  99.5 | 18.31
Comm    | 1277.9     | 2108.4     | 3398.1     |1111.2 |  99.0 | 20.43
Output  | 278.51     | 282.33     | 282.37     |   1.6 |  98.4 |  2.74
Modify  | 1907.4     | 1999.5     | 2492       | 410.4 |  99.1 | 19.38
Other   |            | 185.8      |            |       |       |  1.80

Nlocal:        2995.38 ave        3102 max        2848 min
Histogram: 2 4 11 13 26 43 39 29 20 5
Nghost:        3985.28 ave        4323 max        3228 min
Histogram: 13 30 5 0 0 0 0 14 74 56
Neighs:        85948.4 ave       94659 max       70941 min
Histogram: 3 6 8 9 10 32 43 44 27 10

Total # of neighbors = 16502084
Ave neighs/atom = 28.693687
Ave special neighs/atom = 0.0000000
Neighbor list builds = 505000
Dangerous builds = 450000

write_restart   restart_write.dat
System init for write_restart ...
write_data	data.write
System init for write_data ...
WARNING: Not all mixed pair coeffs generated from mixing. Use write_data with 'pair ij' option to store all pair coeffs. (src/write_data.cpp:312)

Total wall time: 2:52:02
