LAMMPS (24 Dec 2020)
OMP_NUM_THREADS environment is not set. Defaulting to 1 thread. (src/comm.cpp:94)
  using 1 OpenMP thread(s) per MPI task
#Read the equilibrated lj fluid and add nanocubes

units           lj
atom_style      full
#atom_modify     map array first cubes
dimension       3
boundary        p p f
pair_style      lj/smooth/linear 2.0

variable        sigma           equal 1.0
variable        epsilon         equal 1.0
read_restart	restart.dat.5000000
Reading restart file ...
  restart file = 24 Dec 2020, LAMMPS = 24 Dec 2020
WARNING: Restart file used different # of processors: 288 vs. 336 (src/read_restart.cpp:697)
  restoring atom style full from restart
  orthogonal box = (0.0000000 0.0000000 0.0000000) to (80.000000 80.000000 160.00000)
  6 by 4 by 14 MPI processor grid
  restoring pair style lj/smooth/linear from restart
  426349 atoms
Finding 1-2 1-3 1-4 neighbors ...
  special bond factors lj:    0        0        0       
  special bond factors coul:  0        0        0       
     0 = max # of 1-2 neighbors
     0 = max # of 1-3 neighbors
     0 = max # of 1-4 neighbors
     1 = max # of special neighbors
  special bonds CPU = 3.012 seconds
  read_restart CPU = 3.468 seconds

group		solvent type 1
353197 atoms in group solvent
group 		hull  type 2
28544 atoms in group hull
group 		dummy type 3
44608 atoms in group dummy

neighbor      0.4 bin
neigh_modify  exclude molecule/intra cubes


pair_modify   shift yes

pair_coeff    1 1 1.0 1.0 #solvent
pair_coeff    2 2 1.0 1.0 1.12 #np
pair_coeff    3 3 0.0 0.0 0.0 #dummy
pair_coeff    2 3 0.0 0.0 0.0 #np dummy
pair_coeff    1 2 ${eps} ${sig} ${nscut} #np solvent
pair_coeff    1 2 1.0 ${sig} ${nscut} 
pair_coeff    1 2 1.0 1.0 ${nscut} 
pair_coeff    1 2 1.0 1.0 4.0 
pair_coeff    1 3 0.0 0.0 0.0 #dummy solvent


comm_modify   mode multi cutoff/multi 1 2.0 cutoff/multi 2 2.0 cutoff/multi 3 6.95

reset_timestep 	0

balance 	1.05 shift z 10 1.05
Balancing ...
Unused restart file global fix info:
  fix style: STORE, fix ID: msd_COMPUTE_STORE
Unused restart file peratom fix info:
  fix style: STORE, fix ID: bin1_COMPUTE_STORE
Neighbor list info ...
  update every 1 steps, delay 10 steps, check yes
  max neighbors/atom: 2000, page size: 100000
  master list distance cutoff = 4.4
  ghost atom cutoff = 6.95
  binsize = 2.2, bins = 37 37 73
  1 neighbor lists, perpetual/occasional/extra = 1 0 0
  (1) pair lj/smooth/linear, perpetual
      attributes: half, newton on
      pair build: half/bin/newton
      stencil: half/bin/3d/newton
      bin: standard
 rebalancing time: 0.073 seconds
  iteration count = 5
  initial/final maximal load/proc = 2727.0000 2031.0000
  initial/final imbalance factor  = 2.1491126 1.6006042
  x cuts: 0.0000000 0.16666667 0.33333333 0.50000000 0.66666667 0.83333333 1.0000000
  y cuts: 0.0000000 0.25000000 0.50000000 0.75000000 1.0000000
  z cuts: 0.0000000 0.046875000 0.095982143 0.13839286 0.18303571 0.21875000 0.26116071 0.30580357 0.34821429 0.38392857 0.43750000 0.46205357 0.51116071 0.60491071 1.0000000

####################### WALLS ###########################

variable       epsilonWall equal 2*${epsilon}
variable       epsilonWall equal 2*1
variable       repulsive   equal   0.7147*${sigma}
variable       repulsive   equal   0.7147*1
variable       full	   equal   3*${sigma}
variable       full	   equal   3*1
#region         lowWall block EDGE EDGE EDGE EDGE EDGE 2

fix            topWall all wall/lj93 zhi EDGE 	       ${epsilonWall} ${sigma} ${repulsive} units box
fix            topWall all wall/lj93 zhi EDGE 	       2 ${sigma} ${repulsive} units box
fix            topWall all wall/lj93 zhi EDGE 	       2 1 ${repulsive} units box
fix            topWall all wall/lj93 zhi EDGE 	       2 1 0.7147 units box
fix            lowSol solvent wall/lj93 zlo EDGE                ${epsilonWall} ${sigma} ${full} units box
fix            lowSol solvent wall/lj93 zlo EDGE                2 ${sigma} ${full} units box
fix            lowSol solvent wall/lj93 zlo EDGE                2 1 ${full} units box
fix            lowSol solvent wall/lj93 zlo EDGE                2 1 3 units box
fix 	       lowCub cubes wall/lj93 zlo EDGE                ${epsilonWall} ${sigma} ${repulsive} units box
fix 	       lowCub cubes wall/lj93 zlo EDGE                2 ${sigma} ${repulsive} units box
fix 	       lowCub cubes wall/lj93 zlo EDGE                2 1 ${repulsive} units box
fix 	       lowCub cubes wall/lj93 zlo EDGE                2 1 0.7147 units box


###################### COMPUTES ##########################

compute        bin1 solvent chunk/atom bin/1d z lower 1.0 units box


######################  FIXES ############################


fix             peclet solvent ave/chunk 100 1 10000 bin1 density/number norm                  none ave one file density.profile

fix              temp solvent ave/chunk 100 1 10000 bin1 temp norm                  none ave one file temp.profile

fix             1 cubes rigid/nve/small molecule
  create bodies CPU = 0.025 seconds
  64 rigid bodies with 73152 atoms
  6.9282032 = max distance from body owner to body atom

fix             2 solvent nve


## Thermostat
region          regthermo block EDGE EDGE EDGE EDGE 0 15
group           thermo dynamic solvent region regthermo every 1000
dynamic group thermo defined
fix             3 thermo langevin ${temp} ${temp} 10 156453
fix             3 thermo langevin 0.6 ${temp} 10 156453
fix             3 thermo langevin 0.6 0.6 10 156453

## Evaporation
region		regevap block EDGE EDGE EDGE EDGE 140 EDGE
fix		4 solvent evaporate ${evap} 1 regevap 156415
fix		4 solvent evaporate 85 1 regevap 156415


#### Load balancing

fix             bal all balance 1000 1.05 shift z 10 1.05

############### Diagnostics and computes ###################

compute          cluster all cluster/atom 1.5
compute          cc1 all chunk/atom c_cluster compress yes
compute          size all property/chunk cc1 count
compute          myChunk all temp/chunk cc1 temp
fix              tempe all ave/time 5000 1 5000 c_myChunk file tmp.out mode scalar
compute          comChunk all com/chunk cc1
fix              com all ave/time 10000 1 10000 c_size c_comChunk[*] file com.xyz mode vector


compute        	com cubes          rigid/local   1 mol x y z
compute        	quat cubes         rigid/local   1 mol quatw quati quatj quatk

compute 	cc2 cubes 	   chunk/atom 	 molecule
compute 	msd cubes 	   msd/chunk 	 cc2

fix 		msd all ave/time  1 1 10000 c_msd[*] file dump.msd ave one mode vector

dump            1 all custom 100000 dump.lammpstrj id mol type x y z c_cluster c_cc1
dump		hulltrj hull custom 100000 hull.lammpstrj id mol type x y z
dump		cubestrj cubes custom 100000 cubes.lammpstrj id mol type x y z

dump            com cubes local 100000 dump.*.xyz c_com[*]
dump	        xyz cubes xyz 100000 cubes.*.xyz
dump            quat cubes      local 100000 dump.*.quat c_quat[*]


dump            2 all image 10000 image.*.png type type zoom 1.5 size 1280 720
dump_modify     2 pad 8
dump		image cubes image 10000 image_cubes.*.png type type zoom 1.5 size 1280 720
dump_modify	image pad 8
dump            3 all movie 5000 movie.avi type type zoom 1.5 size 1280 720
dump		4 cubes movie 5000 movie_cubes.avi type type zoom 1.5 size 1280 720


thermo          10000
thermo_style    custom step temp epair evdwl etotal press pe ke atoms

restart         1000000 restart.dat
timestep        0.005
timer           full
New timer settings: style=full  mode=nosync  timeout=off

run 		30000000
Neighbor list info ...
  update every 1 steps, delay 10 steps, check yes
  max neighbors/atom: 2000, page size: 100000
  master list distance cutoff = 4.4
  ghost atom cutoff = 6.95
  binsize = 2.2, bins = 37 37 73
  2 neighbor lists, perpetual/occasional/extra = 1 1 0
  (1) pair lj/smooth/linear, perpetual
      attributes: half, newton on
      pair build: half/bin/newton
      stencil: half/bin/3d/newton
      bin: standard
  (2) compute cluster/atom, occasional
      attributes: full, newton on
      pair build: full/bin
      stencil: full/bin/3d
      bin: standard
Per MPI rank memory allocation (min/avg/max) = 24.91 | 30.69 | 36.07 Mbytes
Step Temp E_pair E_vdwl TotEng Press PotEng KinEng Atoms 
       0    0.6022542   -2.1842339   -2.1842339   -1.4355836  0.059961447   -2.1842339   0.74865027   426349 
   10000   0.60408556   -2.1871026   -2.1871026   -1.4359696  0.027443277   -2.1871026   0.75113293   426232 
   20000   0.60290482    -2.187713    -2.187713   -1.4378407  0.038726724    -2.187713   0.74987236   426114 
   30000   0.60211383    -2.186285    -2.186285   -1.4371907  0.033137382    -2.186285   0.74909424   425997 
   40000   0.60315472   -2.1903105   -2.1903105   -1.4397134  0.034314872   -2.1903105   0.75059713   425879 
   50000   0.60261216   -2.1911931   -2.1911931   -1.4410634   0.03402658   -2.1911931   0.75012978   425761 
   60000   0.60194199   -2.1910784   -2.1910784   -1.4415768  0.036358386   -2.1910784   0.74950152   425644 
   70000    0.6011018   -2.1891281   -2.1891281   -1.4404651  0.035708136   -2.1891281   0.74866292   425526 
   80000   0.60231287   -2.1916109   -2.1916109   -1.4412315   0.03433183   -2.1916109   0.75037938   425408 
   90000   0.60189589   -2.1917518   -2.1917518   -1.4416856  0.036636904   -2.1917518   0.75006617   425291 
  100000   0.59997893   -2.1895461   -2.1895461   -1.4416613  0.030956479   -2.1895461   0.74788482   425173 
  110000   0.60158873   -2.1917328   -2.1917328   -1.4416331  0.035041333   -2.1917328   0.75009965   425055 
  120000   0.60152019    -2.193119    -2.193119   -1.4428983  0.039244649    -2.193119    0.7502207   424938 
  130000   0.60147182   -2.1942494   -2.1942494   -1.4438807  0.031300104   -2.1942494   0.75036873   424820 
  140000   0.59989821   -2.1924842   -2.1924842   -1.4438707  0.035417099   -2.1924842   0.74861351   424702 
  150000   0.59895844   -2.1926013   -2.1926013   -1.4449546  0.031216133   -2.1926013   0.74764674   424585 
  160000   0.59983426   -2.1943043   -2.1943043   -1.4453562  0.038004156   -2.1943043   0.74894812   424467 
  170000    0.6003716   -2.1949757   -2.1949757   -1.4451482  0.040486885   -2.1949757   0.74982749   424349 
  180000   0.59951723   -2.1948302   -2.1948302   -1.4458633  0.030186094   -2.1948302   0.74896693   424232 
  190000   0.59786868   -2.1926601   -2.1926601   -1.4455449   0.04106855   -2.1926601   0.74711524   424114 
  200000   0.60110604   -2.1963834   -2.1963834   -1.4450153  0.040320544   -2.1963834   0.75136802   423997 
  210000   0.59908173   -2.1973846   -2.1973846   -1.4483384  0.036161925   -2.1973846   0.74904615   423879 
  220000   0.59757626   -2.1938187   -2.1938187   -1.4464468  0.040190141   -2.1938187   0.74737187   423761 
  230000   0.59755573   -2.1926795   -2.1926795   -1.4451269  0.039095217   -2.1926795    0.7475526   423644 
  240000    0.5975138   -2.1969561   -2.1969561   -1.4492477  0.034837748   -2.1969561    0.7477084   423526 
  250000   0.59815178   -2.1988104   -2.1988104   -1.4500951  0.036044181   -2.1988104   0.74871535   423408 
  260000   0.59912388   -2.1997534   -2.1997534    -1.449614   0.03298387   -2.1997534   0.75013943   423291 
  270000   0.59656501   -2.1969076   -2.1969076   -1.4497637  0.032333226   -2.1969076   0.74714384   423173 
  280000   0.59796075   -2.1991626   -2.1991626   -1.4500619  0.032184324   -2.1991626   0.74910077   423055 
  290000   0.59746546   -2.1978887   -2.1978887   -1.4492013   0.04060963   -2.1978887   0.74868735   422938 
  300000   0.59733927   -2.1973724   -2.1973724   -1.4486343  0.039727213   -2.1973724   0.74873811   422820 
  310000   0.59725284   -2.1989739   -2.1989739   -1.4501351  0.036108896   -2.1989739   0.74883876   422702 
  320000   0.59564815   -2.1989122   -2.1989122   -1.4518786  0.029813207   -2.1989122   0.74703357   422585 
  330000   0.59697834   -2.2033112   -2.2033112   -1.4544002  0.033127905   -2.2033112   0.74891095   422467 
  340000   0.59646215   -2.2037749   -2.2037749   -1.4553025  0.043632824   -2.2037749   0.74847245   422349 
  350000   0.59425113   -2.2015045   -2.2015045   -1.4555999  0.040658585   -2.2015045   0.74590458   422232 
  360000   0.59457275    -2.199703    -2.199703   -1.4531861  0.032353819    -2.199703    0.7465169   422114 
  370000   0.59515649   -2.2008935   -2.2008935   -1.4534365  0.034448233   -2.2008935   0.74745699   421997 
  380000   0.59653734   -2.2033694   -2.2033694   -1.4539687  0.034331525   -2.2033694   0.74940075   421879 
  390000   0.59548572   -2.2020965   -2.2020965   -1.4538075  0.034109831   -2.2020965   0.74828895   421761 
  400000   0.59412026   -2.2000199   -2.2000199   -1.4532396  0.029056959   -2.2000199   0.74678028   421644 
  410000   0.59454873   -2.2017569   -2.2017569   -1.4542288  0.034151585   -2.2017569   0.74752804   421526 
  420000   0.59440139   -2.2028822   -2.2028822   -1.4553301  0.033743662   -2.2028822   0.74755205   421408 
  430000   0.59378483   -2.2034989   -2.2034989   -1.4565149  0.031336648   -2.2034989   0.74698403   421291 
  440000   0.59303132    -2.204347    -2.204347   -1.4581019  0.027699182    -2.204347   0.74624512   421173 
  450000    0.5921858   -2.2048034   -2.2048034   -1.4594134  0.032510291   -2.2048034   0.74538999   421055 
  460000   0.59409327   -2.2055828   -2.2055828    -1.457584  0.038223173   -2.2055828    0.7479988   420938 
  470000   0.59380372   -2.2050918   -2.2050918   -1.4572479  0.038435736   -2.2050918   0.74784387   420820 
  480000    0.5926968   -2.2037613   -2.2037613   -1.4571022  0.029073909   -2.2037613   0.74665917   420702 
  490000   0.59181167   -2.2025788   -2.2025788   -1.4568273  0.035940243   -2.2025788   0.74575152   420585 
  500000   0.59228106   -2.2035992   -2.2035992   -1.4570467    0.0269084   -2.2035992   0.74655246   420467 
  510000   0.59127015   -2.2043268   -2.2043268   -1.4588394  0.035387052   -2.2043268   0.74548745   420349 
  520000   0.59089784   -2.2053057   -2.2053057   -1.4600802  0.028547929   -2.2053057   0.74522546   420232 
  530000   0.59153178   -2.2081214   -2.2081214   -1.4618869  0.033255832   -2.2081214    0.7462345   420114 
  540000     0.592211   -2.2092665   -2.2092665    -1.461967  0.031042312   -2.2092665   0.74729948   419997 
  550000   0.59123031   -2.2082634   -2.2082634   -1.4619917  0.037352561   -2.2082634   0.74627164   419879 
  560000   0.58897562   -2.2056298   -2.2056298   -1.4619952  0.031791487   -2.2056298   0.74363466   419761 
  570000   0.59167769   -2.2088401   -2.2088401   -1.4615855  0.030754197   -2.2088401   0.74725456   419644 
  580000   0.58980806    -2.209444    -2.209444   -1.4643411  0.031949105    -2.209444   0.74510284   419526 
  590000   0.58990736   -2.2108916   -2.2108916   -1.4654537  0.030004334   -2.2108916   0.74543796   419408 
  600000   0.59072811   -2.2108316   -2.2108316   -1.4641482  0.033456939   -2.2108316    0.7466834   419291 
  610000   0.58825119   -2.2106457   -2.2106457   -1.4668838    0.0285486   -2.2106457   0.74376187   419173 
  620000   0.58710799   -2.2081777   -2.2081777   -1.4656522  0.041382971   -2.2081777   0.74252548   419055 
  630000   0.58840977   -2.2101675   -2.2101675   -1.4657878  0.039147177   -2.2101675    0.7443797   418938 
  640000   0.58852892   -2.2108515   -2.2108515   -1.4661113  0.037593417   -2.2108515    0.7447402   418820 
  650000   0.58758018   -2.2104802   -2.2104802    -1.466731  0.033799332   -2.2104802   0.74374918   418702 
  660000   0.58815538   -2.2109521   -2.2109521   -1.4662668  0.035756982   -2.2109521   0.74468535   418585 
  670000   0.58755743      -2.2131      -2.2131    -1.468962  0.030615481      -2.2131   0.74413804   418467 
  680000   0.58821731   -2.2145602   -2.2145602   -1.4693763  0.033092575   -2.2145602    0.7451839   418349 
  690000   0.58870665   -2.2145209   -2.2145209   -1.4685084  0.039005025   -2.2145209   0.74601246   418232 
  700000   0.58750886    -2.215083    -2.215083   -1.4703783  0.031212019    -2.215083   0.74470472   418114 
  710000   0.58607908   -2.2152821   -2.2152821   -1.4721817  0.037379614   -2.2152821   0.74310033   417997 
  720000   0.58525075   -2.2132583   -2.2132583   -1.4709987  0.028656738   -2.2132583   0.74225962   417879 
  730000   0.58524637   -2.2134494   -2.2134494   -1.4709857  0.028468735   -2.2134494   0.74246371   417761 
  740000   0.58512441   -2.2143011   -2.2143011   -1.4717841  0.035502082   -2.2143011   0.74251694   417644 
  750000   0.58541084   -2.2143334   -2.2143334    -1.471243  0.026700159   -2.2143334   0.74309037   417526 
  760000   0.58652061    -2.214709    -2.214709   -1.4699995  0.028969425    -2.214709   0.74470952   417408 
  770000   0.58519888   -2.2133191   -2.2133191   -1.4700795  0.031086036   -2.2133191   0.74323964   417291 
  780000   0.58402073   -2.2131892   -2.2131892   -1.4712361  0.032096537   -2.2131892   0.74195313   417173 
  790000   0.58534364   -2.2160986   -2.2160986   -1.4722544  0.028112002   -2.2160986   0.74384418   417055 
  800000   0.58213213   -2.2130431   -2.2130431   -1.4730725  0.027230196   -2.2130431   0.73997064   416938 
  810000   0.58439512    -2.215167    -2.215167   -1.4721095  0.037348736    -2.215167   0.74305751   416820 
  820000   0.58234682   -2.2147985   -2.2147985   -1.4741357  0.027307359   -2.2147985   0.74066278   416702 
  830000   0.58472244   -2.2160348   -2.2160348   -1.4721417  0.035326313   -2.2160348   0.74389309   416585 
  840000   0.58439371   -2.2171183   -2.2171183   -1.4734328  0.033937731   -2.2171183   0.74368554   416467 
  850000   0.58317274   -2.2167568   -2.2167568   -1.4744147  0.029087463   -2.2167568   0.74234209   416349 
  860000   0.58327681   -2.2168527   -2.2168527   -1.4741695     0.036923   -2.2168527   0.74268328   416232 
  870000   0.58217853   -2.2148122   -2.2148122   -1.4733171  0.026492535   -2.2148122   0.74149505   416114 
  880000   0.58203645   -2.2168221   -2.2168221   -1.4752995  0.027756766   -2.2168221   0.74152258   415997 
  890000   0.58311039    -2.219792    -2.219792   -1.4766904  0.034670966    -2.219792   0.74310159   415879 
  900000   0.58123875   -2.2172739   -2.2172739   -1.4763473  0.029175635   -2.2172739   0.74092663   415761 
  910000   0.58136956   -2.2166236   -2.2166236   -1.4753216  0.037304317   -2.2166236     0.741302   415644 
  920000   0.58091431   -2.2182382   -2.2182382   -1.4773063  0.029791598   -2.2182382   0.74093186   415526 
  930000   0.58116978   -2.2197474   -2.2197474   -1.4782792  0.028526119   -2.2197474   0.74146826   415408 
  940000   0.58171608   -2.2214433   -2.2214433    -1.479069   0.03094295   -2.2214433   0.74237433   415291 
  950000   0.58064461   -2.2193208   -2.2193208   -1.4781032  0.028979322   -2.2193208   0.74121755   415173 
  960000   0.58037661   -2.2185918   -2.2185918   -1.4775058   0.02728945   -2.2185918   0.74108607   415055 
  970000    0.5798768   -2.2187172   -2.2187172   -1.4780605  0.027279311   -2.2187172   0.74065665   414938 
  980000   0.58083604   -2.2207766   -2.2207766   -1.4786837  0.026157009   -2.2207766   0.74209288   414820 
  990000   0.57947761   -2.2190941   -2.2190941   -1.4785261  0.035953221   -2.2190941   0.74056797   414702 
 1000000   0.58020084   -2.2196854   -2.2196854   -1.4779838  0.026228633   -2.2196854   0.74170152   414585 
 1010000   0.57957572   -2.2192831   -2.2192831   -1.4781698  0.029603175   -2.2192831   0.74111332   414467 
 1020000   0.58019257   -2.2195181   -2.2195181   -1.4774048  0.032932849   -2.2195181   0.74211339   414349 
 1030000   0.57879822   -2.2205089   -2.2205089   -1.4799699  0.024931137   -2.2205089   0.74053901   414232 
 1040000   0.57925978   -2.2223746   -2.2223746   -1.4810338  0.030459144   -2.2223746   0.74134073   414114 
 1050000   0.57900561   -2.2217319   -2.2217319    -1.480507  0.027435246   -2.2217319   0.74122486   413997 
 1060000   0.57885896   -2.2212177   -2.2212177   -1.4799693  0.030193675   -2.2212177    0.7412484   413879 
 1070000   0.57819241   -2.2203312   -2.2203312   -1.4797252  0.029905926   -2.2203312     0.740606   413761 
 1080000   0.57836368   -2.2214053   -2.2214053   -1.4803704   0.03064929   -2.2214053   0.74103493   413644 
 1090000   0.57777843   -2.2214692   -2.2214692   -1.4809729  0.029437243   -2.2214692   0.74049632   413526 
 1100000   0.57736486   -2.2218821   -2.2218821   -1.4817046  0.030442989   -2.2218821   0.74017748   413408 
 1110000   0.57651798   -2.2196501   -2.2196501   -1.4803491  0.025037034   -2.2196501   0.73930102   413291 
 1120000   0.57804789   -2.2228509   -2.2228509   -1.4813763  0.033420929   -2.2228509    0.7414746   413173 
 1130000   0.57698176   -2.2249625   -2.2249625    -1.484644  0.029704455   -2.2249625   0.74031849   413055 
 1140000   0.57515174   -2.2237873   -2.2237873   -1.4856078  0.033906733   -2.2237873   0.73817951   412938 
 1150000   0.57648828   -2.2252622   -2.2252622   -1.4851558  0.030189421   -2.2252622   0.74010638   412820 
 1160000   0.57529078   -2.2232864   -2.2232864   -1.4845062  0.032391631   -2.2232864   0.73878019   412702 
 1170000   0.57584993   -2.2244214   -2.2244214   -1.4847135    0.0313624   -2.2244214   0.73970794   412585 
 1180000    0.5750481    -2.223645    -2.223645   -1.4847557  0.027338528    -2.223645   0.73888927   412467 
 1190000   0.57487243   -2.2240452   -2.2240452   -1.4851703   0.03017585   -2.2240452   0.73887493   412349 
 1200000   0.57532332    -2.223756    -2.223756   -1.4840917  0.028837927    -2.223756   0.73966433   412232 
 1210000   0.57473631   -2.2247688   -2.2247688   -1.4856476  0.032675623   -2.2247688   0.73912121   412114 
 1220000   0.57477877   -2.2250276   -2.2250276   -1.4856418  0.034564277   -2.2250276   0.73938572   411997 
 1230000   0.57333517   -2.2251085   -2.2251085   -1.4873685  0.031582347   -2.2251085      0.73774   411879 
 1240000   0.57304083   -2.2273187   -2.2273187   -1.4897461  0.029292504   -2.2273187   0.73757257   411761 
 1250000   0.57240013   -2.2272222   -2.2272222   -1.4902649  0.037262735   -2.2272222   0.73695731   411644 
 1260000   0.57261242   -2.2274555   -2.2274555   -1.4900135  0.027105811   -2.2274555   0.73744202   411526 
 1270000   0.57397532   -2.2278404   -2.2278404   -1.4884311  0.026759997   -2.2278404   0.73940926   411408 
 1280000   0.57236017   -2.2251406   -2.2251406   -1.4876023  0.033897413   -2.2251406   0.73753833   411291 
 1290000   0.57196967   -2.2234071   -2.2234071   -1.4861605  0.029167637   -2.2234071   0.73724665   411173 
 1300000   0.57201587   -2.2234898   -2.2234898   -1.4859719  0.025111107   -2.2234898   0.73751786   411055 
 1310000   0.57139076   -2.2245752   -2.2245752   -1.4876536  0.030738834   -2.2245752   0.73692163   410938 
 1320000   0.57161113    -2.225968    -2.225968   -1.4885504  0.023250831    -2.225968    0.7374176   410820 
 1330000   0.57237912   -2.2284877   -2.2284877   -1.4898672   0.03507009   -2.2284877   0.73862051   410702 
 1340000   0.57119389   -2.2254092   -2.2254092   -1.4881082  0.025583802   -2.2254092   0.73730108   410585 
 1350000   0.57217528    -2.227236    -2.227236   -1.4884558  0.032264268    -2.227236   0.73878019   410467 
 1360000   0.57132644   -2.2286357   -2.2286357   -1.4907393  0.031674956   -2.2286357   0.73789631   410349 
 1370000   0.57156151   -2.2283358   -2.2283358   -1.4899253  0.025627228   -2.2283358   0.73841045   410232 
 1380000   0.56916655   -2.2261359   -2.2261359    -1.490608  0.028278515   -2.2261359   0.73552794   410114 
 1390000    0.5689128   -2.2263604   -2.2263604   -1.4909506  0.023892304   -2.2263604   0.73540981   409997 
 1400000   0.56945456   -2.2271108   -2.2271108   -1.4907888   0.03274952   -2.2271108   0.73632205   409879 
 1410000   0.56993049   -2.2287332   -2.2287332   -1.4915835  0.033232447   -2.2287332   0.73714965   409761 
 1420000   0.57059553   -2.2301672   -2.2301672   -1.4919466  0.027097809   -2.2301672    0.7382206   409644 
 1430000   0.56928281   -2.2285502   -2.2285502   -1.4918158  0.033153693   -2.2285502   0.73673447   409526 
 1440000   0.56906242   -2.2294412   -2.2294412   -1.4927797  0.026129038   -2.2294412   0.73666151   409408 
 1450000   0.56912576    -2.229477    -2.229477   -1.4925229  0.031363594    -2.229477   0.73695411   409291 
 1460000   0.56933728   -2.2283234   -2.2283234   -1.4908828  0.022473441   -2.2283234   0.73744062   409173 
 1470000   0.56881755   -2.2282302   -2.2282302   -1.4912503  0.025380554   -2.2282302   0.73697996   409055 
 1480000   0.56808552   -2.2290515   -2.2290515   -1.4928094  0.028195591   -2.2290515    0.7362421   408938 
 1490000   0.56924353   -2.2312452   -2.2312452   -1.4932893  0.028983242   -2.2312452   0.73795583   408820 
 1500000   0.56765617   -2.2293747   -2.2293747   -1.4932643  0.023373448   -2.2293747   0.73611047   408702 
 1510000   0.56733358    -2.228551    -2.228551   -1.4926482  0.030658232    -2.228551   0.73590282   408585 
 1520000   0.56614566   -2.2263429   -2.2263429   -1.4917688  0.031624905   -2.2263429   0.73457408   408467 
 1530000   0.56716396   -2.2284132   -2.2284132   -1.4923052  0.026304387   -2.2284132   0.73610799   408349 
 1540000   0.56791298   -2.2308592   -2.2308592   -1.4935678  0.030397215   -2.2308592   0.73729137   408232 
 1550000   0.56622374   -2.2306003   -2.2306003   -1.4952894  0.028768865   -2.2306003   0.73531086   408114 
 1560000   0.56577438   -2.2314271   -2.2314271   -1.4964891  0.030763278   -2.2314271     0.734938   407997 
 1570000   0.56467109   -2.2320034   -2.2320034   -1.4982864  0.029958945   -2.2320034   0.73371704   407879 
 1580000   0.56594531   -2.2333894   -2.2333894   -1.4978039  0.023790022   -2.2333894   0.73558552   407761 
 1590000   0.56573786   -2.2303481   -2.2303481   -1.4948212  0.022969845   -2.2303481   0.73552694   407644 
 1600000   0.56478205    -2.229577    -2.229577   -1.4950801  0.032089287    -2.229577   0.73449689   407526 
 1610000   0.56497485   -2.2315863   -2.2315863   -1.4966259  0.025657386   -2.2315863   0.73496044   407408 
 1620000   0.56514816   -2.2318844   -2.2318844   -1.4964873  0.035403505   -2.2318844   0.73539709   407291 
 1630000   0.56520096   -2.2346277   -2.2346277   -1.4989488  0.032940239   -2.2346277   0.73567893   407173 
 1640000   0.56555438   -2.2328118   -2.2328118   -1.4964595  0.033104973   -2.2328118   0.73635234   407055 
 1650000     0.564455   -2.2303048   -2.2303048   -1.4951725  0.030606039   -2.2303048   0.73513225   406938 
 1660000    0.5654274   -2.2310198   -2.2310198   -1.4944076  0.030230811   -2.2310198   0.73661227   406820 
 1670000   0.56468076   -2.2327695   -2.2327695   -1.4969165  0.022294854   -2.2327695   0.73585302   406702 
 1680000   0.56387752   -2.2331872   -2.2331872   -1.4981695  0.040556586   -2.2331872   0.73501775   406585 
 1690000   0.56244113   -2.2321821   -2.2321821   -1.4988239  0.027429203   -2.2321821   0.73335824   406467 
 1700000   0.56324777   -2.2333827   -2.2333827   -1.4987594  0.024074065   -2.2333827   0.73462328   406349 
 1710000   0.56139513   -2.2306453   -2.2306453   -1.4982275  0.026915885   -2.2306453   0.73241783   406232 
 1720000   0.56259017   -2.2346151   -2.2346151   -1.5004249  0.027812612   -2.2346151   0.73419019   406114 
 1730000   0.56126273   -2.2338675   -2.2338675   -1.5011986   0.03146406   -2.2338675   0.73266893   405997 
 1740000   0.56258988   -2.2350657   -2.2350657   -1.5004508  0.032146958   -2.2350657    0.7346149   405879 
 1750000   0.56137721   -2.2344696   -2.2344696    -1.501225  0.030147683   -2.2344696    0.7332446   405761 
 1760000   0.56299108   -2.2343567   -2.2343567    -1.498792  0.027402832   -2.2343567   0.73556466   405644 
 1770000    0.5613813   -2.2314606   -2.2314606   -1.4977857  0.031064918   -2.2314606   0.73367485   405526 
 1780000   0.56144039   -2.2309451   -2.2309451   -1.4969795  0.029782981   -2.2309451   0.73396565   405408 
 1790000   0.56153866   -2.2323297   -2.2323297   -1.4980237  0.028682011   -2.2323297   0.73430604   405291 
 1800000    0.5598873   -2.2329318   -2.2329318    -1.500572  0.034168621   -2.2329318   0.73235984   405173 
 1810000   0.55946085   -2.2333447   -2.2333447   -1.5013295  0.029354151   -2.2333447   0.73201521   405055 
 1820000   0.56004956     -2.23466     -2.23466   -1.5016627  0.034310386     -2.23466   0.73299722   404938 
 1830000   0.56066957   -2.2348421   -2.2348421   -1.5008195   0.03165348   -2.2348421   0.73402259   404820 
 1840000   0.55969623   -2.2325362   -2.2325362   -1.4995743  0.031400503   -2.2325362   0.73296195   404702 
 1850000   0.55964448   -2.2326474   -2.2326474   -1.4995413  0.021138329   -2.2326474   0.73310611   404585 
 1860000   0.55931956    -2.234396    -2.234396   -1.5015018  0.031837226    -2.234396   0.73289424   404467 
 1870000   0.56054301   -2.2362705   -2.2362705   -1.5015588  0.030753194   -2.2362705   0.73471171   404349 
 1880000   0.55859968   -2.2322856   -2.2322856   -1.4999091  0.028866676   -2.2322856   0.73237648   404232 
 1890000   0.55780553   -2.2316915   -2.2316915   -1.5001427  0.027310153   -2.2316915   0.73154882   404114 
 1900000   0.55908872   -2.2333813   -2.2333813   -1.4999372  0.035292523   -2.2333813   0.73344404   403997 
 1910000   0.55983436    -2.234021    -2.234021   -1.4993842  0.030986804    -2.234021   0.73463679   403879 
 1920000   0.55778629    -2.232589    -2.232589   -1.5004259  0.025160715    -2.232589   0.73216315   403761 
 1930000     0.557303    -2.232361    -2.232361   -1.5006202  0.033129523    -2.232361   0.73174081   403644 
 1940000    0.5567025   -2.2333758   -2.2333758   -1.5022097   0.03234789   -2.2333758    0.7311661   403526 
 1950000   0.55718611   -2.2336618   -2.2336618   -1.5016465  0.026183987   -2.2336618   0.73201533   403408 
 1960000   0.55601507   -2.2327803   -2.2327803   -1.5020915   0.02267123   -2.2327803   0.73068876   403291 
 1970000   0.55759669   -2.2359358   -2.2359358   -1.5029541  0.034243975   -2.2359358   0.73298172   403173 
 1980000   0.55775063   -2.2355583   -2.2355583   -1.5021595  0.031155487   -2.2355583   0.73339873   403055 
 1990000    0.5565124   -2.2339829   -2.2339829   -1.5019998  0.022487205   -2.2339829   0.73198304   402938 
 2000000   0.55649237   -2.2339487   -2.2339487   -1.5017776  0.035022409   -2.2339487    0.7321711   402820 
 2010000    0.5565743   -2.2341648   -2.2341648   -1.5016713  0.034330534   -2.2341648   0.73249348   402702 
 2020000   0.55474785    -2.234781    -2.234781   -1.5044791  0.029040628    -2.234781   0.73030191   402585 
 2030000     0.555931   -2.2365315   -2.2365315   -1.5044574  0.031015596   -2.2365315   0.73207406   402467 
 2040000   0.55512568   -2.2358987   -2.2358987   -1.5046707  0.025974154   -2.2358987   0.73122796   402349 
 2050000   0.55425475   -2.2360887   -2.2360887   -1.5057956   0.03310602   -2.2360887   0.73029311   402232 
 2060000   0.55518125   -2.2369758   -2.2369758   -1.5052473  0.027638071   -2.2369758   0.73172854   402114 
 2070000   0.55363378   -2.2324534   -2.2324534   -1.5025521  0.022991008   -2.2324534   0.72990135   401997 
 2080000   0.55448748   -2.2341207   -2.2341207   -1.5028793   0.03224496   -2.2341207   0.73124149   401879 
 2090000   0.55410917   -2.2352148   -2.2352148   -1.5042576  0.033064033   -2.2352148   0.73095722   401761 
 2100000   0.55530569   -2.2375494   -2.2375494   -1.5048004  0.020518443   -2.2375494     0.732749   401644 
 2110000     0.553657   -2.2355948   -2.2355948   -1.5048067  0.024503783   -2.2355948   0.73078819   401526 
 2120000   0.55379677   -2.2339857   -2.2339857   -1.5027982  0.027634085   -2.2339857   0.73118756   401408 
 2130000   0.55260813   -2.2341302   -2.2341302   -1.5042994   0.02183688   -2.2341302    0.7298309   401291 
 2140000   0.55297451   -2.2353268   -2.2353268   -1.5047972  0.031316618   -2.2353268   0.73052959   401173 
 2150000   0.55273381   -2.2362643   -2.2362643   -1.5058378  0.032524435   -2.2362643   0.73042646   401055 
 2160000   0.55258301   -2.2358772   -2.2358772   -1.5054369  0.027863884   -2.2358772   0.73044026   400938 
 2170000   0.55121756   -2.2334794   -2.2334794   -1.5046296  0.034092499   -2.2334794   0.72884983   400820 
 2180000   0.55249497   -2.2358114   -2.2358114   -1.5050573  0.030476412   -2.2358114   0.73075403   400702 
 2190000    0.5522817   -2.2347303   -2.2347303    -1.504045  0.025085458   -2.2347303    0.7306853   400585 
 2200000   0.55050278    -2.233858    -2.233858   -1.5053116  0.025662659    -2.233858   0.72854634   400467 
 2210000   0.55159769   -2.2368569   -2.2368569   -1.5066464  0.032777887   -2.2368569   0.73021053   400349 
 2220000   0.55049258   -2.2362622   -2.2362622   -1.5073016  0.028444556   -2.2362622   0.72896061   400232 
 2230000   0.54974843   -2.2358838   -2.2358838   -1.5076939  0.032641512   -2.2358838    0.7281899   400114 
 2240000   0.55030064   -2.2375805   -2.2375805    -1.508446  0.036287171   -2.2375805   0.72913456   399997 
 2250000   0.55081785   -2.2378652   -2.2378652     -1.50783  0.025619545   -2.2378652    0.7300352   399879 
 2260000   0.55012408   -2.2359489   -2.2359489    -1.506618   0.03482165   -2.2359489   0.72933092   399761 
 2270000   0.54892239   -2.2355889   -2.2355889   -1.5076381  0.021642771   -2.2355889   0.72795084   399644 
 2280000   0.54962776   -2.2371794   -2.2371794   -1.5080778  0.026705715   -2.2371794   0.72910153   399526 
 2290000   0.54926638   -2.2374122   -2.2374122   -1.5085748  0.025853616   -2.2374122    0.7288374   399408 
 2300000   0.54957075   -2.2368312   -2.2368312   -1.5073763  0.027670442   -2.2368312   0.72945496   399291 
 2310000   0.54923154   -2.2369777   -2.2369777   -1.5077574   0.02820034   -2.2369777   0.72922024   399173 
 2320000   0.54784812   -2.2354339   -2.2354339   -1.5078353  0.031750433   -2.2354339   0.72759854   399055 
 2330000    0.5474353    -2.234598    -2.234598   -1.5073345  0.030912272    -2.234598   0.72726349   398938 
 2340000   0.54801704    -2.236407    -2.236407   -1.5081553  0.034270956    -2.236407   0.72825174   398820 
 2350000   0.54806145   -2.2373493   -2.2373493    -1.508823  0.026844891   -2.2373493   0.72852631   398702 
 2360000   0.54900308   -2.2387719   -2.2387719   -1.5087797  0.031838082   -2.2387719   0.72999221   398585 
 2370000   0.54764637   -2.2355249   -2.2355249   -1.5071211  0.031685214   -2.2355249   0.72840388   398467 
 2380000   0.54754654   -2.2347133   -2.2347133   -1.5062265  0.024566744   -2.2347133   0.72848683   398349 
 2390000   0.54737371    -2.235881    -2.235881   -1.5074102  0.023179496    -2.235881   0.72847085   398232 
 2400000   0.54792697   -2.2386234   -2.2386234   -1.5092001  0.028222794   -2.2386234   0.72942329   398114 
 2410000   0.54867671   -2.2374836   -2.2374836   -1.5068475  0.025433141   -2.2374836    0.7306361   397997 
 2420000   0.54590094   -2.2339596   -2.2339596   -1.5068042  0.029974121   -2.2339596   0.72715538   397879 
 2430000   0.54604966    -2.235374    -2.235374   -1.5078047  0.024694696    -2.235374   0.72756926   397761 
 2440000   0.54590783   -2.2355456   -2.2355456   -1.5079513  0.030124271   -2.2355456    0.7275943   397644 
 2450000   0.54646679   -2.2375788   -2.2375788   -1.5090233  0.026818968   -2.2375788   0.72855549   397526 
 2460000   0.54483391   -2.2352365   -2.2352365   -1.5086423  0.025668043   -2.2352365    0.7265942   397408 
 2470000   0.54681808   -2.2381476   -2.2381476   -1.5086926  0.030864473   -2.2381476   0.72945505   397291 
 2480000   0.54581233   -2.2368371   -2.2368371   -1.5085074  0.024008835   -2.2368371    0.7283297   397173 
 2490000   0.54558745   -2.2354513   -2.2354513   -1.5072053  0.019146272   -2.2354513   0.72824599   397055 
 2500000    0.5453107   -2.2370071   -2.2370071   -1.5089159  0.034913617   -2.2370071   0.72809113   396938 
 2510000    0.5457401   -2.2393104   -2.2393104   -1.5104292  0.029756128   -2.2393104   0.72888114   396820 
 2520000   0.54452018   -2.2377537   -2.2377537   -1.5102855  0.028387726   -2.2377537   0.72746816   396702 
 2530000   0.54455221   -2.2371307   -2.2371307   -1.5094051  0.030104496   -2.2371307   0.72772558   396585 
 2540000   0.54422748   -2.2360093   -2.2360093   -1.5085013  0.028954005   -2.2360093   0.72750808   396467 
 2550000   0.54458377   -2.2379213   -2.2379213   -1.5097202  0.024954403   -2.2379213   0.72820109   396349 
 2560000   0.54383526   -2.2387262   -2.2387262   -1.5113113  0.026322284   -2.2387262   0.72741494   396232 
 2570000    0.5423395   -2.2359707   -2.2359707   -1.5103403  0.026478842   -2.2359707   0.72563035   396114 
 2580000   0.54309355   -2.2347307   -2.2347307   -1.5078768  0.025510552   -2.2347307   0.72685394   395997 
 2590000   0.54399308   -2.2364591   -2.2364591   -1.5081843  0.029549052   -2.2364591   0.72827485   395879 
 2600000   0.54287555   -2.2353762   -2.2353762   -1.5083808  0.024883258   -2.2353762   0.72699543   395761 
 2610000   0.54374499   -2.2349574   -2.2349574   -1.5065824  0.023702021   -2.2349574   0.72837509   395644 
 2620000   0.54216655   -2.2352158   -2.2352158   -1.5087384  0.023923366   -2.2352158   0.72647735   395526 
 2630000   0.54368594   -2.2369283   -2.2369283   -1.5081976  0.028534279   -2.2369283   0.72873067   395408 
 2640000   0.54104278   -2.2350993   -2.2350993   -1.5096967  0.033915961   -2.2350993   0.72540255   395291 
 2650000   0.54206572   -2.2342319   -2.2342319   -1.5072408  0.023087488   -2.2342319   0.72699107   395173 
 2660000   0.54198242   -2.2355562   -2.2355562   -1.5084597  0.027819772   -2.2355562   0.72709647   395055 
 2670000   0.54242952   -2.2379309   -2.2379309    -1.510019  0.030884638   -2.2379309   0.72791185   394938 
 2680000   0.54135874   -2.2364831   -2.2364831    -1.509791  0.035004416   -2.2364831   0.72669204   394820 
 2690000   0.54153913   -2.2348707   -2.2348707   -1.5077192  0.023094996   -2.2348707   0.72715152   394702 
 2700000   0.54017593     -2.23483     -2.23483   -1.5092939  0.024297269     -2.23483   0.72553614   394585 
 2710000    0.5404005   -2.2341801   -2.2341801   -1.5081252  0.030404591   -2.2341801    0.7260549   394467 
 2720000   0.53999358   -2.2325668   -2.2325668   -1.5068415  0.023343823   -2.2325668   0.72572527   394349 
 2730000   0.54001603   -2.2326768   -2.2326768    -1.506706  0.030490416   -2.2326768   0.72597083   394232 
 2740000   0.53980759   -2.2337313   -2.2337313   -1.5078234  0.028068617   -2.2337313    0.7259079   394114 
 2750000   0.54036507    -2.235309    -2.235309   -1.5084356  0.027833142    -2.235309   0.72687336   393997 
 2760000   0.54004632   -2.2368031   -2.2368031   -1.5101409  0.024347777   -2.2368031   0.72666222   393879 
 2770000   0.53934671   -2.2360284   -2.2360284   -1.5100901  0.023516378   -2.2360284   0.72593833   393761 
 2780000   0.53871114   -2.2350785   -2.2350785   -1.5097801  0.028270426   -2.2350785   0.72529839   393644 
 2790000   0.53749745   -2.2333584   -2.2333584   -1.5094771  0.026969288   -2.2333584   0.72388133   393526 
 2800000   0.53827332   -2.2366403   -2.2366403   -1.5114967  0.022877692   -2.2366403   0.72514368   393408 
 2810000   0.53743365   -2.2363882   -2.2363882   -1.5121603  0.030506018   -2.2363882   0.72422789   393291 
 2820000    0.5380089    -2.235307    -2.235307   -1.5100864  0.023324472    -2.235307   0.72522067   393173 
 2830000   0.53785226   -2.2344723   -2.2344723   -1.5092451  0.034570209   -2.2344723   0.72522718   393055 
 2840000   0.53784121   -2.2357859   -2.2357859   -1.5103577  0.025819441   -2.2357859   0.72542822   392938 
 2850000   0.53790171   -2.2350345   -2.2350345   -1.5093067  0.025853704   -2.2350345   0.72572775   392820 
 2860000   0.53758539   -2.2342131   -2.2342131   -1.5086942  0.023046976   -2.2342131   0.72551892   392702 
 2870000   0.53809211    -2.235056    -2.235056   -1.5086367  0.027436319    -2.235056   0.72641921   392585 
 2880000   0.53676957   -2.2345302   -2.2345302   -1.5096786  0.031282731   -2.2345302   0.72485166   392467 
 2890000   0.53580092   -2.2344227   -2.2344227   -1.5106615  0.020007996   -2.2344227   0.72376121   392349 
 2900000   0.53559007   -2.2329394   -2.2329394   -1.5092472  0.021736336   -2.2329394    0.7236922   392232 
 2910000   0.53674019   -2.2351463   -2.2351463   -1.5096818   0.02874933   -2.2351463   0.72546449   392114 
 2920000   0.53612288   -2.2369541   -2.2369541   -1.5121077  0.025798966   -2.2369541   0.72484642   391997 
 2930000   0.53539281   -2.2363677   -2.2363677   -1.5122904  0.033003291   -2.2363677   0.72407732   391879 
 2940000   0.53579089   -2.2379174   -2.2379174   -1.5130835   0.02815271   -2.2379174   0.72483395   391761 
 2950000   0.53568436   -2.2365217   -2.2365217   -1.5116153  0.030977558   -2.2365217   0.72490633   391644 
 2960000   0.53561209   -2.2348915   -2.2348915   -1.5098645  0.021514276   -2.2348915   0.72502697   391526 
 2970000   0.53446788   -2.2356188   -2.2356188   -1.5119225  0.023560901   -2.2356188   0.72369622   391408 
 2980000   0.53513879   -2.2368566   -2.2368566   -1.5120352  0.030150047   -2.2368566   0.72482135   391291 
 2990000   0.53370006   -2.2336838   -2.2336838   -1.5105931  0.030836471   -2.2336838    0.7230907   391173 
 3000000   0.53463474   -2.2340793   -2.2340793   -1.5095037  0.025938676   -2.2340793   0.72457564   391055 
 3010000   0.53396416   -2.2338767   -2.2338767   -1.5099933  0.024989289   -2.2338767    0.7238834   390938 
 3020000   0.53421889   -2.2366052   -2.2366052   -1.5121578  0.021682392   -2.2366052    0.7244474   390820 
 3030000   0.53306537   -2.2361286   -2.2361286   -1.5130272  0.029897283   -2.2361286   0.72310145   390702 
 3040000   0.53308024   -2.2381477   -2.2381477   -1.5148094  0.025508392   -2.2381477   0.72333823   390585 
 3050000   0.53222078   -2.2354744   -2.2354744   -1.5130841  0.031174545   -2.2354744   0.72239027   390467 
 3060000   0.53224405   -2.2374819   -2.2374819   -1.5148417  0.033621857   -2.2374819   0.72264024   390349 
 3070000   0.53271762   -2.2361087   -2.2361087   -1.5126087  0.033828306   -2.2361087   0.72350007   390232 
 3080000   0.53305546   -2.2354043   -2.2354043   -1.5112264   0.02306962   -2.2354043   0.72417789   390114 
 3090000   0.53215623   -2.2359661   -2.2359661    -1.512793  0.024595982   -2.2359661   0.72317313   389997 
 3100000   0.53182543    -2.235758    -2.235758   -1.5128157  0.027522582    -2.235758   0.72294233   389879 
 3110000   0.53244163   -2.2377229   -2.2377229   -1.5137239  0.032840073   -2.2377229    0.7239991   389761 
 3120000   0.53162107   -2.2345313   -2.2345313   -1.5114309  0.024344349   -2.2345313   0.72310038   389644 
 3130000   0.53156391   -2.2328447   -2.2328447    -1.509603  0.034616925   -2.2328447   0.72324166   389526 
 3140000   0.53043112    -2.232755    -2.232755   -1.5108359  0.026927988    -2.232755   0.72191909   389408 
 3150000   0.53137114   -2.2334128   -2.2334128   -1.5099969  0.025300644   -2.2334128   0.72341581   389291 
 3160000   0.53149254   -2.2343911   -2.2343911   -1.5105906  0.023589387   -2.2343911   0.72380049   389173 
 3170000   0.53126365   -2.2338624   -2.2338624   -1.5101542  0.029280917   -2.2338624    0.7237082   389055 
 3180000   0.52981101   -2.2319667   -2.2319667   -1.5100202  0.033540789   -2.2319667   0.72194648   388938 
 3190000   0.53051512   -2.2330867   -2.2330867   -1.5099613  0.033725497   -2.2330867   0.72312532   388820 
 3200000   0.52987054    -2.232647    -2.232647    -1.510181  0.023059967    -2.232647   0.72246598   388702 
 3210000   0.53096482   -2.2327902   -2.2327902   -1.5086142  0.028012214   -2.2327902   0.72417598   388585 
 3220000   0.53017412   -2.2338858   -2.2338858   -1.5105686  0.025889969   -2.2338858    0.7233172   388467 
 3230000   0.52947273   -2.2323049   -2.2323049   -1.5097252  0.019662458   -2.2323049   0.72257977   388349 
 3240000   0.52938497   -2.2312913   -2.2312913   -1.5086136  0.021184384   -2.2312913   0.72267773   388232 
 3250000   0.53098005   -2.2324861   -2.2324861   -1.5074105  0.026482183   -2.2324861   0.72507561   388114 
 3260000   0.52946644   -2.2316827   -2.2316827    -1.508456    0.0228502   -2.2316827   0.72322673   387997 
 3270000   0.53000111    -2.232389    -2.232389   -1.5082117  0.035758201    -2.232389   0.72417731   387879 
 3280000   0.52987562   -2.2306776   -2.2306776   -1.5064514  0.028828159   -2.2306776   0.72422616   387761 
 3290000   0.52834813   -2.2298899   -2.2298899   -1.5075336  0.027519946   -2.2298899   0.72235637   387644 
 3300000   0.52856421   -2.2295966   -2.2295966   -1.5067248  0.028313369   -2.2295966   0.72287184   387526 
 3310000    0.5267687   -2.2277701   -2.2277701   -1.5071344  0.024010712   -2.2277701    0.7206357   387408 
 3320000   0.52845048   -2.2308377   -2.2308377   -1.5076828   0.03199149   -2.2308377   0.72315483   387291 
 3330000   0.52858362   -2.2310793   -2.2310793   -1.5075218  0.029890684   -2.2310793   0.72355747   387173 
 3340000     0.526857   -2.2290538   -2.2290538     -1.50764  0.023150692   -2.2290538   0.72141384   387055 
 3350000    0.5267695   -2.2313444   -2.2313444   -1.5098323  0.028572611   -2.2313444   0.72151212   386938 
 3360000    0.5274258   -2.2312863   -2.2312863   -1.5086549   0.02816399   -2.2312863   0.72263143   386820 
 3370000   0.52571216   -2.2301093   -2.2301093    -1.509606  0.027271101   -2.2301093   0.72050334   386702 
 3380000   0.52772102   -2.2329887   -2.2329887   -1.5095132  0.028654033   -2.2329887   0.72347544   386585 
 3390000   0.52582172   -2.2294481   -2.2294481   -1.5083564  0.020845453   -2.2294481    0.7210917   386467 
 3400000   0.52600389   -2.2293118   -2.2293118     -1.50775  0.024540214   -2.2293118   0.72156185   386349 
 3410000   0.52633534   -2.2315288   -2.2315288   -1.5092936  0.030720383   -2.2315288   0.72223524   386232 
 3420000   0.52527043   -2.2327368   -2.2327368   -1.5117425  0.033872635   -2.2327368   0.72099426   386114 
 3430000   0.52624611   -2.2309075   -2.2309075   -1.5083551  0.026703672   -2.2309075   0.72255243   385997 
 3440000   0.52542325   -2.2297406   -2.2297406   -1.5080974  0.030043562   -2.2297406   0.72164323   385879 
 3450000   0.52466915   -2.2295697   -2.2295697   -1.5087418  0.029677665   -2.2295697   0.72082793   385761 
 3460000   0.52317371   -2.2282435   -2.2282435    -1.509252  0.029500879   -2.2282435   0.71899146   385644 
 3470000   0.52262623   -2.2283723   -2.2283723   -1.5099134   0.03051727   -2.2283723    0.7184589   385526 
 3480000   0.52437667   -2.2300708   -2.2300708   -1.5089848  0.031395333   -2.2300708   0.72108595   385408 
 3490000   0.52421385   -2.2286438   -2.2286438   -1.5075629  0.026684846   -2.2286438   0.72108095   385291 
 3500000   0.52463075   -2.2305156   -2.2305156   -1.5086401  0.024702211   -2.2305156    0.7218755   385173 
 3510000   0.52349145   -2.2293267   -2.2293267   -1.5087981   0.03474178   -2.2293267    0.7205286   385055 
 3520000    0.5229445   -2.2279867   -2.2279867   -1.5079921  0.028980789   -2.2279867   0.71999456   384938 
 3530000   0.52268566   -2.2275261   -2.2275261   -1.5076673  0.022477961   -2.2275261   0.71985885   384820 
 3540000   0.52381757   -2.2287579   -2.2287579   -1.5071189  0.029721459   -2.2287579   0.72163904   384702 
 3550000   0.52208896   -2.2282341   -2.2282341   -1.5087577  0.028011114   -2.2282341   0.71947643   384585 
 3560000   0.52390158   -2.2307031   -2.2307031   -1.5085072  0.031757348   -2.2307031   0.72219593   384467 
 3570000   0.52184223   -2.2291822   -2.2291822   -1.5096043  0.028869515   -2.2291822   0.71957798   384349 
 3580000   0.52345482     -2.22974     -2.22974   -1.5077186  0.026183498     -2.22974   0.72202141   384232 
 3590000   0.52252164   -2.2296966   -2.2296966    -1.508741  0.025368716   -2.2296966   0.72095564   384114 
 3600000   0.52146077    -2.228656    -2.228656   -1.5089449   0.02741287    -2.228656   0.71971111   383997 
 3610000    0.5216668   -2.2299622   -2.2299622   -1.5097454  0.032841114   -2.2299622   0.72021679   383879 
 3620000   0.52145328   -2.2295165   -2.2295165   -1.5093731  0.027328758   -2.2295165   0.72014336   383761 
 3630000   0.52105461   -2.2297963   -2.2297963   -1.5099841  0.024623211   -2.2297963   0.71981224   383644 
 3640000   0.52047424   -2.2291717   -2.2291717   -1.5099399  0.037286374   -2.2291717   0.71923171   383526 
 3650000   0.52110029    -2.228354    -2.228354   -1.5080356  0.025429854    -2.228354   0.72031845   383408 
 3660000   0.52013768   -2.2277596   -2.2277596   -1.5085523  0.029037271   -2.2277596   0.71920731   383291 
 3670000   0.52076082   -2.2305337   -2.2305337    -1.510243  0.029344612   -2.2305337   0.72029069   383173 
 3680000   0.51886443    -2.231711    -2.231711   -1.5138223  0.025927335    -2.231711   0.71788878   383055 
 3690000   0.52047328   -2.2302751   -2.2302751   -1.5099404  0.027643387   -2.2302751   0.72033476   382938 
 3700000   0.51991987   -2.2300988   -2.2300988   -1.5103082  0.028018877   -2.2300988   0.71979063   382820 
 3710000   0.51912629   -2.2301169   -2.2301169   -1.5112033  0.029569385   -2.2301169   0.71891358   382702 
 3720000   0.51900663   -2.2298849   -2.2298849   -1.5109172  0.026814014   -2.2298849   0.71896767   382585 
 3730000   0.51932252   -2.2292227   -2.2292227   -1.5095954  0.028119577   -2.2292227   0.71962722   382467 
 3740000   0.51793636   -2.2271094   -2.2271094   -1.5091815  0.027318989   -2.2271094   0.71792792   382349 
 3750000    0.5193705   -2.2304368   -2.2304368   -1.5103006  0.027842628   -2.2304368   0.72013619   382232 
 3760000   0.52057648   -2.2333112   -2.2333112   -1.5112799  0.021889267   -2.2333112   0.72203125   382114 
 3770000   0.51830725   -2.2294782   -2.2294782   -1.5103742  0.026588531   -2.2294782   0.71910404   381997 
 3780000    0.5175443   -2.2284946   -2.2284946   -1.5102272  0.032544262   -2.2284946    0.7182674   381879 
 3790000   0.51658119   -2.2271251   -2.2271251   -1.5099728  0.028868826   -2.2271251   0.71715235   381761 
 3800000    0.5181334   -2.2288483   -2.2288483   -1.5093205  0.027982626   -2.2288483   0.71952776   381644 
 3810000   0.51815344   -2.2300438   -2.2300438   -1.5102656  0.026011719   -2.2300438   0.71977813   381526 
 3820000   0.51692645   -2.2290141   -2.2290141   -1.5107183   0.03075483   -2.2290141   0.71829584   381408 
 3830000   0.51730856   -2.2293143   -2.2293143   -1.5102669   0.03016639   -2.2293143   0.71904738   381291 
 3840000   0.51582496   -2.2282475   -2.2282475   -1.5110403  0.026693633   -2.2282475   0.71720717   381173 
 3850000    0.5175493   -2.2290773   -2.2290773   -1.5092498  0.024000344   -2.2290773   0.71982753   381055 
 3860000    0.5161899   -2.2278155   -2.2278155   -1.5096582  0.033065792   -2.2278155   0.71815734   380938 
 3870000   0.51696777    -2.229877    -2.229877   -1.5104145  0.029991327    -2.229877   0.71946242   380820 
 3880000   0.51595899   -2.2287494   -2.2287494   -1.5104684  0.020475255   -2.2287494   0.71828108   380702 
 3890000   0.51619404    -2.229176    -2.229176   -1.5103468  0.025563612    -2.229176   0.71882921   380585 
 3900000   0.51517813   -2.2282671   -2.2282671   -1.5106301  0.024330483   -2.2282671     0.717637   380467 
 3910000   0.51456742   -2.2271976   -2.2271976    -1.510189  0.029515198   -2.2271976   0.71700867   380349 
 3920000   0.51586931   -2.2283444   -2.2283444   -1.5093005  0.022934956   -2.2283444   0.71904393   380232 
 3930000   0.51686686   -2.2314086   -2.2314086   -1.5107506  0.031263764   -2.2314086   0.72065801   380114 
 3940000   0.51509764   -2.2288352   -2.2288352   -1.5104229  0.021104444   -2.2288352   0.71841235   379997 
 3950000    0.5154434   -2.2289633   -2.2289633   -1.5098454  0.024201611   -2.2289633   0.71911789   379879 
 3960000   0.51481933   -2.2272096   -2.2272096   -1.5087392  0.027712211   -2.2272096    0.7184704   379761 
 3970000   0.51467892   -2.2270205   -2.2270205   -1.5085247  0.028159319   -2.2270205    0.7184958   379644 
 3980000   0.51356354   -2.2266545   -2.2266545   -1.5094928  0.021850298   -2.2266545   0.71716163   379526 
 3990000   0.51481218   -2.2281527   -2.2281527   -1.5090239  0.022378161   -2.2281527   0.71912888   379408 
 4000000   0.51384314   -2.2281766   -2.2281766     -1.51018  0.027069116   -2.2281766   0.71799665   379291 
 4010000   0.51338981   -2.2264686   -2.2264686   -1.5088821  0.028421021   -2.2264686   0.71758646   379173 
 4020000   0.51406588   -2.2269388   -2.2269388   -1.5081837  0.021645593   -2.2269388   0.71875511   379055 
 4030000   0.51335272    -2.225398    -2.225398   -1.5074184  0.031342134    -2.225398    0.7179796   378938 
 4040000   0.51282185   -2.2222715   -2.2222715    -1.504811   0.02218282   -2.2222715   0.71746053   378820 
 4050000   0.51339963   -2.2226246   -2.2226246   -1.5041319  0.030417316   -2.2226246   0.71849268   378702 
 4060000   0.51335476   -2.2251204   -2.2251204   -1.5064684  0.030133888   -2.2251204   0.71865192   378585 
 4070000   0.51251066   -2.2266945   -2.2266945   -1.5090006  0.028855551   -2.2266945   0.71769395   378467 
 4080000   0.51211334   -2.2228993   -2.2228993   -1.5055381   0.02424107   -2.2228993   0.71736123   378349 
 4090000   0.51238165   -2.2220343   -2.2220343   -1.5040752  0.028246089   -2.2220343   0.71795909   378232 
 4100000   0.51236665   -2.2216537   -2.2216537   -1.5034915  0.028458876   -2.2216537   0.71816212   378114 
 4110000   0.51266627    -2.223643    -2.223643   -1.5048385  0.027833521    -2.223643    0.7188045   377997 
 4120000   0.51081674   -2.2213422   -2.2213422   -1.5049073  0.028511812   -2.2213422   0.71643494   377879 
 4130000   0.51232386   -2.2227227   -2.2227227   -1.5039495  0.026109968   -2.2227227   0.71877317   377761 
 4140000   0.51105102   -2.2213618   -2.2213618   -1.5041522  0.027268056   -2.2213618   0.71720956   377644 
 4150000    0.5116224   -2.2218801   -2.2218801   -1.5036443  0.024495349   -2.2218801   0.71823586   377526 
 4160000   0.51115692   -2.2202954   -2.2202954   -1.5024886  0.025281413   -2.2202954   0.71780676   377408 
 4170000   0.51028858   -2.2206281   -2.2206281   -1.5038185  0.030280432   -2.2206281   0.71680959   377291 
 4180000   0.51092943   -2.2187628   -2.2187628   -1.5008284  0.036559261   -2.2187628   0.71793433   377173 
 4190000   0.51136643   -2.2215276   -2.2215276   -1.5027544  0.032465967   -2.2215276   0.71877325   377055 
 4200000   0.51000841   -2.2220307   -2.2220307   -1.5049438  0.021966845   -2.2220307   0.71708694   376938 
 4210000    0.5113095   -2.2221988   -2.2221988   -1.5030574  0.023583852   -2.2221988   0.71914144   376820 
 4220000   0.50953155   -2.2191351   -2.2191351   -1.5022698  0.023269443   -2.2191351   0.71686529   376702 
 4230000   0.50884264   -2.2182203   -2.2182203   -1.5021018  0.034422426   -2.2182203   0.71611848   376585 
 4240000   0.50960702   -2.2215997   -2.2215997   -1.5041807  0.027879536   -2.2215997   0.71741903   376467 
 4250000   0.50921944   -2.2215871   -2.2215871   -1.5044889  0.031037966   -2.2215871   0.71709816   376349 
 4260000    0.5089878   -2.2206351   -2.2206351   -1.5036403  0.024788804   -2.2206351   0.71699486   376232 
 4270000   0.50947046   -2.2213223   -2.2213223   -1.5034223  0.025647062   -2.2213223   0.71789992   376114 
 4280000   0.50944648   -2.2212926   -2.2212926   -1.5032031  0.030324484   -2.2212926   0.71808952   375997 
 4290000   0.50894669   -2.2214635   -2.2214635   -1.5038533  0.024224369   -2.2214635   0.71761024   375879 
 4300000   0.50819937    -2.221337    -2.221337   -1.5045555  0.022921682    -2.221337   0.71678155   375761 
 4310000   0.50848147    -2.219675    -2.219675   -1.5022722  0.028739381    -2.219675   0.71740281   375644 
 4320000   0.50772133   -2.2189654   -2.2189654   -1.5024099  0.028243539   -2.2189654   0.71655544   375526 
 4330000   0.50768643   -2.2191053   -2.2191053   -1.5023739  0.030618439   -2.2191053    0.7167314   375408 
 4340000   0.50861991   -2.2195213   -2.2195213   -1.5012482  0.027735531   -2.2195213    0.7182731   375291 
 4350000   0.50775277    -2.218128    -2.218128   -1.5008539  0.032444842    -2.218128   0.71727406   375173 
 4360000   0.50746638    -2.217377    -2.217377   -1.5002819  0.022353666    -2.217377   0.71709503   375055 
 4370000   0.50637843   -2.2177768   -2.2177768   -1.5019958  0.026700701   -2.2177768   0.71578095   374938 
 4380000   0.50673721   -2.2185025   -2.2185025   -1.5019889  0.025470443   -2.2185025    0.7165136   374820 
 4390000    0.5060028   -2.2169216   -2.2169216   -1.5012211  0.027650611   -2.2169216   0.71570047   374702 
 4400000    0.5064314   -2.2187258   -2.2187258   -1.5021954   0.02400762   -2.2187258   0.71653043   374585 
 4410000   0.50523143   -2.2168741   -2.2168741   -1.5018162   0.02247988   -2.2168741   0.71505789   374467 
 4420000   0.50550655   -2.2148486   -2.2148486   -1.4991758  0.028814641   -2.2148486    0.7156728   374349 
 4430000   0.50599495   -2.2156769   -2.2156769   -1.4990887  0.020655645   -2.2156769   0.71658822   374232 
 4440000   0.50654925   -2.2159169   -2.2159169   -1.4983175  0.022877315   -2.2159169   0.71759948   374114 
 4450000   0.50535316   -2.2139877   -2.2139877   -1.4978587  0.034889876   -2.2139877   0.71612901   373997 
 4460000    0.5055888   -2.2148396   -2.2148396   -1.4981506  0.029448792   -2.2148396   0.71668905   373879 
 4470000   0.50474219   -2.2139111   -2.2139111   -1.4981963  0.027262757   -2.2139111   0.71571484   373761 
 4480000   0.50639717   -2.2157037   -2.2157037   -1.4974173   0.02959957   -2.2157037   0.71828642   373644 
 4490000   0.50514548   -2.2140401   -2.2140401   -1.4973027  0.028917545   -2.2140401   0.71673734   373526 
 4500000   0.50477658   -2.2129392   -2.2129392    -1.496499  0.036247866   -2.2129392   0.71644024   373408 
 4510000    0.5045336   -2.2144171   -2.2144171   -1.4980973  0.023596585   -2.2144171   0.71631982   373291 
 4520000   0.50298744   -2.2142786   -2.2142786   -1.4999281  0.018136632   -2.2142786   0.71435045   373173 
 4530000    0.5035953   -2.2151216   -2.2151216   -1.4996816  0.026196588   -2.2151216   0.71543998   373055 
 4540000   0.50325835   -2.2153956   -2.2153956     -1.50021  0.024808492   -2.2153956   0.71518558   372938 
 4550000   0.50293644   -2.2153757   -2.2153757   -1.5004214  0.017239798   -2.2153757   0.71495433   372820 
 4560000   0.50286779   -2.2155509   -2.2155509   -1.5004678  0.034517006   -2.2155509   0.71508306   372702 
 4570000   0.50277663   -2.2124059   -2.2124059    -1.497228  0.028295002   -2.2124059   0.71517794   372585 
 4580000   0.50258614   -2.2106277   -2.2106277   -1.4954943  0.031342031   -2.2106277   0.71513346   372467 
 4590000   0.50408174   -2.2143933   -2.2143933   -1.4969044  0.024603243   -2.2143933   0.71748887   372349 
 4600000   0.50206221   -2.2119229   -2.2119229   -1.4970839  0.020730742   -2.2119229   0.71483898   372232 
 4610000   0.50201147   -2.2109691   -2.2109691   -1.4959757  0.025873495   -2.2109691   0.71499339   372114 
 4620000   0.50170104   -2.2111125   -2.2111125   -1.4963365  0.030319228   -2.2111125     0.714776   371997 
 4630000   0.50146408   -2.2108032   -2.2108032   -1.4961381  0.026551287   -2.2108032    0.7146651   371879 
 4640000    0.5017594   -2.2099459   -2.2099459   -1.4946329  0.025584805   -2.2099459   0.71531295   371761 
 4650000   0.50097133   -2.2082391   -2.2082391   -1.4938248  0.032899455   -2.2082391   0.71441431   371644 
 4660000   0.50178833   -2.2116248   -2.2116248   -1.4958182  0.028889182   -2.2116248   0.71580668   371526 
 4670000   0.50108423   -2.2115637   -2.2115637   -1.4965344   0.02518126   -2.2115637   0.71502936   371408 
 4680000   0.49968127   -2.2103564   -2.2103564   -1.4971043  0.026583912   -2.2103564   0.71325208   371291 
 4690000   0.50058019   -2.2096988   -2.2096988   -1.4949365  0.021612627   -2.2096988   0.71476238   371173 
 4700000   0.50016074   -2.2090589   -2.2090589   -1.4946683  0.026840291   -2.2090589   0.71439057   371055 
 4710000   0.50104733   -2.2119066   -2.2119066    -1.496024  0.025301813   -2.2119066   0.71588263   370938 
 4720000   0.49957785   -2.2103358   -2.2103358   -1.4963256  0.025533056   -2.2103358   0.71401021   370820 
 4730000   0.49924188   -2.2087339   -2.2087339   -1.4949767  0.023995822   -2.2087339   0.71375716   370702 
 4740000   0.49982597   -2.2108753   -2.2108753   -1.4960575  0.032760599   -2.2108753   0.71481783   370585 
 4750000     0.498721    -2.210753    -2.210753   -1.4972883  0.017432791    -2.210753   0.71346476   370467 
 4760000   0.50013519   -2.2139167   -2.2139167   -1.4982009  0.026927696   -2.2139167   0.71571585   370349 
 4770000   0.49846684   -2.2122279   -2.2122279   -1.4986741  0.027275655   -2.2122279   0.71355378   370232 
 4780000   0.49889824   -2.2114801   -2.2114801   -1.4970811  0.025273527   -2.2114801   0.71439903   370114 
 4790000   0.49952177   -2.2122728   -2.2122728   -1.4967548  0.025140633   -2.2122728   0.71551809   369997 
 4800000    0.5000407   -2.2121956   -2.2121956   -1.4957057   0.02939266   -2.2121956    0.7164899   369879 
 4810000   0.49727491   -2.2081576   -2.2081576   -1.4954033  0.020925208   -2.2081576   0.71275429   369761 
 4820000   0.49775908   -2.2098661   -2.2098661    -1.496192  0.023188535   -2.2098661   0.71367409   369644 
 4830000   0.49830322   -2.2121552   -2.2121552   -1.4974728  0.032650445   -2.2121552   0.71468241   369526 
 4840000   0.49810547   -2.2128316   -2.2128316   -1.4982046  0.020767715   -2.2128316   0.71462699   369408 
 4850000   0.49739575   -2.2086954   -2.2086954   -1.4948605  0.027844466   -2.2086954   0.71383485   369291 
 4860000   0.49629928   -2.2087737   -2.2087737   -1.4962848  0.027711776   -2.2087737   0.71248892   369173 
 4870000   0.49777852   -2.2106046   -2.2106046   -1.4957636  0.025924323   -2.2106046     0.714841   369055 
 4880000   0.49833051   -2.2103537   -2.2103537    -1.494493  0.025486156   -2.2103537   0.71586064   368938 
 4890000   0.49729838   -2.2085137   -2.2085137   -1.4939072  0.027652503   -2.2085137   0.71460653   368820 
 4900000   0.49565784   -2.2065573   -2.2065573   -1.4940803  0.025009533   -2.2065573   0.71247705   368702 
 4910000   0.49606564   -2.2074613   -2.2074613   -1.4941717  0.024629876   -2.2074613   0.71328959   368585 
 4920000   0.49622513   -2.2088556   -2.2088556   -1.4951082  0.024908052   -2.2088556   0.71374742   368467 
 4930000   0.49518186   -2.2072098   -2.2072098   -1.4947348  0.030034808   -2.2072098   0.71247499   368349 
 4940000   0.49547557   -2.2069725   -2.2069725   -1.4938484  0.029327456   -2.2069725   0.71312411   368232 
 4950000   0.49521168   -2.2074313   -2.2074313   -1.4944585  0.028648881   -2.2074313   0.71297276   368114 
 4960000   0.49569357    -2.208716    -2.208716   -1.4948226  0.027183567    -2.208716   0.71389347   367997 
 4970000   0.49470783   -2.2088419   -2.2088419   -1.4961395  0.032256087   -2.2088419   0.71270235   367879 
 4980000   0.49435407   -2.2069676   -2.2069676   -1.4945464  0.026203554   -2.2069676   0.71242121   367761 
 4990000   0.49548651   -2.2092667   -2.2092667   -1.4949862  0.025445634   -2.2092667   0.71428042   367644 
 5000000   0.49552452   -2.2093707   -2.2093707   -1.4948061  0.030389871   -2.2093707   0.71456457   367526 
 5010000    0.4942898   -2.2081753   -2.2081753   -1.4951624  0.028635771   -2.2081753   0.71301298   367408 
 5020000    0.4941889   -2.2080146   -2.2080146   -1.4949201  0.029907143   -2.2080146   0.71309452   367291 
 5030000   0.49341497   -2.2078895   -2.2078895   -1.4956829  0.026507254   -2.2078895   0.71220659   367173 
 5040000   0.49378853   -2.2088422   -2.2088422   -1.4958673  0.025764667   -2.2088422   0.71297491   367055 
 5050000   0.49382262   -2.2080444   -2.2080444   -1.4947929  0.021855759   -2.2080444   0.71325149   366938 
 5060000   0.49201035   -2.2044008   -2.2044008   -1.4935383  0.029913745   -2.2044008   0.71086254   366820 
 5070000   0.49370701   -2.2057198   -2.2057198   -1.4921764  0.024233721   -2.2057198   0.71354343   366702 
 5080000   0.49197298    -2.204562    -2.204562   -1.4932978  0.026851961    -2.204562   0.71126422   366585 
 5090000   0.49377754   -2.2075726   -2.2075726   -1.4934696  0.021438187   -2.2075726     0.714103   366467 
 5100000   0.49257728   -2.2051071   -2.2051071   -1.4925105  0.025156773   -2.2051071   0.71259663   366349 
 5110000   0.49355782   -2.2049227   -2.2049227   -1.4906795  0.028412152   -2.2049227   0.71424325   366232 
 5120000   0.49301061   -2.2049122   -2.2049122   -1.4912309   0.03016224   -2.2049122   0.71368132   366114 
 5130000   0.49217462   -2.2033862   -2.2033862   -1.4906873  0.027610368   -2.2033862    0.7126989   365997 
 5140000    0.4925662   -2.2053946   -2.2053946   -1.4918986  0.035525767   -2.2053946   0.71349596   365879 
 5150000   0.49121716   -2.2042022   -2.2042022   -1.4924308  0.034954542   -2.2042022   0.71177139   365761 
 5160000   0.49338443   -2.2068192   -2.2068192   -1.4916786  0.029754546   -2.2068192   0.71514052   365644 
 5170000   0.49246357   -2.2051773   -2.2051773   -1.4911411  0.026250664   -2.2051773   0.71403621   365526 
 5180000   0.49155248   -2.2047997   -2.2047997   -1.4918544  0.028523715   -2.2047997   0.71294534   365408 
 5190000   0.48976657   -2.2023892   -2.2023892   -1.4918066  0.025285007   -2.2023892   0.71058259   365291 
 5200000    0.4914843   -2.2060109   -2.2060109   -1.4927057   0.02949609   -2.2060109    0.7133052   365173 
 5210000    0.4918067   -2.2066824   -2.2066824   -1.4926785  0.026993472   -2.2066824   0.71400382   365055 
 5220000   0.49098208   -2.2063131   -2.2063131   -1.4932779  0.031212721   -2.2063131   0.71303517   364938 
 5230000   0.49073868   -2.2049509   -2.2049509   -1.4920387  0.026444213   -2.2049509   0.71291221   364820 
 5240000   0.49063513   -2.2035385   -2.2035385   -1.4905461   0.03298699   -2.2035385   0.71299239   364702 
 5250000   0.49049772   -2.2042654   -2.2042654   -1.4912439  0.023323551   -2.2042654   0.71302144   364585 
 5260000   0.49055724   -2.2048927   -2.2048927   -1.4915539  0.019012813   -2.2048927   0.71333885   364467 
 5270000   0.48963889   -2.2036134   -2.2036134   -1.4913793  0.028446433   -2.2036134   0.71223403   364349 
 5280000   0.48790128   -2.2009229   -2.2009229   -1.4909884  0.029253879   -2.2009229   0.70993445   364232 
 5290000   0.48935078   -2.2021709   -2.2021709   -1.4898966  0.018249153   -2.2021709   0.71227435   364114 
 5300000   0.48899853   -2.2023975   -2.2023975   -1.4904071  0.027706889   -2.2023975   0.71199041   363997 
 5310000   0.48964959   -2.2037601   -2.2037601   -1.4905905  0.025635048   -2.2037601   0.71316956   363879 
 5320000    0.4889185    -2.203523    -2.203523   -1.4911872  0.026638937    -2.203523   0.71233574   363761 
 5330000   0.48784862    -2.201248    -2.201248   -1.4902423  0.027496185    -2.201248   0.71100565   363644 
 5340000   0.48718718    -2.201555    -2.201555   -1.4912829  0.025897551    -2.201555   0.71027213   363526 
 5350000   0.48707391   -2.2007318   -2.2007318   -1.4903942  0.029205302   -2.2007318   0.71033757   363408 
 5360000   0.48792135   -2.2024596   -2.2024596    -1.490657   0.03024265   -2.2024596   0.71180262   363291 
 5370000   0.48721848   -2.2012009   -2.2012009   -1.4901927  0.023254308   -2.2012009   0.71100818   363173 
 5380000   0.48564334     -2.19986     -2.19986   -1.4909201  0.023804515     -2.19986   0.70893988   363055 
 5390000   0.48677865   -2.2025215   -2.2025215   -1.4916952  0.022123536   -2.2025215   0.71082628   362938 
 5400000   0.48643629   -2.2007141   -2.2007141   -1.4901567  0.029964866   -2.2007141   0.71055737   362820 
 5410000    0.4873804   -2.2010442   -2.2010442   -1.4888761  0.031277153   -2.2010442   0.71216808   362702 
 5420000   0.48690029   -2.2007835   -2.2007835   -1.4890873  0.025057606   -2.2007835   0.71169612   362585 
 5430000   0.48643487    -2.202007    -2.202007   -1.4907598  0.024431974    -2.202007   0.71124729   362467 
 5440000   0.48574291   -2.2006568   -2.2006568     -1.49019  0.028451092   -2.2006568   0.71046682   362349 
 5450000   0.48685723   -2.2020448   -2.2020448   -1.4897181  0.022506783   -2.2020448   0.71232667   362232 
 5460000   0.48706246   -2.2021655   -2.2021655   -1.4893063  0.033382411   -2.2021655   0.71285917   362114 
 5470000   0.48580974   -2.2000981   -2.2000981   -1.4888426  0.029007933   -2.2000981   0.71125551   361997 
 5480000    0.4859855   -2.1999305   -2.1999305   -1.4881857  0.027459268   -2.1999305   0.71174483   361879 
 5490000   0.48607967   -2.2001096   -2.2001096   -1.4879946  0.025914567   -2.2001096   0.71211496   361761 
 5500000   0.48627572    -2.199873    -2.199873   -1.4872403  0.028153931    -2.199873   0.71263265   361644 
 5510000   0.48507707   -2.1988681   -2.1988681   -1.4877601  0.028640316   -2.1988681   0.71110807   361526 
 5520000   0.48533003   -2.1987591   -2.1987591   -1.4870479  0.029766736   -2.1987591    0.7117112   361408 
 5530000   0.48475189   -2.1989914   -2.1989914   -1.4878979  0.025778426   -2.1989914   0.71109359   361291 
 5540000   0.48338455   -2.1962739   -2.1962739   -1.4869544  0.030602883   -2.1962739   0.70931949   361173 
 5550000   0.48578301   -2.1996881   -2.1996881   -1.4866162  0.026231292   -2.1996881   0.71307196   361055 
 5560000   0.48486347   -2.1983802   -2.1983802   -1.4864273  0.026272583   -2.1983802   0.71195289   360938 
 5570000   0.48498372   -2.2002273   -2.2002273    -1.487865  0.030468595   -2.2002273   0.71236234   360820 
 5580000   0.48421789   -2.1995953   -2.1995953   -1.4881252  0.028814265   -2.1995953   0.71147015   360702 
 5590000   0.48314755   -2.1971475   -2.1971475   -1.4870197  0.028832296   -2.1971475   0.71012782   360585 
 5600000   0.48432629    -2.197506    -2.197506   -1.4854127  0.021838675    -2.197506   0.71209335   360467 
 5610000   0.48384776   -2.1964654   -2.1964654   -1.4848427  0.023975084   -2.1964654   0.71162273   360349 
 5620000   0.48359343   -2.1964612   -2.1964612   -1.4849815  0.026306638   -2.1964612   0.71147968   360232 
 5630000   0.48304856   -2.1958125   -2.1958125   -1.4849015  0.022209418   -2.1958125   0.71091092   360114 
 5640000    0.4828308   -2.1972725   -2.1972725   -1.4864512  0.031665742   -2.1972725   0.71082138   359997 
 5650000   0.48166282   -2.1953713   -2.1953713   -1.4860369  0.025900976   -2.1953713   0.70933439   359879 
 5660000   0.48115951   -2.1932247   -2.1932247   -1.4843991  0.021825002   -2.1932247   0.70882559   359761 
 5670000   0.48307754   -2.1970338   -2.1970338   -1.4851511  0.028290353   -2.1970338   0.71188268   359644 
 5680000   0.48225861   -2.1982698   -2.1982698   -1.4873606  0.025639199   -2.1982698   0.71090912   359526 
 5690000    0.4805745     -2.19349     -2.19349   -1.4848309  0.030344972     -2.19349   0.70865912   359408 
 5700000   0.48079313   -2.1916429   -2.1916429   -1.4824306  0.030821556   -2.1916429   0.70921239   359291 
 5710000   0.48172725   -2.1945306   -2.1945306   -1.4837069   0.03181392   -2.1945306   0.71082375   359173 
 5720000   0.48056452   -2.1955671   -2.1955671    -1.486226  0.029736166   -2.1955671    0.7093411   359055 
 5730000   0.48063428   -2.1972889   -2.1972889   -1.4876135   0.02312612   -2.1972889   0.70967532   358938 
 5740000   0.48039006   -2.1952034   -2.1952034   -1.4856554  0.025778642   -2.1952034   0.70954798   358820 
 5750000   0.47978898   -2.1935229   -2.1935229   -1.4846296  0.023803704   -2.1935229   0.70889329   358702 
 5760000    0.4802176   -2.1945257   -2.1945257   -1.4847676   0.03106275   -2.1945257   0.70975809   358585 
 5770000    0.4793158   -2.1935581   -2.1935581   -1.4848997  0.028240292   -2.1935581   0.70865844   358467 
 5780000   0.48020665   -2.1952563   -2.1952563    -1.485047   0.02744604   -2.1952563   0.71020933   358349 
 5790000   0.47969941   -2.1956285   -2.1956285   -1.4859377  0.024090617   -2.1956285   0.70969085   358232 
 5800000    0.4799796    -2.194279    -2.194279   -1.4839397  0.022435944    -2.194279   0.71033935   358114 
 5810000   0.47833835   -2.1927438   -2.1927438    -1.484602  0.028110728   -2.1927438   0.70814178   357997 
 5820000   0.47981133   -2.1955136   -2.1955136    -1.484957  0.030788206   -2.1955136   0.71055661   357879 
 5830000   0.47783727   -2.1930196   -2.1930196    -1.485153  0.025483189   -2.1930196   0.70786661   357761 
 5840000   0.47883925      -2.1957      -2.1957    -1.486117  0.025121227      -2.1957   0.70958299   357644 
 5850000   0.47792128   -2.1939403   -2.1939403   -1.4854839   0.02368808   -2.1939403   0.70845641   357526 
 5860000   0.47751506   -2.1929249   -2.1929249    -1.484837  0.028482233   -2.1929249   0.70808795   357408 
 5870000   0.47765718   -2.1930119   -2.1930119   -1.4844812    0.0237223   -2.1930119   0.70853063   357291 
 5880000   0.47625635    -2.189205    -2.189205   -1.4825189  0.026950544    -2.189205   0.70668611   357173 
 5890000   0.47740576   -2.1904239   -2.1904239   -1.4817981  0.026732529   -2.1904239   0.70862576   357055 
 5900000   0.47732807   -2.1905204   -2.1905204   -1.4817778  0.019780639   -2.1905204   0.70874268   356938 
 5910000   0.47694634   -2.1896725   -2.1896725   -1.4812624  0.026175674   -2.1896725   0.70841007   356820 
 5920000   0.47711284   -2.1889615   -2.1889615   -1.4800697  0.024605057   -2.1889615    0.7088918   356702 
 5930000    0.4767471   -2.1864019   -2.1864019   -1.4778211  0.027508147   -2.1864019   0.70858081   356585 
 5940000   0.47736608   -2.1862687   -2.1862687    -1.476533  0.022000931   -2.1862687   0.70973565   356467 
 5950000   0.47610933   -2.1854866   -2.1854866    -1.477385  0.027288811   -2.1854866   0.70810155   356349 
 5960000   0.47773809   -2.1886268   -2.1886268   -1.4778694  0.026161481   -2.1886268   0.71075731   356232 
 5970000   0.47642767   -2.1885799   -2.1885799   -1.4795373  0.020867576   -2.1885799   0.70904259   356114 
 5980000   0.47532335     -2.18816     -2.18816   -1.4805284  0.024395102     -2.18816   0.70763159   355997 
 5990000   0.47594722   -2.1869945   -2.1869945   -1.4781992   0.02919838   -2.1869945   0.70879531   355879 
 6000000     0.475205   -2.1856777   -2.1856777    -1.477753  0.023411991   -2.1856777   0.70792469   355761 
 6010000   0.47559269   -2.1889055   -2.1889055   -1.4801702  0.021189963   -2.1889055   0.70873533   355644 
 6020000   0.47480698   -2.1886085   -2.1886085   -1.4808092  0.025957074   -2.1886085    0.7077993   355526 
 6030000   0.47408917   -2.1863853   -2.1863853   -1.4794214  0.028132369   -2.1863853   0.70696389   355408 
 6040000   0.47516115   -2.1878839   -2.1878839   -1.4790881  0.023578001   -2.1878839   0.70879577   355291 
 6050000    0.4756246   -2.1893233   -2.1893233   -1.4796005  0.029616752   -2.1893233   0.70972281   355173 
 6060000   0.47388881   -2.1866161   -2.1866161   -1.4792484  0.019030511   -2.1866161   0.70736769   355055 
 6070000   0.47450968   -2.1860243   -2.1860243   -1.4774963  0.030575487   -2.1860243   0.70852794   354938 
 6080000   0.47258253   -2.1864931   -2.1864931    -1.480608  0.023591365   -2.1864931   0.70588503   354820 
 6090000   0.47310438   -2.1878617   -2.1878617   -1.4809622  0.038916008   -2.1878617   0.70689959   354702 
 6100000   0.47313405   -2.1884902   -2.1884902    -1.481313  0.028186654   -2.1884902   0.70717719   354585 
 6110000    0.4732298   -2.1871866   -2.1871866   -1.4796309  0.019628027   -2.1871866   0.70755576   354467 
 6120000    0.4725293    -2.185277    -2.185277   -1.4785333  0.035817289    -2.185277   0.70674367   354349 
 6130000   0.47261878   -2.1857214   -2.1857214   -1.4786104  0.032385416   -2.1857214   0.70711097   354232 
 6140000   0.47219776   -2.1852699   -2.1852699   -1.4785534  0.031899745   -2.1852699   0.70671649   354114 
 6150000   0.47201366   -2.1855432   -2.1855432   -1.4788688  0.025924605   -2.1855432   0.70667444   353997 
 6160000   0.47235069   -2.1866306   -2.1866306   -1.4792158  0.030558547   -2.1866306   0.70741483   353879 
 6170000   0.47144616    -2.184558    -2.184558   -1.4782623  0.019334741    -2.184558   0.70629567   353761 
 6180000   0.47032806   -2.1817101   -2.1817101   -1.4768564  0.025094625   -2.1817101   0.70485371   353644 
 6190000   0.47346122   -2.1853308   -2.1853308   -1.4755448  0.032215083   -2.1853308   0.70978603   353526 
 6200000   0.47069691   -2.1824114   -2.1824114   -1.4765339  0.029353687   -2.1824114   0.70587755   353408 
 6210000   0.47241533   -2.1853497   -2.1853497   -1.4766605  0.026527849   -2.1853497   0.70868918   353291 
 6220000    0.4710476   -2.1813908   -2.1813908   -1.4745173  0.022251309   -2.1813908    0.7068735   353173 
 6230000   0.47120244   -2.1814957   -2.1814957   -1.4741535  0.023638335   -2.1814957   0.70734218   353055 
 6240000   0.47002529   -2.1802412   -2.1802412   -1.4744322  0.025006875   -2.1802412   0.70580901   352938 
 6250000   0.47004519   -2.1826096   -2.1826096   -1.4765346  0.026206605   -2.1826096   0.70607497   352820 
 6260000   0.47051253   -2.1822152   -2.1822152   -1.4752018  0.027718808   -2.1822152   0.70701344   352702 
 6270000   0.47000302   -2.1808154   -2.1808154   -1.4743332  0.023800402   -2.1808154   0.70648218   352585 
 6280000   0.46920257   -2.1795131   -2.1795131   -1.4739979  0.029322509   -2.1795131   0.70551511   352467 
 6290000   0.47041514   -2.1824555   -2.1824555   -1.4748802  0.019981398   -2.1824555   0.70757527   352349 
 6300000   0.46960728   -2.1807657   -2.1807657    -1.474171  0.029035072   -2.1807657   0.70659476   352232 
 6310000   0.46964537   -2.1827956   -2.1827956   -1.4759067  0.026661087   -2.1827956   0.70688887   352114 
 6320000   0.46814286   -2.1840894   -2.1840894   -1.4792278  0.029506161   -2.1840894   0.70486159   351997 
 6330000   0.46825674   -2.1807541   -2.1807541   -1.4754846  0.024186883   -2.1807541   0.70526948   351879 
 6340000   0.46733934   -2.1800978   -2.1800978   -1.4759739   0.02579702   -2.1800978   0.70412384   351761 
 6350000   0.46827295   -2.1822382   -2.1822382   -1.4764729  0.030582693   -2.1822382   0.70576523   351644 
 6360000   0.46754952   -2.1794293   -2.1794293   -1.4745178  0.024374185   -2.1794293   0.70491144   351526 
 6370000   0.46703138   -2.1805241   -2.1805241   -1.4761574  0.028752196   -2.1805241    0.7043667   351408 
 6380000   0.46755727   -2.1819802   -2.1819802   -1.4765856  0.027203046   -2.1819802    0.7053947   351291 
 6390000    0.4682204   -2.1811973   -2.1811973   -1.4745647  0.027137908   -2.1811973   0.70663251   351173 
 6400000    0.4671074   -2.1803771   -2.1803771   -1.4751874  0.025778865   -2.1803771   0.70518973   351055 
 6410000   0.46657432    -2.179726    -2.179726   -1.4751062  0.028661189    -2.179726   0.70461979   350938 
 6420000   0.46789559   -2.1809923   -2.1809923   -1.4741395  0.032370862   -2.1809923   0.70685284   350820 
 6430000   0.46715173   -2.1804238   -2.1804238   -1.4744573  0.032797069   -2.1804238   0.70596653   350702 
 6440000   0.46661076   -2.1809049   -2.1809049   -1.4755205   0.02851046   -2.1809049   0.70538435   350585 
 6450000   0.46538695   -2.1784523   -2.1784523   -1.4746811  0.028843811   -2.1784523   0.70377117   350467 
 6460000    0.4653148   -2.1796389   -2.1796389   -1.4757399  0.030996234   -2.1796389   0.70389905   350349 
 6470000   0.46673191   -2.1818976   -2.1818976   -1.4756189  0.035929571   -2.1818976   0.70627864   350232 
 6480000   0.46614145   -2.1802605   -2.1802605   -1.4746376  0.025835502   -2.1802605   0.70562286   350114 
 6490000   0.46479893   -2.1770493   -2.1770493   -1.4732235  0.034569735   -2.1770493   0.70382582   349997 
 6500000   0.46645954   -2.1799538   -2.1799538   -1.4733751  0.028853782   -2.1799538   0.70657864   349879 
 6510000   0.46621799   -2.1803717   -2.1803717   -1.4739207  0.020331578   -2.1803717     0.706451   349761 
 6520000   0.46474303   -2.1777216   -2.1777216   -1.4732699  0.029850742   -2.1777216   0.70445167   349644 
 6530000   0.46571471   -2.1791467   -2.1791467   -1.4729839  0.030410172   -2.1791467   0.70616285   349526 
 6540000    0.4642324   -2.1775418   -2.1775418   -1.4733889  0.032286301   -2.1775418   0.70415294   349408 
 6550000   0.46322522   -2.1759435   -2.1759435   -1.4730829  0.022416602   -2.1759435    0.7028606   349291 
 6560000   0.46525245   -2.1799974   -2.1799974   -1.4738223  0.028438141   -2.1799974   0.70617511   349173 
 6570000   0.46422582   -2.1772545   -2.1772545   -1.4723994  0.024435325   -2.1772545   0.70485507   349055 
 6580000   0.46331223   -2.1750004   -2.1750004   -1.4712966  0.020628376   -2.1750004    0.7037038   348938 
 6590000   0.46465134   -2.1780662   -2.1780662   -1.4720897  0.031987918   -2.1780662   0.70597645   348820 
 6600000   0.46415589   -2.1760289   -2.1760289   -1.4705665  0.028330119   -2.1760289   0.70546233   348702 
 6610000   0.46230088   -2.1735703   -2.1735703   -1.4706916  0.026709295   -2.1735703   0.70287876   348585 
 6620000   0.46348369   -2.1766986   -2.1766986   -1.4717829  0.025687728   -2.1766986   0.70491573   348467 
 6630000    0.4619649   -2.1744899   -2.1744899   -1.4716462  0.027158263   -2.1744899   0.70284378   348349 
 6640000   0.46350707   -2.1760317   -2.1760317   -1.4706046  0.027550933   -2.1760317   0.70542701   348232 
 6650000   0.46289359   -2.1746503   -2.1746503   -1.4699181  0.029344632   -2.1746503   0.70473213   348114 
 6660000   0.46199364    -2.175707    -2.175707   -1.4721086  0.025282024    -2.175707   0.70359848   347997 
 6670000   0.46336947    -2.175754    -2.175754   -1.4698208  0.030621455    -2.175754   0.70593319   347879 
 6680000   0.46199942   -2.1733876   -2.1733876   -1.4693028  0.017490391   -2.1733876   0.70408477   347761 
 6690000   0.46211023    -2.176558    -2.176558   -1.4720673  0.027146086    -2.176558   0.70449067   347644 
 6700000   0.46059235   -2.1777445   -2.1777445   -1.4753295  0.027029485   -2.1777445   0.70241506   347526 
 6710000    0.4612312   -2.1769269   -2.1769269   -1.4732987  0.027458949   -2.1769269   0.70362823   347408 
 6720000   0.46114622   -2.1761559   -2.1761559   -1.4724203  0.025186956   -2.1761559   0.70373559   347291 
 6730000   0.46023792   -2.1740937   -2.1740937   -1.4715055  0.021029266   -2.1740937   0.70258821   347173 
 6740000   0.45983297   -2.1749365   -2.1749365   -1.4727279  0.026642975   -2.1749365   0.70220868   347055 
 6750000   0.46022695    -2.172939    -2.172939   -1.4698916  0.026649931    -2.172939   0.70304735   346938 
 6760000   0.46007567   -2.1720242   -2.1720242   -1.4689689  0.026461767   -2.1720242   0.70305537   346820 
 6770000   0.45983018   -2.1733093   -2.1733093   -1.4703899  0.032522903   -2.1733093   0.70291939   346702 
 6780000   0.45764029   -2.1732552   -2.1732552   -1.4734473  0.024241087   -2.1732552   0.69980797   346585 
 6790000   0.46007184   -2.1763043   -2.1763043   -1.4725385  0.026411933   -2.1763043   0.70376582   346467 
 6800000   0.45886723   -2.1764537   -2.1764537   -1.4742914  0.023635899   -2.1764537   0.70216229   346349 
 6810000   0.45894277   -2.1765994   -2.1765994   -1.4740842  0.024870349   -2.1765994    0.7025152   346232 
 6820000   0.45903903   -2.1765504   -2.1765504   -1.4736483  0.026143806   -2.1765504   0.70290211   346114 
 6830000   0.45937596   -2.1759725   -2.1759725   -1.4723166   0.02950302   -2.1759725    0.7036559   345997 
 6840000   0.45985414   -2.1753289   -2.1753289   -1.4707003  0.028424765   -2.1753289   0.70462866   345879 
 6850000   0.45857014   -2.1726005   -2.1726005   -1.4696995  0.021146105   -2.1726005     0.702901   345761 
 6860000   0.45773193   -2.1728213   -2.1728213   -1.4709676  0.028135337   -2.1728213   0.70185368   345644 
 6870000   0.45848307   -2.1745221   -2.1745221   -1.4712766  0.027984169   -2.1745221   0.70324551   345526 
 6880000   0.45778695    -2.174376    -2.174376   -1.4719584  0.029437799    -2.174376   0.70241764   345408 
 6890000   0.45808325   -2.1751291   -2.1751291   -1.4720187  0.029008525   -2.1751291   0.70311044   345291 
 6900000   0.45786456   -2.1752433   -2.1752433   -1.4722282  0.024124545   -2.1752433   0.70301503   345173 
 6910000    0.4565706   -2.1738559   -2.1738559   -1.4725879  0.026097478   -2.1738559   0.70126798   345055 
 6920000   0.45797649     -2.17397     -2.17397   -1.4703041  0.026895552     -2.17397   0.70366596   344938 
 6930000   0.45713027   -2.1741766   -2.1741766   -1.4715705  0.026192065   -2.1741766   0.70260612   344820 
 6940000   0.45645285   -2.1719579   -2.1719579   -1.4701528  0.021699184   -2.1719579   0.70180509   344702 
 6950000   0.45659689   -2.1742981   -2.1742981   -1.4720332  0.029869016   -2.1742981   0.70226493   344585 
 6960000   0.45607484   -2.1727755   -2.1727755   -1.4710732  0.027003083   -2.1727755   0.70170228   344467 
 6970000   0.45651062   -2.1715424   -2.1715424   -1.4689289  0.029399256   -2.1715424   0.70261344   344349 
 6980000   0.45717468   -2.1739104   -2.1739104   -1.4700357  0.025188295   -2.1739104   0.70387466   344232 
 6990000   0.45501081   -2.1707934   -2.1707934   -1.4700101  0.030928928   -2.1707934   0.70078334   344114 
 7000000   0.45615274   -2.1731292   -2.1731292   -1.4703481  0.030824951   -2.1731292   0.70278102   343997 
 7010000   0.45403775   -2.1713168   -2.1713168   -1.4715543  0.024983138   -2.1713168   0.69976256   343879 
 7020000   0.45522579   -2.1746971   -2.1746971   -1.4728627  0.026214056   -2.1746971    0.7018344   343761 
 7030000   0.45548375   -2.1736299   -2.1736299   -1.4711587  0.024477627   -2.1736299   0.70247119   343644 
 7040000   0.45488239   -2.1712228   -2.1712228    -1.469438  0.027934803   -2.1712228   0.70178472   343526 
 7050000   0.45525014   -2.1721837   -2.1721837   -1.4695903  0.023951394   -2.1721837   0.70259343   343408 
 7060000     0.453755   -2.1695289   -2.1695289   -1.4690043  0.025676915   -2.1695289   0.70052463   343291 
 7070000   0.45407653   -2.1723721   -2.1723721     -1.47111  0.020122417   -2.1723721   0.70126205   343173 
 7080000   0.45452254   -2.1708917   -2.1708917   -1.4686994  0.023918254   -2.1708917   0.70219231   343055 
 7090000   0.45354608   -2.1684329   -2.1684329   -1.4675101  0.031199665   -2.1684329   0.70092283   342938 
 7100000    0.4526901   -2.1673747   -2.1673747   -1.4675339  0.030686057   -2.1673747   0.69984077   342820 
 7110000   0.45385748   -2.1688926   -2.1688926   -1.4670055  0.027778701   -2.1688926   0.70188709   342702 
 7120000   0.45405355    -2.168283    -2.168283   -1.4658528  0.028386935    -2.168283   0.70243012   342585 
 7130000    0.4534946   -2.1666552   -2.1666552    -1.464848  0.035210954   -2.1666552   0.70180715   342467 
 7140000   0.45445948   -2.1689624   -2.1689624   -1.4654196  0.029802591   -2.1689624   0.70354277   342349 
 7150000   0.45322837   -2.1660229   -2.1660229   -1.4641461  0.026338065   -2.1660229   0.70187677   342232 
 7160000   0.45327464   -2.1679615   -2.1679615   -1.4657709  0.031392575   -2.1679615   0.70219053   342114 
 7170000   0.45212023   -2.1671965   -2.1671965   -1.4665547  0.022462756   -2.1671965    0.7006418   341997 
 7180000   0.45209495    -2.166979    -2.166979   -1.4661345  0.025940838    -2.166979   0.70084443   341879 
 7190000   0.45225878   -2.1681742   -2.1681742   -1.4668337  0.025511927   -2.1681742   0.70134047   341761 
 7200000   0.45143039   -2.1679308   -2.1679308   -1.4676353  0.022096018   -2.1679308   0.70029559   341644 
 7210000   0.45156939   -2.1670677   -2.1670677   -1.4663144  0.023123468   -2.1670677   0.70075326   341526 
 7220000    0.4514638   -2.1677212   -2.1677212   -1.4668896  0.028662508   -2.1677212   0.70083154   341408 
 7230000   0.45137418   -2.1679924   -2.1679924   -1.4670597  0.021452868   -2.1679924   0.70093263   341291 
 7240000   0.45241604   -2.1654126   -2.1654126   -1.4626191  0.026596062   -2.1654126   0.70279351   341173 
 7250000   0.45109819    -2.163225    -2.163225   -1.4622362  0.023611198    -2.163225   0.70098877   341055 
 7260000   0.45181197    -2.166985    -2.166985   -1.4646461  0.026897378    -2.166985    0.7023389   340938 
 7270000   0.45028023   -2.1631154   -2.1631154   -1.4629152  0.027803172   -2.1631154   0.70020016   340820 
 7280000   0.45183048   -2.1616197   -2.1616197   -1.4587655  0.025571714   -2.1616197   0.70285419   340702 
 7290000   0.44970611   -2.1603236   -2.1603236   -1.4605337  0.022327201   -2.1603236    0.6997899   340585 
 7300000   0.45180811   -2.1626681   -2.1626681   -1.4593636  0.022918402   -2.1626681   0.70330449   340467 
 7310000   0.44955662   -2.1577815   -2.1577815   -1.4577392  0.027292529   -2.1577815   0.70004235   340349 
 7320000   0.45102279   -2.1606897   -2.1606897   -1.4581227  0.025611367   -2.1606897   0.70256696   340232 
 7330000   0.44953536   -2.1597548   -2.1597548   -1.4592619  0.021755515   -2.1597548   0.70049292   340114 
 7340000   0.45064293   -2.1614725   -2.1614725   -1.4590121  0.023889086   -2.1614725   0.70246044   339997 
 7350000   0.44879633   -2.1607062   -2.1607062   -1.4608814  0.030008805   -2.1607062   0.69982486   339879 
 7360000    0.4495169   -2.1613303   -2.1613303   -1.4601384   0.02256323   -2.1613303    0.7011919   339761 
 7370000   0.44884978   -2.1609769   -2.1609769   -1.4605844   0.02171488   -2.1609769   0.70039247   339644 
 7380000   0.44902316   -2.1611807   -2.1611807   -1.4602742  0.030437293   -2.1611807   0.70090652   339526 
 7390000     0.448328   -2.1570843   -2.1570843   -1.4570196  0.023852913   -2.1570843   0.70006471   339408 
 7400000   0.44957512   -2.1595661   -2.1595661    -1.457312  0.029786069   -2.1595661   0.70225417   339291 
 7410000   0.44796882   -2.1579107   -2.1579107   -1.4579222  0.025636138   -2.1579107   0.69998851   339173 
 7420000   0.44764726   -2.1571427   -2.1571427   -1.4574133   0.02859134   -2.1571427   0.69972949   339055 
 7430000   0.44823723   -2.1604401   -2.1604401   -1.4595466  0.032252237   -2.1604401   0.70089355   338938 
 7440000   0.44676297   -2.1588343   -2.1588343   -1.4600027  0.027962649   -2.1588343   0.69883159   338820 
 7450000   0.44719218   -2.1591747   -2.1591747    -1.459428  0.030795611   -2.1591747   0.69974666   338702 
 7460000   0.44653919   -2.1571681   -2.1571681   -1.4582018  0.024816769   -2.1571681   0.69896634   338585 
 7470000   0.44723187   -2.1580392   -2.1580392   -1.4577445  0.029375681   -2.1580392   0.70029465   338467 
 7480000   0.44747932   -2.1593882   -2.1593882   -1.4584618  0.026732448   -2.1593882   0.70092648   338349 
 7490000   0.44613507   -2.1577337   -2.1577337   -1.4586711  0.021256559   -2.1577337    0.6990626   338232 
 7500000   0.44698586   -2.1580173   -2.1580173   -1.4573771   0.03002558   -2.1580173   0.70064016   338114 
 7510000   0.44632581    -2.157711    -2.157711   -1.4578633  0.026525705    -2.157711   0.69984772   337997 
 7520000   0.44605731    -2.158485    -2.158485    -1.458814  0.022843443    -2.158485   0.69967097   337879 
 7530000   0.44576834   -2.1586075   -2.1586075   -1.4591455  0.026942003   -2.1586075   0.69946198   337761 
 7540000   0.44601706   -2.1606141   -2.1606141   -1.4605193  0.026733091   -2.1606141   0.70009477   337644 
 7550000   0.44560772   -2.1592678   -2.1592678   -1.4595711  0.028864943   -2.1592678   0.69969678   337526 
 7560000     0.444742    -2.156091    -2.156091   -1.4575094  0.023814302    -2.156091   0.69858164   337408 
 7570000   0.44494823   -2.1559556   -2.1559556   -1.4568076   0.02735421   -2.1559556   0.69914802   337291 
 7580000   0.44446661   -2.1568782   -2.1568782   -1.4582425   0.03160556   -2.1568782   0.69863566   337173 
 7590000   0.44435017   -2.1573075   -2.1573075   -1.4586103  0.031247702   -2.1573075   0.69869715   337055 
 7600000   0.44459148   -2.1572033   -2.1572033   -1.4578839  0.028558505   -2.1572033   0.69931935   336938 
 7610000   0.44423718    -2.155659    -2.155659   -1.4566521  0.030576121    -2.155659   0.69900685   336820 
 7620000   0.44419816   -2.1562653   -2.1562653   -1.4570749   0.03055054   -2.1562653   0.69919041   336702 
 7630000   0.44329863   -2.1573236   -2.1573236   -1.4593066  0.025790485   -2.1573236   0.69801705   336585 
 7640000   0.44382692   -2.1569643   -2.1569643   -1.4578704  0.029824484   -2.1569643   0.69909398   336467 
 7650000   0.44323626   -2.1556481   -2.1556481   -1.4572396  0.022946875   -2.1556481   0.69840854   336349 
 7660000   0.44221889   -2.1565161   -2.1565161   -1.4594681  0.027113031   -2.1565161   0.69704793   336232 
 7670000   0.44377051   -2.1595638   -2.1595638   -1.4598245  0.028990732   -2.1595638   0.69973925   336114 
 7680000   0.44262353   -2.1558527   -2.1558527    -1.457679  0.031821596   -2.1558527   0.69817371   335997 
 7690000   0.44333754   -2.1561888   -2.1561888   -1.4566432  0.030566803   -2.1561888   0.69954564   335879 
 7700000   0.44269776   -2.1563171   -2.1563171   -1.4575355  0.027115947   -2.1563171   0.69878162   335761 
 7710000   0.44347876   -2.1555547   -2.1555547   -1.4552963   0.02410365   -2.1555547   0.70025841   335644 
 7720000   0.44122811   -2.1539638   -2.1539638   -1.4570142  0.027720757   -2.1539638   0.69694963   335526 
 7730000   0.44256684   -2.1572769   -2.1572769   -1.4579667  0.028345424   -2.1572769   0.69931018   335408 
 7740000   0.44123393   -2.1550915   -2.1550915   -1.4576442   0.03041365   -2.1550915   0.69744731   335291 
 7750000   0.44193925   -2.1546653   -2.1546653   -1.4558572   0.02826693   -2.1546653   0.69880813   335173 
 7760000   0.44183268   -2.1548228   -2.1548228   -1.4559372  0.024917032   -2.1548228   0.69888566   335055 
 7770000   0.44082098   -2.1543197   -2.1543197   -1.4567907  0.026209809   -2.1543197   0.69752894   334938 
 7780000   0.44060328   -2.1530945   -2.1530945   -1.4556643  0.028499887   -2.1530945   0.69743017   334820 
 7790000   0.44103615   -2.1534909   -2.1534909   -1.4551295   0.03175516   -2.1534909   0.69836148   334702 
 7800000   0.44133791   -2.1545697   -2.1545697    -1.455486  0.022400484   -2.1545697   0.69908368   334585 
 7810000   0.44163623     -2.15267     -2.15267    -1.452867  0.032571421     -2.15267   0.69980302   334467 
 7820000   0.43975483   -2.1520335   -2.1520335   -1.4549657  0.030946161   -2.1520335   0.69706775   334349 
 7830000   0.44078738   -2.1540164   -2.1540164   -1.4550674  0.026026734   -2.1540164   0.69894905   334232 
 7840000   0.43939702   -2.1535473   -2.1535473   -1.4565569  0.027610599   -2.1535473   0.69699046   334114 
 7850000   0.44067653    -2.151887    -2.151887    -1.452622  0.026826061    -2.151887   0.69926494   333997 
 7860000   0.44013268   -2.1481234   -2.1481234   -1.4494746  0.016287329   -2.1481234   0.69864878   333879 
 7870000   0.43903098   -2.1484267   -2.1484267   -1.4512803  0.028725102   -2.1484267   0.69714638   333761 
 7880000   0.43894346   -2.1489532   -2.1489532   -1.4517014  0.023269173   -2.1489532   0.69725183   333644 
 7890000   0.43928319   -2.1472032   -2.1472032   -1.4491649  0.031823256   -2.1472032   0.69803835   333526 
 7900000   0.43899577    -2.148767    -2.148767   -1.4509385  0.030847044    -2.148767   0.69782853   333408 
 7910000   0.43725264    -2.146478    -2.146478   -1.4511764  0.023039979    -2.146478   0.69530164   333291 
 7920000   0.43836861   -2.1482889   -2.1482889   -1.4509658  0.027818845   -2.1482889   0.69732309   333173 
 7930000   0.43884703   -2.1493522   -2.1493522   -1.4510207  0.024357231   -2.1493522   0.69833146   333055 
 7940000   0.43818555   -2.1483143   -2.1483143   -1.4507904  0.030422478   -2.1483143   0.69752388   332938 
 7950000   0.43741073   -2.1460524   -2.1460524    -1.449515  0.026889584   -2.1460524   0.69653736   332820 
 7960000   0.43836131   -2.1468397   -2.1468397   -1.4485411  0.029194292   -2.1468397   0.69829866   332702 
 7970000    0.4370056   -2.1470525   -2.1470525   -1.4506686  0.025331711   -2.1470525   0.69638394   332585 
 7980000   0.43768431   -2.1492605   -2.1492605   -1.4515475  0.024834704   -2.1492605   0.69771303   332467 
 7990000   0.43711382   -2.1479349   -2.1479349   -1.4508839  0.028557598   -2.1479349   0.69705101   332349 
 8000000    0.4367573   -2.1459162   -2.1459162   -1.4491884  0.018734441   -2.1459162   0.69672776   332232 
 8010000   0.43624908   -2.1459123   -2.1459123    -1.449748   0.02340786   -2.1459123   0.69616428   332114 
 8020000   0.43634557   -2.1462337   -2.1462337     -1.44967  0.022113085   -2.1462337   0.69656365   331997 
 8030000   0.43446065   -2.1444164   -2.1444164   -1.4506151  0.023309611   -2.1444164   0.69380124   331879 
 8040000   0.43683812   -2.1491934   -2.1491934   -1.4513474  0.025796966   -2.1491934     0.697846   331761 
 8050000   0.43597056    -2.145647    -2.145647   -1.4489412  0.028308262    -2.145647   0.69670578   331644 
 8060000   0.43554457   -2.1460351   -2.1460351   -1.4497623  0.029561667   -2.1460351   0.69627277   331526 
 8070000   0.43571792    -2.147878    -2.147878     -1.45108  0.027195377    -2.147878    0.6967979   331408 
 8080000   0.43605694   -2.1470276   -2.1470276   -1.4494412  0.034366063   -2.1470276   0.69758634   331291 
 8090000   0.43400341   -2.1435491   -2.1435491   -1.4490005  0.028296032   -2.1435491   0.69454856   331173 
 8100000   0.43449627   -2.1439835   -2.1439835   -1.4483984  0.029981179   -2.1439835   0.69558515   331055 
 8110000   0.43438016   -2.1440137   -2.1440137   -1.4483686  0.024982457   -2.1440137   0.69564512   330938 
 8120000   0.43498095   -2.1421615   -2.1421615   -1.4453058  0.029836582   -2.1421615   0.69685573   330820 
 8130000   0.43367891   -2.1411355   -2.1411355   -1.4461178  0.025708572   -2.1411355   0.69501773   330702 
 8140000   0.43409462   -2.1428442   -2.1428442    -1.446914  0.030703434   -2.1428442   0.69593016   330585 
 8150000   0.43392217   -2.1432551   -2.1432551    -1.447353  0.031356431   -2.1432551   0.69590208   330467 
 8160000   0.43467821   -2.1424831   -2.1424831   -1.4451195  0.025417107   -2.1424831    0.6973636   330349 
 8170000   0.43330714    -2.141162    -2.141162   -1.4457518  0.023136218    -2.141162   0.69541025   330232 
 8180000   0.43417264    -2.143573    -2.143573   -1.4465247   0.03258053    -2.143573   0.69704836   330114 
 8190000   0.43240492   -2.1440695   -2.1440695    -1.449613  0.021984592   -2.1440695   0.69445648   329997 
 8200000   0.43362766   -2.1457879   -2.1457879   -1.4491185  0.029521121   -2.1457879   0.69666936   329879 
 8210000   0.43294579   -2.1443447   -2.1443447    -1.448522  0.024969442   -2.1443447   0.69582275   329761 
 8220000   0.43224653   -2.1434238   -2.1434238   -1.4484783  0.019021035   -2.1434238   0.69494549   329644 
 8230000   0.43347006   -2.1426103   -2.1426103   -1.4454481  0.029499041   -2.1426103   0.69716218   329526 
 8240000   0.43160303   -2.1399115   -2.1399115   -1.4455035  0.029414012   -2.1399115   0.69440804   329408 
 8250000   0.43237575   -2.1422879   -2.1422879   -1.4463894  0.026852686   -2.1422879   0.69589845   329291 
 8260000   0.43203103   -2.1417521   -2.1417521   -1.4461593  0.027475985   -2.1417521    0.6955929   329173 
 8270000   0.43195437   -2.1404109   -2.1404109   -1.4446921  0.029346218   -2.1404109   0.69571885   329055 
 8280000    0.4315315   -2.1394514   -2.1394514   -1.4441664  0.025355034   -2.1394514   0.69528498   328938 
 8290000   0.43261842   -2.1406013   -2.1406013   -1.4433149  0.032367426   -2.1406013   0.69728637   328820 
 8300000   0.43086565   -2.1385621   -2.1385621   -1.4438515  0.025913215   -2.1385621    0.6947106   328702 
 8310000   0.43090827   -2.1370429   -2.1370429   -1.4420162  0.020926494   -2.1370429   0.69502671   328585 
 8320000   0.43114883   -2.1383804   -2.1383804   -1.4427158   0.02412072   -2.1383804   0.69566454   328467 
 8330000   0.43132081   -2.1392504   -2.1392504   -1.4430582   0.02971479   -2.1392504   0.69619214   328349 
 8340000   0.43086575   -2.1400273   -2.1400273   -1.4443218  0.027192757   -2.1400273   0.69570552   328232 
 8350000   0.42964743   -2.1372476   -2.1372476   -1.4432597  0.023723604   -2.1372476   0.69398783   328114 
 8360000   0.42974201   -2.1354691   -2.1354691   -1.4410809  0.032454145   -2.1354691   0.69438821   327997 
 8370000    0.4292883   -2.1364064   -2.1364064   -1.4425017  0.028128479   -2.1364064   0.69390473   327879 
 8380000   0.43057133   -2.1374988   -2.1374988   -1.4412696  0.031288149   -2.1374988   0.69622919   327761 
 8390000   0.42879305   -2.1343823   -2.1343823    -1.440781  0.026543292   -2.1343823   0.69360133   327644 
 8400000   0.42971832   -2.1357549   -2.1357549   -1.4404065  0.033723103   -2.1357549   0.69534843   327526 
 8410000   0.42945789   -2.1377533   -2.1377533   -1.4425758  0.028351418   -2.1377533   0.69517749   327408 
 8420000   0.42865318   -2.1384737   -2.1384737   -1.4443508  0.023526756   -2.1384737   0.69412291   327291 
 8430000   0.42796066   -2.1364471   -2.1364471   -1.4431957  0.024253651   -2.1364471   0.69325145   327173 
 8440000   0.42734482   -2.1347413   -2.1347413   -1.4422377  0.024162242   -2.1347413   0.69250362   327055 
 8450000   0.42732168   -2.1379576   -2.1379576   -1.4452437  0.025055212   -2.1379576   0.69271393   326938 
 8460000   0.42735093   -2.1382874   -2.1382874    -1.445276  0.026522311   -2.1382874   0.69301147   326820 
 8470000   0.42718333   -2.1364312   -2.1364312   -1.4434413  0.022427925   -2.1364312    0.6929899   326702 
 8480000   0.42698146   -2.1370653   -2.1370653   -1.4441547  0.027231089   -2.1370653   0.69291057   326585 
 8490000   0.42724891   -2.1366198   -2.1366198   -1.4430246  0.028336185   -2.1366198    0.6935952   326467 
 8500000   0.42600718     -2.13485     -2.13485   -1.4430206   0.02367035     -2.13485   0.69182942   326349 
 8510000   0.42609766   -2.1350972   -2.1350972   -1.4428727  0.022471902   -2.1350972   0.69222453   326232 
 8520000   0.42637765   -2.1353445   -2.1353445   -1.4424144  0.029159379   -2.1353445   0.69293004   326114 
 8530000   0.42660851   -2.1347687   -2.1347687   -1.4412147  0.026871887   -2.1347687   0.69355404   325997 
 8540000   0.42675244   -2.1366651   -2.1366651   -1.4426258  0.030016741   -2.1366651   0.69403926   325879 
 8550000   0.42505343   -2.1338401   -2.1338401   -1.4423136  0.028951933   -2.1338401    0.6915265   325761 
 8560000   0.42550085    -2.134443    -2.134443   -1.4419398  0.026033315    -2.134443   0.69250315   325644 
 8570000   0.42523848   -2.1328109   -2.1328109   -1.4404839  0.028126931   -2.1328109   0.69232701   325526 
 8580000   0.42333509    -2.131816    -2.131816   -1.4423379  0.027032729    -2.131816   0.68947804   325408 
 8590000   0.42485884   -2.1323993   -2.1323993   -1.4401907  0.026266737   -2.1323993   0.69220863   325291 
 8600000   0.42438477   -2.1317882   -2.1317882   -1.4401011  0.026915403   -2.1317882   0.69168715   325173 
 8610000   0.42604855   -2.1369684   -2.1369684   -1.4423175  0.029102531   -2.1369684   0.69465095   325055 
 8620000   0.42398829   -2.1325196   -2.1325196   -1.4409789  0.028665837   -2.1325196   0.69154072   324938 
 8630000   0.42310443   -2.1306269   -2.1306269    -1.440277  0.029878944   -2.1306269   0.69034981   324820 
 8640000   0.42446364   -2.1343262   -2.1343262   -1.4415069  0.025573263   -2.1343262   0.69281923   324702 
 8650000   0.42455335    -2.135303    -2.135303   -1.4420876  0.019881022    -2.135303   0.69321543   324585 
 8660000   0.42460983   -2.1351281   -2.1351281   -1.4415683  0.021220013   -2.1351281   0.69355979   324467 
 8670000   0.42356875   -2.1333228   -2.1333228   -1.4412118  0.034284703   -2.1333228     0.692111   324349 
 8680000   0.42284688   -2.1302905   -2.1302905   -1.4391097  0.026562129   -2.1302905   0.69118079   324232 
 8690000   0.42261652   -2.1309909   -2.1309909   -1.4399351  0.024802923   -2.1309909   0.69105574   324114 
 8700000   0.42314804   -2.1304371   -2.1304371   -1.4382623  0.027370753   -2.1304371   0.69217474   323997 
 8710000   0.42188815   -2.1289472   -2.1289472   -1.4385819  0.025735979   -2.1289472   0.69036527   323879 
 8720000   0.42159171   -2.1316889   -2.1316889   -1.4415573  0.022629808   -2.1316889   0.69013161   323761 
 8730000   0.42224588   -2.1340854   -2.1340854   -1.4426331  0.023913583   -2.1340854   0.69145234   323644 
 8740000   0.42211334   -2.1311692   -2.1311692   -1.4396818  0.026166161   -2.1311692   0.69148742   323526 
 8750000   0.42201723   -2.1295384   -2.1295384   -1.4379562  0.023758309   -2.1295384   0.69158222   323408 
 8760000   0.42203502   -2.1291394   -2.1291394   -1.4372778  0.028804254   -2.1291394   0.69186168   323291 
 8770000   0.42188959   -2.1296493   -2.1296493   -1.4377735  0.028001385   -2.1296493    0.6918758   323173 
 8780000   0.42171667   -2.1283607   -2.1283607   -1.4365159  0.027102941   -2.1283607   0.69184482   323055 
 8790000   0.42227119   -2.1296084   -2.1296084   -1.4366028   0.02730807   -2.1296084   0.69300553   322938 
 8800000   0.42206613   -2.1282128   -2.1282128   -1.4352906  0.027672617   -2.1282128   0.69292219   322820 
 8810000   0.42187759   -2.1281548   -2.1281548   -1.4352889  0.029110686   -2.1281548   0.69286591   322702 
 8820000   0.42101794   -2.1269529   -2.1269529    -1.435248   0.02320713   -2.1269529   0.69170486   322585 
 8830000   0.42036672   -2.1259226   -2.1259226   -1.4350349  0.035485837   -2.1259226   0.69088768   322467 
 8840000     0.420025   -2.1271716   -2.1271716   -1.4365929  0.018514916   -2.1271716   0.69057876   322349 
 8850000   0.42145872    -2.130005    -2.130005   -1.4368174   0.02505615    -2.130005   0.69318758   322232 
 8860000   0.42144678   -2.1288638   -2.1288638   -1.4354419  0.028467964   -2.1288638   0.69342187   322114 
 8870000   0.41993498   -2.1263834   -2.1263834   -1.4351979  0.026980495   -2.1263834   0.69118551   321997 
 8880000   0.42069195   -2.1275149   -2.1275149   -1.4348296  0.029225741   -2.1275149   0.69268527   321879 
 8890000   0.41982979   -2.1256733   -2.1256733   -1.4341541  0.027877091   -2.1256733   0.69151921   321761 
 8900000   0.41956883   -2.1251902   -2.1251902   -1.4338495  0.027229768   -2.1251902   0.69134075   321644 
 8910000   0.41939537   -2.1265409   -2.1265409   -1.4352323  0.031420794   -2.1265409   0.69130855   321526 
 8920000   0.41895843   -2.1243759   -2.1243759    -1.433534  0.027289202   -2.1243759   0.69084187   321408 
 8930000   0.41919995   -2.1280788   -2.1280788   -1.4365869  0.030084009   -2.1280788   0.69149183   321291 
 8940000   0.41826082   -2.1257282   -2.1257282   -1.4355321  0.027558123   -2.1257282   0.69019618   321173 
 8950000   0.41892678   -2.1260296   -2.1260296   -1.4344804  0.020341596   -2.1260296   0.69154921   321055 
 8960000    0.4172938   -2.1243585   -2.1243585   -1.4352539   0.03422434   -2.1243585   0.68910466   320938 
 8970000   0.41902716   -2.1270955   -2.1270955    -1.434874  0.020403298   -2.1270955   0.69222159   320820 
 8980000   0.41723365   -2.1257181   -2.1257181   -1.4362058  0.022568817   -2.1257181   0.68951236   320702 
 8990000    0.4187085   -2.1254926   -2.1254926   -1.4332904  0.031473027   -2.1254926    0.6922022   320585 
 9000000   0.41740693   -2.1243306   -2.1243306    -1.434026  0.025700215   -2.1243306   0.69030455   320467 
 9010000   0.41724379   -2.1257479   -2.1257479    -1.435459  0.030526544   -2.1257479   0.69028893   320349 
 9020000   0.41684865   -2.1214134   -2.1214134   -1.4315262  0.026443539   -2.1214134   0.68988717   320232 
 9030000   0.41663065   -2.1230505   -2.1230505     -1.43327  0.026919478   -2.1230505   0.68978055   320114 
 9040000   0.41562568   -2.1222629   -2.1222629   -1.4338946  0.030485281   -2.1222629    0.6883683   319997 
 9050000   0.41679655   -2.1236538   -2.1236538   -1.4330917  0.025757721   -2.1236538   0.69056217   319879 
 9060000   0.41677885   -2.1242056   -2.1242056   -1.4334179  0.034425538   -2.1242056   0.69078767   319761 
 9070000   0.41581508   -2.1257937   -2.1257937   -1.4363511   0.02867486   -2.1257937   0.68944254   319644 
 9080000   0.41626583   -2.1231941   -2.1231941   -1.4327494  0.027522309   -2.1231941   0.69044479   319526 
 9090000   0.41548726   -2.1204343   -2.1204343   -1.4310263  0.030685725   -2.1204343     0.689408   319408 
 9100000   0.41476632   -2.1210057   -2.1210057   -1.4325418  0.027699513   -2.1210057   0.68846395   319291 
 9110000   0.41664489   -2.1244646   -2.1244646   -1.4326267  0.025771857   -2.1244646   0.69183784   319173 
 9120000   0.41551251   -2.1257479   -2.1257479   -1.4355352   0.02335052   -2.1257479   0.69021269   319055 
 9130000    0.4147909   -2.1237061   -2.1237061   -1.4344393  0.025839425   -2.1237061   0.68926678   318938 
 9140000   0.41401702   -2.1228196   -2.1228196   -1.4345841  0.021603639   -2.1228196   0.68823544   318820 
 9150000   0.41444472   -2.1223531   -2.1223531   -1.4331516  0.025204843   -2.1223531   0.68920152   318702 
 9160000   0.41417417   -2.1224926   -2.1224926   -1.4334881  0.037139774   -2.1224926   0.68900453   318585 
 9170000   0.41395599   -2.1237635   -2.1237635   -1.4348668  0.027779521   -2.1237635   0.68889674   318467 
 9180000   0.41419813   -2.1188425   -2.1188425   -1.4292873  0.024873414   -2.1188425   0.68955521   318349 
 9190000   0.41398758   -2.1186693   -2.1186693   -1.4292112   0.02359029   -2.1186693   0.68945808   318232 
 9200000   0.41488506   -2.1179564   -2.1179564   -1.4267473  0.023371546   -2.1179564   0.69120904   318114 
 9210000   0.41378877   -2.1183512   -2.1183512   -1.4287149  0.024067378   -2.1183512   0.68963624   317997 
 9220000   0.41349544   -2.1170974   -2.1170974   -1.4276942  0.030094919   -2.1170974   0.68940318   317879 
 9230000   0.41369045   -2.1169875   -2.1169875   -1.4270031  0.028182583   -2.1169875   0.68998444   317761 
 9240000   0.41302881   -2.1147683   -2.1147683   -1.4256336  0.028571018   -2.1147683   0.68913466   317644 
 9250000   0.41254721   -2.1151528   -2.1151528   -1.4265659   0.02989861   -2.1151528   0.68858691   317526 
 9260000   0.41291965   -2.1170169   -2.1170169   -1.4275521  0.029178131   -2.1170169   0.68946476   317408 
 9270000   0.41224083   -2.1155149   -2.1155149   -1.4269298  0.032993621   -2.1155149   0.68858514   317291 
 9280000    0.4113548   -2.1118925   -2.1118925   -1.4245317  0.022318026   -2.1118925   0.68736079   317173 
 9290000   0.41206624   -2.1148197   -2.1148197   -1.4260139  0.027815536   -2.1148197   0.68880584   317055 
 9300000   0.41178767   -2.1138436   -2.1138436   -1.4252493   0.02931234   -2.1138436    0.6885943   316938 
 9310000   0.41229484   -2.1142799   -2.1142799   -1.4245807  0.027965051   -2.1142799   0.68969918   316820 
 9320000   0.41178156    -2.114335    -2.114335   -1.4252378  0.031888112    -2.114335    0.6890972   316702 
 9330000   0.41152283   -2.1127765   -2.1127765   -1.4238577  0.031129955   -2.1127765   0.68891873   316585 
 9340000   0.41098368   -2.1102314   -2.1102314   -1.4219586  0.029073795   -2.1102314    0.6882727   316467 
 9350000   0.41137882   -2.1113325   -2.1113325   -1.4221411  0.028368088   -2.1113325   0.68919141   316349 
 9360000   0.41102573   -2.1133912   -2.1133912   -1.4245365  0.030201283   -2.1133912   0.68885465   316232 
 9370000   0.41043706   -2.1138392   -2.1138392   -1.4257143  0.024264325   -2.1138392   0.68812484   316114 
 9380000   0.40984634   -2.1129563   -2.1129563   -1.4255674  0.035654167   -2.1129563   0.68738887   315997 
 9390000   0.41019284   -2.1130448   -2.1130448   -1.4248177   0.02828316   -2.1130448   0.68822702   315879 
 9400000   0.41040727   -2.1121679   -2.1121679   -1.4233237  0.025542954   -2.1121679   0.68884412   315761 
 9410000    0.4102012   -2.1114092   -2.1114092   -1.4226557  0.029360298   -2.1114092   0.68875345   315644 
 9420000    0.4091432   -2.1110152   -2.1110152   -1.4237813  0.022449222   -2.1110152   0.68723391   315526 
 9430000   0.40898538    -2.111041    -2.111041   -1.4238152  0.029506957    -2.111041   0.68722583   315408 
 9440000   0.40927418   -2.1105096   -2.1105096   -1.4225433  0.024958046   -2.1105096    0.6879663   315291 
 9450000   0.40833695   -2.1118589   -2.1118589    -1.425211  0.025699384   -2.1118589   0.68664786   315173 
 9460000   0.40882009   -2.1151037   -2.1151037   -1.4273859  0.028293012   -2.1151037   0.68771778   315055 
 9470000    0.4073288   -2.1132702   -2.1132702   -1.4278065  0.025680324   -2.1132702   0.68546368   314938 
 9480000   0.40893536    -2.114196    -2.114196   -1.4257708  0.029157988    -2.114196   0.68842518   314820 
 9490000   0.40857675   -2.1117035   -2.1117035   -1.4236241  0.026317932   -2.1117035   0.68807939   314702 
 9500000   0.40783986   -2.1084169   -2.1084169    -1.421323  0.030445679   -2.1084169   0.68709384   314585 
 9510000   0.40807351   -2.1064041   -2.1064041   -1.4186587  0.025417217   -2.1064041   0.68774545   314467 
 9520000   0.40828931   -2.1076328   -2.1076328   -1.4192654  0.030769049   -2.1076328   0.68836745   314349 
 9530000   0.40781755   -2.1087168   -2.1087168   -1.4208887  0.027385117   -2.1087168   0.68782808   314232 
 9540000   0.40676574   -2.1092297   -2.1092297   -1.4229179  0.021243849   -2.1092297    0.6863118   314114 
 9550000   0.40635562   -2.1104248   -2.1104248   -1.4245495  0.030015049   -2.1104248   0.68587531   313997 
 9560000    0.4075463   -2.1125551   -2.1125551   -1.4244115   0.02429706   -2.1125551   0.68814363   313879 
 9570000   0.40595471   -2.1076223   -2.1076223   -1.4219083  0.028928436   -2.1076223   0.68571401   313761 
 9580000    0.4057699   -2.1065743   -2.1065743   -1.4209168  0.024299634   -2.1065743   0.68565751   313644 
 9590000   0.40559552   -2.1072932   -2.1072932   -1.4216724  0.031298938   -2.1072932   0.68562081   313526 
 9600000   0.40554406   -2.1060486   -2.1060486   -1.4202567  0.030428337   -2.1060486   0.68579191   313408 
 9610000   0.40535326   -2.1038863   -2.1038863   -1.4181611  0.030076436   -2.1038863   0.68572526   313291 
 9620000   0.40531315   -2.1026122   -2.1026122   -1.4166964  0.028311949   -2.1026122   0.68591575   313173 
 9630000   0.40595827   -2.1006811   -2.1006811   -1.4134146  0.027123677   -2.1006811   0.68726646   313055 
 9640000   0.40675147   -2.1010373   -2.1010373   -1.4121705  0.026752042   -2.1010373   0.68886675   312938 
 9650000    0.4058158   -2.1034056   -2.1034056   -1.4158642  0.028457399   -2.1034056   0.68754137   312820 
 9660000   0.40497528   -2.1019655   -2.1019655   -1.4155892  0.029397253   -2.1019655   0.68637626   312702 
 9670000   0.40460899    -2.100574    -2.100574   -1.4145619  0.027734296    -2.100574   0.68601213   312585 
 9680000    0.4039941    -2.096903    -2.096903   -1.4116748  0.027174141    -2.096903   0.68522825   312467 
 9690000   0.40375567   -2.1016433   -2.1016433   -1.4165607  0.032100766   -2.1016433   0.68508257   312349 
 9700000     0.404165   -2.1044645   -2.1044645   -1.4184304  0.026034914   -2.1044645   0.68603407   312232 
 9710000   0.40375271   -2.1029581   -2.1029581   -1.4173647   0.02436949   -2.1029581   0.68559335   312114 
 9720000   0.40404735   -2.1016041   -2.1016041   -1.4152532  0.028065582   -2.1016041   0.68635096   311997 
 9730000   0.40390902   -2.0992681   -2.0992681   -1.4128925  0.019781017   -2.0992681   0.68637557   311879 
 9740000   0.40476544   -2.1009317   -2.1009317   -1.4128404   0.03308674   -2.1009317   0.68809125   311761 
 9750000   0.40457768   -2.1006303   -2.1006303      -1.4126  0.024951974   -2.1006303   0.68803027   311644 
 9760000   0.40372325   -2.1002051   -2.1002051   -1.4133678  0.028307117   -2.1002051   0.68683727   311526 
 9770000   0.40254023   -2.0978105   -2.0978105   -1.4127264  0.020714963   -2.0978105   0.68508415   311408 
 9780000    0.4028205   -2.0983273   -2.0983273   -1.4125085  0.025118361   -2.0983273   0.68581882   311291 
 9790000   0.40296425   -2.0997582   -2.0997582   -1.4134345   0.02401778   -2.0997582   0.68632371   311173 
 9800000   0.40272586   -2.1011008   -2.1011008   -1.4149229  0.030819531   -2.1011008   0.68617791   311055 
 9810000   0.40256165   -2.1017834   -2.1017834   -1.4156272  0.029714159   -2.1017834   0.68615621   310938 
 9820000   0.40175747   -2.0964868   -2.0964868   -1.4114413  0.028681482   -2.0964868   0.68504548   310820 
 9830000   0.40184435   -2.0945202   -2.0945202   -1.4090663  0.026543199   -2.0945202   0.68545384   310702 
 9840000   0.40198402   -2.0982801   -2.0982801   -1.4123297  0.027957531   -2.0982801   0.68595038   310585 
 9850000   0.40174869   -2.0969692   -2.0969692   -1.4111599  0.023437479   -2.0969692   0.68580939   310467 
 9860000   0.40187274   -2.0972003   -2.0972003   -1.4109183  0.030619996   -2.0972003   0.68628199   310349 
 9870000   0.40202596   -2.0967563   -2.0967563   -1.4099538  0.026220625   -2.0967563   0.68680255   310232 
 9880000   0.40219299   -2.0985626   -2.0985626   -1.4112132  0.025940617   -2.0985626   0.68734934   310114 
 9890000   0.40039268   -2.0964845   -2.0964845   -1.4119536  0.032607258   -2.0964845   0.68453086   309997 
 9900000   0.40007643   -2.0949427   -2.0949427    -1.410692  0.029919764   -2.0949427   0.68425065   309879 
 9910000    0.4013836   -2.0971811   -2.0971811   -1.4104333  0.028826033   -2.0971811   0.68674782   309761 
 9920000    0.3994694   -2.0932829   -2.0932829    -1.409552  0.028139477   -2.0932829   0.68373095   309644 
 9930000   0.39971074   -2.0958036   -2.0958036   -1.4113987  0.032203447   -2.0958036   0.68440486   309526 
 9940000   0.39886574   -2.0969453   -2.0969453   -1.4137268  0.027261897   -2.0969453   0.68321847   309408 
 9950000   0.39972608   -2.0968502   -2.0968502    -1.411899  0.032271937   -2.0968502   0.68495116   309291 
 9960000   0.39918756   -2.0955245   -2.0955245    -1.411235  0.033195106   -2.0955245   0.68428944   309173 
 9970000   0.39983429   -2.0952074   -2.0952074   -1.4095477  0.030795549   -2.0952074   0.68565975   309055 
 9980000   0.39878351   -2.0942815   -2.0942815   -1.4101647  0.026691884   -2.0942815    0.6841168   308938 
 9990000   0.39874564   -2.0959956   -2.0959956   -1.4116824  0.027619287   -2.0959956   0.68431321   308820 
10000000   0.39978686   -2.0968804   -2.0968804    -1.410518  0.024194015   -2.0968804   0.68636238   308702 
10010000   0.39756949   -2.0928076   -2.0928076   -1.4099933  0.026440285   -2.0928076   0.68281434   308585 
10020000   0.39654511   -2.0935903   -2.0935903   -1.4122748  0.027834449   -2.0935903   0.68131552   308467 
10030000   0.39852198    -2.097029    -2.097029    -1.412055  0.028042219    -2.097029   0.68497407   308349 
10040000    0.3973575   -2.0941662   -2.0941662   -1.4109344  0.022240489   -2.0941662   0.68323183   308232 
10050000   0.39795226    -2.094745    -2.094745   -1.4102285  0.031198036    -2.094745   0.68451653   308114 
10060000   0.39726408   -2.0945248   -2.0945248   -1.4109325  0.023704407   -2.0945248   0.68359238   307997 
10070000   0.39715019   -2.0942777   -2.0942777   -1.4106194  0.026614209   -2.0942777   0.68365832   307879 
10080000   0.39756956   -2.0933909   -2.0933909   -1.4087483  0.029487342   -2.0933909   0.68464263   307761 
10090000   0.39631392   -2.0924175   -2.0924175   -1.4096776  0.027034372   -2.0924175   0.68273988   307644 
10100000   0.39629575   -2.0922816   -2.0922816   -1.4093111  0.023918872   -2.0922816   0.68297054   307526 
10110000   0.39702263    -2.094481    -2.094481   -1.4099951  0.028018941    -2.094481   0.68448588   307408 
10120000   0.39628782     -2.09383     -2.09383   -1.4103509  0.020174405     -2.09383   0.68347917   307291 
10130000   0.39603826   -2.0937667   -2.0937667   -1.4104555  0.030891157   -2.0937667   0.68331113   307173 
10140000   0.39485439   -2.0919781   -2.0919781   -1.4104478  0.016488609   -2.0919781   0.68153034   307055 
10150000   0.39542747   -2.0913407   -2.0913407   -1.4085611  0.027579887   -2.0913407   0.68277966   306938 
10160000   0.39500849    -2.092582    -2.092582   -1.4102634   0.03277326    -2.092582   0.68231853   306820 
10170000     0.394606   -2.0921776   -2.0921776    -1.410292  0.030067482   -2.0921776   0.68188553   306702 
10180000   0.39485605   -2.0916062   -2.0916062   -1.4090282  0.025844984   -2.0916062   0.68257801   306585 
10190000   0.39428444   -2.0917059   -2.0917059   -1.4098536  0.027238175   -2.0917059   0.68185231   306467 
10200000   0.39488214   -2.0934162   -2.0934162   -1.4102673  0.028553718   -2.0934162   0.68314897   306349 
10210000   0.39349654   -2.0899941   -2.0899941   -1.4089822  0.029189445   -2.0899941   0.68101196   306232 
10220000   0.39500759   -2.0926269   -2.0926269   -1.4087363   0.03176716   -2.0926269   0.68389062   306114 
10230000   0.39403882    -2.092049    -2.092049   -1.4095748  0.028678915    -2.092049    0.6824742   305997 
10240000    0.3933866   -2.0893316   -2.0893316   -1.4077242  0.023385659   -2.0893316   0.68160741   305879 
10250000   0.39336732   -2.0897517   -2.0897517   -1.4079147  0.025841711   -2.0897517   0.68183703   305761 
10260000   0.39364728   -2.0907738   -2.0907738   -1.4081904  0.026694994   -2.0907738   0.68258348   305644 
10270000   0.39368009   -2.0906324   -2.0906324   -1.4077283  0.020322878   -2.0906324   0.68290404   305526 
10280000   0.39311835   -2.0896483   -2.0896483   -1.4074552  0.023993562   -2.0896483   0.68219308   305408 
10290000   0.39305594   -2.0896809   -2.0896809   -1.4073347  0.021181926   -2.0896809   0.68234617   305291 
10300000   0.39199723   -2.0862892   -2.0862892   -1.4055178  0.024423137   -2.0862892   0.68077139   305173 
10310000   0.39303213   -2.0881146   -2.0881146    -1.405282  0.028900074   -2.0881146    0.6828327   305055 
10320000   0.39135541   -2.0868909   -2.0868909   -1.4067103  0.024579653   -2.0868909   0.68018052   304938 
10330000   0.39156925   -2.0873824   -2.0873824   -1.4065668  0.027793813   -2.0873824   0.68081563   304820 
10340000   0.39213793   -2.0886919   -2.0886919   -1.4066235  0.024449663   -2.0886919   0.68206842   304702 
10350000   0.39249654   -2.0892504   -2.0892504    -1.406296   0.02746501   -2.0892504   0.68295442   304585 
10360000   0.39082554   -2.0861051   -2.0861051   -1.4057947  0.027488394   -2.0861051   0.68031039   304467 
10370000   0.39115095   -2.0858471   -2.0858471   -1.4047063  0.029912009   -2.0858471   0.68114083   304349 
10380000    0.3905417   -2.0865054   -2.0865054    -1.406164  0.022836973   -2.0865054   0.68034142   304232 
10390000   0.39111381   -2.0870298   -2.0870298   -1.4054273  0.026835424   -2.0870298   0.68160244   304114 
10400000   0.39071969   -2.0881032   -2.0881032   -1.4069255  0.036771295   -2.0881032   0.68117766   303997 
10410000   0.39033223   -2.0867728   -2.0867728   -1.4060064  0.028987007   -2.0867728   0.68076642   303879 
10420000   0.38966281   -2.0861381   -2.0861381   -1.4062752  0.031330984   -2.0861381    0.6798629   303761 
10430000   0.38909418   -2.0857133   -2.0857133    -1.406581  0.025528639   -2.0857133   0.67913236   303644 
10440000   0.38987164   -2.0852407   -2.0852407   -1.4044868  0.030327281   -2.0852407   0.68075391   303526 
10450000   0.39021723   -2.0837958   -2.0837958   -1.4021735  0.024898738   -2.0837958   0.68162233   303408 
10460000   0.38887505   -2.0827183   -2.0827183   -1.4031784   0.02895735   -2.0827183   0.67953989   303291 
10470000   0.38922381   -2.0867014   -2.0867014   -1.4062874  0.030307854   -2.0867014   0.68041406   303173 
10480000   0.38853653   -2.0848063   -2.0848063   -1.4053292  0.029371059   -2.0848063   0.67947706   303055 
10490000   0.38819515   -2.0866598   -2.0866598   -1.4075176  0.026889556   -2.0866598   0.67914225   302938 
10500000   0.38823782   -2.0864854   -2.0864854   -1.4070039  0.032593552   -2.0864854   0.67948157   302820 
10510000   0.38800605   -2.0818484   -2.0818484   -1.4025078  0.030679311   -2.0818484   0.67934064   302702 
10520000   0.38793104   -2.0833109   -2.0833109   -1.4038389  0.027212107   -2.0833109   0.67947195   302585 
10530000   0.38780623   -2.0838808   -2.0838808   -1.4043625  0.027196657   -2.0838808   0.67951834   302467 
10540000   0.38752471   -2.0773132   -2.0773132   -1.3980232  0.026883227   -2.0773132   0.67929007   302349 
10550000   0.38780598   -2.0814035   -2.0814035   -1.4013573  0.026239936   -2.0814035   0.68004625   302232 
10560000   0.38659565   -2.0813141   -2.0813141   -1.4031255  0.028328641   -2.0813141   0.67818864   302114 
10570000   0.38655278   -2.0808585   -2.0808585   -1.4024824  0.028761063   -2.0808585   0.67837615   301997 
10580000   0.38626816   -2.0780081   -2.0780081   -1.3998664  0.029543418   -2.0780081   0.67814163   301879 
10590000   0.38738831   -2.0839721   -2.0839721   -1.4035979  0.026774027   -2.0839721   0.68037413   301761 
10600000    0.3865122   -2.0810509   -2.0810509   -1.4019522  0.028706503   -2.0810509   0.67909873   301644 
10610000   0.38595079   -2.0813672   -2.0813672   -1.4029895  0.025826693   -2.0813672    0.6783777   301526 
10620000   0.38575287   -2.0794928   -2.0794928   -1.4011976  0.024600052   -2.0794928   0.67829527   301408 
10630000   0.38589029   -2.0807012   -2.0807012   -1.4019008  0.029397093   -2.0807012    0.6788004   301291 
10640000   0.38493904   -2.0799191   -2.0799191   -1.4025267  0.030539876   -2.0799191    0.6773924   301173 
10650000   0.38512029   -2.0788259   -2.0788259   -1.4008489  0.027196824   -2.0788259   0.67797699   301055 
10660000    0.3851489   -2.0780136   -2.0780136   -1.3997226  0.025656601   -2.0780136   0.67829096   300938 
10670000   0.38618479   -2.0811538   -2.0811538   -1.4007717  0.031734282   -2.0811538   0.68038207   300820 
10680000    0.3838146   -2.0785289   -2.0785289   -1.4020573  0.028655178   -2.0785289    0.6764716   300702 
10690000   0.38526289   -2.0811388   -2.0811388   -1.4018503  0.023789372   -2.0811388   0.67928851   300585 
10700000    0.3826548   -2.0818078   -2.0818078   -1.4068529   0.02809003   -2.0818078   0.67495494   300467 
10710000   0.38316841   -2.0785545   -2.0785545   -1.4024281  0.022778776   -2.0785545   0.67612642   300349 
10720000   0.38461588   -2.0802393   -2.0802393   -1.4012942  0.028580474   -2.0802393   0.67894506   300232 
10730000   0.38350202   -2.0814114   -2.0814114   -1.4041664  0.028183988   -2.0814114   0.67724499   300114 
10740000   0.38343759   -2.0796529   -2.0796529   -1.4022576  0.028233247   -2.0796529   0.67739529   299997 
10750000   0.38402564   -2.0808388   -2.0808388   -1.4021377  0.025850856   -2.0808388   0.67870111   299879 
10760000   0.38320132   -2.0809329   -2.0809329    -1.403422  0.022623168   -2.0809329   0.67751087   299761 
10770000   0.38233996    -2.082784    -2.082784   -1.4065321  0.027583375    -2.082784    0.6762519   299644 
10780000   0.38204774   -2.0800673   -2.0800673    -1.404066  0.029612147   -2.0800673   0.67600126   299526 
10790000   0.38196962   -2.0797017   -2.0797017   -1.4035724  0.026113489   -2.0797017   0.67612939   299408 
10800000   0.38217917   -2.0810647   -2.0810647   -1.4042999  0.031267017   -2.0810647   0.67676479   299291 
10810000    0.3811806   -2.0789815   -2.0789815   -1.4037188  0.027623549   -2.0789815   0.67526274   299173 
10820000   0.38113974   -2.0811261   -2.0811261   -1.4056693  0.025967461   -2.0811261   0.67545677   299055 
10830000   0.38142561   -2.0812339   -2.0812339   -1.4050059  0.023855656   -2.0812339   0.67622796   298938 
10840000     0.380085   -2.0776495   -2.0776495   -1.4035322  0.026589632   -2.0776495   0.67411729   298820 
10850000   0.38202698    -2.082064    -2.082064   -1.4042348  0.031779068    -2.082064   0.67782924   298702 
10860000   0.38108287   -2.0816125   -2.0816125   -1.4051934  0.023911933   -2.0816125   0.67641906   298585 
10870000   0.38054224   -2.0822242   -2.0822242   -1.4064978  0.034780583   -2.0822242    0.6757265   298467 
10880000   0.38029751   -2.0783243   -2.0783243   -1.4027652  0.023282392   -2.0783243   0.67555902   298349 
10890000    0.3802437   -2.0798753   -2.0798753   -1.4041469  0.022370133   -2.0798753   0.67572841   298232 
10900000   0.37907929   -2.0783768   -2.0783768    -1.404451  0.033969929   -2.0783768    0.6739258   298114 
10910000   0.37982475   -2.0783482   -2.0783482    -1.402832  0.026966638   -2.0783482    0.6755162   297997 
10920000   0.37869286   -2.0759929   -2.0759929    -1.402223   0.02549151   -2.0759929   0.67376993   297879 
10930000   0.37985858   -2.0787299   -2.0787299   -1.4026181  0.026689995   -2.0787299   0.67611182   297761 
10940000   0.37939637   -2.0783497   -2.0783497   -1.4027952  0.027391308   -2.0783497   0.67555457   297644 
10950000   0.37798212   -2.0781723   -2.0781723   -1.4048691  0.031128123   -2.0781723   0.67330328   297526 
10960000   0.37840729   -2.0786707   -2.0786707   -1.4043426  0.022101283   -2.0786707   0.67432809   297408 
10970000   0.37823078   -2.0748033   -2.0748033   -1.4005245  0.028926168   -2.0748033    0.6742788   297291 
10980000   0.37825098   -2.0751365   -2.0751365   -1.4005539  0.028246347   -2.0751365   0.67458257   297173 
10990000   0.37843202   -2.0764012   -2.0764012   -1.4012277  0.029898901   -2.0764012   0.67517354   297055 
11000000   0.37759915    -2.074177    -2.074177    -1.400224  0.031605902    -2.074177   0.67395302   296938 
11010000   0.37786848   -2.0729988   -2.0729988    -1.398297  0.022598041   -2.0729988   0.67470185   296820 
11020000   0.37706981   -2.0710926   -2.0710926    -1.397549  0.027145117   -2.0710926   0.67354356   296702 
11030000   0.37802478    -2.075648    -2.075648   -1.4001322  0.032705798    -2.075648   0.67551576   296585 
11040000   0.37690527   -2.0745346   -2.0745346   -1.4007513  0.019923676   -2.0745346   0.67378332   296467 
11050000   0.37716913   -2.0753385   -2.0753385    -1.400815  0.029188752   -2.0753385   0.67452348   296349 
11060000   0.37656882   -2.0736276   -2.0736276   -1.3999117  0.026556138   -2.0736276   0.67371588   296232 
11070000   0.37776766   -2.0727412   -2.0727412   -1.3966111  0.029319854   -2.0727412   0.67613005   296114 
11080000   0.37684867   -2.0738244   -2.0738244   -1.3990726  0.020445101   -2.0738244   0.67475183   295997 
11090000   0.37607063   -2.0750941   -2.0750941   -1.4014668  0.022067822   -2.0750941   0.67362729   295879 
11100000    0.3755507   -2.0727788   -2.0727788   -1.3998145  0.026241142   -2.0727788   0.67296437   295761 
11110000   0.37622703   -2.0734417   -2.0734417   -1.3989986  0.027433806   -2.0734417    0.6744431   295644 
11120000    0.3748825   -2.0726625   -2.0726625   -1.4003613  0.023632467   -2.0726625   0.67230117   295526 
11130000   0.37586338   -2.0722284   -2.0722284   -1.3978989  0.027698261   -2.0722284    0.6743295   295408 
11140000   0.37641996   -2.0727625   -2.0727625   -1.3971669  0.029317276   -2.0727625   0.67559562   295291 
11150000   0.37494043   -2.0698198   -2.0698198   -1.3966106  0.021477348   -2.0698198    0.6732092   295173 
11160000   0.37433937   -2.0671732   -2.0671732   -1.3947744  0.025340066   -2.0671732   0.67239879   295055 
11170000   0.37482335   -2.0688591   -2.0688591   -1.3953239  0.025048674   -2.0688591   0.67353522   294938 
11180000   0.37406457   -2.0674207   -2.0674207     -1.39498  0.030405346   -2.0674207   0.67244076   294820 
11190000   0.37509523   -2.0684483   -2.0684483   -1.3938848  0.031758604   -2.0684483   0.67456353   294702 
11200000   0.37443036   -2.0667995   -2.0667995   -1.3931643  0.026172817   -2.0667995   0.67363529   294585 
11210000   0.37397007   -2.0686673   -2.0686673   -1.3955906  0.029870117   -2.0686673   0.67307679   294467 
11220000   0.37297898   -2.0668809   -2.0668809   -1.3953188  0.029922365   -2.0668809   0.67156213   294349 
11230000   0.37338694   -2.0674387   -2.0674387   -1.3948747  0.026042702   -2.0674387     0.672564   294232 
11240000   0.37385949   -2.0675054   -2.0675054     -1.39382   0.03514673   -2.0675054   0.67368535   294114 
11250000   0.37384602   -2.0681756   -2.0681756   -1.3942464  0.026819458   -2.0681756   0.67392918   293997 
11260000   0.37393198   -2.0653712   -2.0653712   -1.3910164  0.027355283   -2.0653712    0.6743548   293879 
11270000   0.37247611   -2.0643321   -2.0643321    -1.392333  0.024216691   -2.0643321   0.67199908   293761 
11280000    0.3734784   -2.0637695   -2.0637695   -1.3896936  0.026748583   -2.0637695   0.67407583   293644 
11290000   0.37222926   -2.0628717   -2.0628717   -1.3907803   0.02430418   -2.0628717   0.67209138   293526 
11300000    0.3725149   -2.0630929   -2.0630929   -1.3902153  0.023327668   -2.0630929   0.67287764   293408 
11310000   0.37184282   -2.0625125   -2.0625125   -1.3905809  0.024240046   -2.0625125   0.67193159   293291 
11320000   0.37061028   -2.0628642   -2.0628642   -1.3928903  0.022500346   -2.0628642   0.66997391   293173 
11330000   0.37164844   -2.0631769   -2.0631769   -1.3910557  0.026179309   -2.0631769   0.67212118   293055 
11340000   0.37071646   -2.0615161   -2.0615161   -1.3908126  0.027142166   -2.0615161   0.67070347   292938 
11350000   0.37189209     -2.06384     -2.06384   -1.3907385  0.031424854     -2.06384   0.67310156   292820 
11360000   0.37089614   -2.0600349   -2.0600349   -1.3884653  0.025952047   -2.0600349   0.67156958   292702 
11370000   0.37010958   -2.0615377   -2.0615377   -1.3911243  0.026544718   -2.0615377   0.67041336   292585 
11380000   0.37026475   -2.0606087   -2.0606087   -1.3896436  0.026918637   -2.0606087   0.67096505   292467 
11390000   0.37087773   -2.0628704   -2.0628704   -1.3905233  0.028560083   -2.0628704   0.67234711   292349 
11400000    0.3710061   -2.0592874   -2.0592874   -1.3864383  0.022914893   -2.0592874   0.67284911   292232 
11410000    0.3696822    -2.059574    -2.059574    -1.388855  0.030831417    -2.059574   0.67071894   292114 
11420000   0.37011689   -2.0620623   -2.0620623   -1.3902857  0.024888569   -2.0620623   0.67177667   291997 
11430000   0.36919287   -2.0628728   -2.0628728   -1.3925024  0.027017329   -2.0628728   0.67037044   291879 
11440000   0.36953344   -2.0626002   -2.0626002     -1.39134  0.031796199   -2.0626002   0.67126021   291761 
11450000   0.36873514   -2.0617051   -2.0617051   -1.3916263  0.026528089   -2.0617051    0.6700788   291644 
11460000   0.36895572   -2.0625935   -2.0625935   -1.3918425  0.027351071   -2.0625935   0.67075103   291526 
11470000   0.36789604   -2.0607066   -2.0607066   -1.3916112  0.030441677   -2.0607066    0.6690954   291408 
11480000   0.36920337    -2.058356    -2.058356   -1.3866133  0.023236884    -2.058356   0.67174276   291291 
11490000   0.36774885     -2.05638     -2.05638   -1.3870125  0.028193246     -2.05638    0.6693675   291173 
11500000   0.36984644   -2.0593392   -2.0593392   -1.3858808   0.03004275   -2.0593392    0.6734584   291055 
11510000   0.36925356   -2.0555123   -2.0555123   -1.3828631  0.022288211   -2.0555123   0.67264922   290938 
11520000   0.36905181   -2.0560603   -2.0560603   -1.3835059   0.02728643   -2.0560603   0.67255447   290820 
11530000   0.36854576   -2.0555048   -2.0555048   -1.3835999  0.031304436   -2.0555048   0.67190488   290702 
11540000   0.36774913   -2.0515027   -2.0515027   -1.3807803  0.027168895   -2.0515027   0.67072247   290585 
11550000   0.36873393   -2.0536219   -2.0536219   -1.3808301  0.025306515   -2.0536219   0.67279182   290467 
11560000   0.36780338   -2.0537824   -2.0537824   -1.3824157  0.031231941   -2.0537824   0.67136668   290349 
11570000   0.36768472   -2.0563799   -2.0563799   -1.3849593  0.023092287   -2.0563799   0.67142064   290232 
11580000   0.36693033    -2.055077    -2.055077   -1.3847614  0.029394449    -2.055077    0.6703156   290114 
11590000    0.3667376   -2.0527564   -2.0527564   -1.3825226  0.034753104   -2.0527564   0.67023381   289997 
11600000   0.36568571   -2.0548211   -2.0548211   -1.3862377  0.020486072   -2.0548211   0.66858347   289879 
11610000   0.36661051   -2.0554475   -2.0554475   -1.3849003  0.029080144   -2.0554475   0.67054723   289761 
11620000   0.36691009   -2.0551443   -2.0551443   -1.3837781  0.024930215   -2.0551443   0.67136627   289644 
11630000   0.36663708   -2.0552432   -2.0552432   -1.3841031  0.024034429   -2.0552432   0.67114014   289526 
11640000   0.36541969   -2.0537396   -2.0537396   -1.3845552  0.027771724   -2.0537396    0.6691844   289408 
11650000   0.36556664   -2.0537084   -2.0537084   -1.3839842  0.028511267   -2.0537084   0.66972426   289291 
11660000   0.36606471   -2.0570557   -2.0570557   -1.3861453  0.023294618   -2.0570557    0.6709104   289173 
11670000   0.36552765   -2.0555519   -2.0555519   -1.3853523  0.028314714   -2.0555519   0.67019958   289055 
11680000   0.36382305   -2.0537196   -2.0537196   -1.3863753  0.033593757   -2.0537196   0.66734428   288938 
11690000   0.36471027   -2.0555665   -2.0555665   -1.3863215  0.029580605   -2.0555665   0.66924499   288820 
11700000   0.36480881   -2.0539559   -2.0539559   -1.3842565  0.029346224   -2.0539559   0.66969941   288702 
11710000    0.3648906   -2.0533701   -2.0533701   -1.3832489  0.028008425   -2.0533701   0.67012115   288585 
11720000   0.36349385   -2.0550761   -2.0550761    -1.387247  0.023796491   -2.0550761   0.66782908   288467 
11730000   0.36437625   -2.0543737   -2.0543737   -1.3846495   0.02792428   -2.0543737   0.66972422   288349 
11740000   0.36296672   -2.0517353   -2.0517353    -1.384331  0.022330214   -2.0517353   0.66740432   288232 
11750000   0.36399056   -2.0504749   -2.0504749   -1.3809139  0.026903168   -2.0504749   0.66956101   288114 
11760000   0.36221463    -2.047558    -2.047558   -1.3809931  0.026151533    -2.047558   0.66656486   287997 
11770000   0.36347927   -2.0523316   -2.0523316   -1.3831653  0.030524252   -2.0523316    0.6691663   287879 
11780000   0.36288368    -2.050541    -2.050541   -1.3821973  0.028947564    -2.050541   0.66834376   287761 
11790000   0.36262273   -2.0478571   -2.0478571   -1.3797223  0.029900351   -2.0478571   0.66813482   287644 
11800000   0.36318223   -2.0483543   -2.0483543    -1.378914  0.022412636   -2.0483543   0.66944032   287526 
11810000   0.36261949   -2.0483161   -2.0483161   -1.3796387  0.030899105   -2.0483161   0.66867747   287408 
11820000   0.36227237   -2.0502461   -2.0502461   -1.3819367   0.02546831   -2.0502461   0.66830942   287291 
11830000    0.3627984   -2.0506248   -2.0506248   -1.3810699  0.028152134   -2.0506248   0.66955484   287173 
11840000   0.36347683   -2.0516659   -2.0516659   -1.3805832  0.024944577   -2.0516659   0.67108266   287055 
11850000   0.36132705   -2.0484914   -2.0484914   -1.3811058  0.030018425   -2.0484914   0.66738555   286938 
11860000   0.36127698   -2.0484969   -2.0484969   -1.3809293  0.024170465   -2.0484969    0.6675676   286820 
11870000   0.36215842   -2.0505016   -2.0505016   -1.3810299   0.02542517   -2.0505016   0.66947176   286702 
11880000    0.3628256   -2.0517176   -2.0517176   -1.3807387  0.028058963   -2.0517176   0.67097891   286585 
11890000   0.36033213   -2.0456834   -2.0456834   -1.3790412  0.027883237   -2.0456834   0.66664218   286467 
11900000   0.36065313   -2.0483658   -2.0483658   -1.3808548  0.032089438   -2.0483658   0.66751102   286349 
11910000   0.36086582   -2.0488966   -2.0488966   -1.3807189  0.022941529   -2.0488966   0.66817768   286232 
11920000   0.36141844   -2.0471328   -2.0471328   -1.3776559  0.028183333   -2.0471328    0.6694769   286114 
11930000   0.36045512   -2.0434545   -2.0434545   -1.3754889  0.025103927   -2.0434545   0.66796563   285997 
11940000   0.36005027    -2.046385    -2.046385   -1.3788942  0.026216342    -2.046385    0.6674908   285879 
11950000   0.36037421   -2.0476234   -2.0476234   -1.3792562  0.031378372   -2.0476234   0.66836723   285761 
11960000    0.3592155   -2.0433262   -2.0433262   -1.3768351  0.024510218   -2.0433262   0.66649111   285644 
11970000   0.35922737   -2.0454302   -2.0454302   -1.3786417  0.028704024   -2.0454302   0.66678858   285526 
11980000     0.359774     -2.04442     -2.04442   -1.3763406  0.025159361     -2.04442   0.66807933   285408 
11990000   0.35940679    -2.042239    -2.042239   -1.3745679  0.035171772    -2.042239   0.66767114   285291 
12000000     0.359444    -2.044748    -2.044748   -1.3767314  0.023934494    -2.044748   0.66801657   285173 
12010000    0.3590332   -2.0423304   -2.0423304   -1.3748011  0.026697858   -2.0423304   0.66752931   285055 
12020000   0.35778711   -2.0398116   -2.0398116   -1.3743259  0.025815102   -2.0398116   0.66548568   284938 
12030000   0.35947592   -2.0422375   -2.0422375   -1.3733337  0.031977097   -2.0422375   0.66890388   284820 
12040000   0.35772421   -2.0411991   -2.0411991   -1.3752789  0.027939353   -2.0411991   0.66592024   284702 
12050000   0.35777085   -2.0408083   -2.0408083   -1.3745274  0.028982998   -2.0408083   0.66628086   284585 
12060000   0.35871536   -2.0386194   -2.0386194   -1.3703024   0.02174838   -2.0386194   0.66831695   284467 
12070000   0.35910045   -2.0391471   -2.0391471    -1.369835   0.03350194   -2.0391471   0.66931204   284349 
12080000   0.35779605   -2.0373003   -2.0373003   -1.3701449  0.026378822   -2.0373003   0.66715535   284232 
12090000   0.35834098   -2.0379861   -2.0379861   -1.3695372  0.031648378   -2.0379861   0.66844895   284114 
12100000   0.35719911   -2.0368121   -2.0368121   -1.3702186  0.029869931   -2.0368121   0.66659341   283997 
12110000   0.35737059   -2.0389147   -2.0389147   -1.3717241  0.031433727   -2.0389147   0.66719064   283879 
12120000   0.35639049   -2.0335135   -2.0335135   -1.3678759  0.030227671   -2.0335135   0.66563752   283761 
12130000   0.35831236    -2.036597    -2.036597   -1.3670939  0.021590956    -2.036597   0.66950309   283644 
12140000   0.35772793   -2.0344484   -2.0344484   -1.3657592  0.015953356   -2.0344484   0.66868927   283526 
12150000   0.35722589    -2.032609    -2.032609   -1.3645801  0.024060374    -2.032609   0.66802885   283408 
12160000   0.35680511   -2.0347387   -2.0347387   -1.3672211  0.032483152   -2.0347387   0.66751754   283291 
12170000   0.35640691   -2.0343005   -2.0343005     -1.36725   0.02700166   -2.0343005   0.66705044   283173 
12180000   0.35531412   -2.0324406   -2.0324406   -1.3671582  0.027621351   -2.0324406   0.66528239   283055 
12190000   0.35640916   -2.0329857   -2.0329857   -1.3653771  0.027821985   -2.0329857   0.66760869   282938 
12200000   0.35646964   -2.0327603   -2.0327603   -1.3647597  0.027624413   -2.0327603   0.66800056   282820 
12210000   0.35576136   -2.0328558   -2.0328558   -1.3659043  0.025206749   -2.0328558   0.66695156   282702 
12220000   0.35593942   -2.0306558   -2.0306558   -1.3630941  0.032085328   -2.0306558   0.66756165   282585 
12230000   0.35639929   -2.0324888   -2.0324888   -1.3637854  0.029992404   -2.0324888   0.66870337   282467 
12240000   0.35478906   -2.0284698   -2.0284698   -1.3625095  0.028430428   -2.0284698   0.66596033   282349 
12250000   0.35445205   -2.0313528   -2.0313528   -1.3657492  0.027937729   -2.0313528   0.66560357   282232 
12260000    0.3540008   -2.0309899   -2.0309899   -1.3659557  0.026014631   -2.0309899   0.66503423   282114 
12270000     0.354307   -2.0324815   -2.0324815   -1.3665959  0.020632726   -2.0324815   0.66588562   281997 
12280000   0.35351022   -2.0303166   -2.0303166   -1.3656503  0.028589983   -2.0303166   0.66466628   281879 
12290000    0.3532896   -2.0297278   -2.0297278   -1.3651981  0.020201001   -2.0297278   0.66452967   281761 
12300000   0.35253029   -2.0265299   -2.0265299   -1.3631531   0.02759965   -2.0265299   0.66337688   281644 
12310000   0.35352382   -2.0314663   -2.0314663    -1.365941   0.02487199   -2.0314663    0.6655253   281526 
12320000   0.35325666    -2.027911    -2.027911   -1.3626098   0.02710427    -2.027911   0.66530122   281408 
12330000   0.35287653   -2.0273907   -2.0273907    -1.362529    0.0197068   -2.0273907   0.66486173   281291 
12340000   0.35321048   -2.0305817   -2.0305817   -1.3648115   0.02491146   -2.0305817   0.66577021   281173 
12350000   0.35162455   -2.0284202   -2.0284202   -1.3653611   0.02596865   -2.0284202   0.66305915   281055 
12360000   0.35177124   -2.0287998   -2.0287998   -1.3651878  0.024620528   -2.0287998   0.66361201   280938 
12370000   0.35237502   -2.0254659   -2.0254659   -1.3604355  0.026995085   -2.0254659   0.66503037   280820 
12380000     0.353067   -2.0282947   -2.0282947   -1.3616783  0.036749206   -2.0282947   0.66661645   280702 
12390000   0.35188218   -2.0278684   -2.0278684    -1.363212  0.026983676   -2.0278684   0.66465644   280585 
12400000   0.35055626   -2.0269761   -2.0269761   -1.3645456  0.024587866   -2.0269761   0.66243056   280467 
12410000   0.35049923   -2.0260071   -2.0260071   -1.3634056  0.024715933   -2.0260071   0.66260156   280349 
12420000   0.35097388   -2.0250352   -2.0250352   -1.3612593  0.027980812   -2.0250352   0.66377588   280232 
12430000   0.35126747   -2.0273676   -2.0273676   -1.3627566  0.026413306   -2.0273676   0.66461098   280114 
12440000   0.35180853   -2.0312472   -2.0312472   -1.3653344  0.026587653   -2.0312472   0.66591283   279997 
12450000   0.34999364   -2.0254583   -2.0254583   -1.3627014   0.01611686   -2.0254583   0.66275688   279879 
12460000   0.35085039   -2.0252285   -2.0252285    -1.360569  0.025573264   -2.0252285   0.66465945   279761 
12470000   0.35057938   -2.0237009   -2.0237009    -1.359277  0.029153424   -2.0237009   0.66442392   279644 
12480000   0.35038903   -2.0238788   -2.0238788   -1.3595353  0.028140765   -2.0238788    0.6643435   279526 
12490000   0.35081663   -2.0263167   -2.0263167   -1.3608816  0.028840898   -2.0263167   0.66543513   279408 
12500000   0.34989122   -2.0230006   -2.0230006   -1.3590428  0.028376939   -2.0230006   0.66395783   279291 
12510000   0.34914804   -2.0246024   -2.0246024   -1.3617748  0.030224857   -2.0246024    0.6628276   279173 
12520000   0.34911312   -2.0227839   -2.0227839   -1.3597423  0.030222355   -2.0227839   0.66304158   279055 
12530000   0.34968773   -2.0249107   -2.0249107   -1.3604993  0.023466695   -2.0249107   0.66441145   278938 
12540000   0.34887712   -2.0245434   -2.0245434   -1.3613916  0.026262324   -2.0245434   0.66315182   278820 
12550000   0.34815209   -2.0245795   -2.0245795   -1.3625257  0.029514514   -2.0245795   0.66205386   278702 
12560000   0.34804314    -2.021145    -2.021145   -1.3590203  0.024899605    -2.021145   0.66212463   278585 
12570000   0.34820975   -2.0193583   -2.0193583    -1.356636  0.026024127   -2.0193583   0.66272231   278467 
12580000   0.34775948   -2.0191318   -2.0191318   -1.3569859   0.02997685   -2.0191318   0.66214592   278349 
12590000   0.34607983   -2.0189821   -2.0189821   -1.3597572  0.025049812   -2.0189821   0.65922491   278232 
12600000   0.34774974     -2.02344     -2.02344   -1.3607531  0.023791653     -2.02344   0.66268687   278114 
12610000   0.34673938   -2.0186736   -2.0186736    -1.357634  0.026750088   -2.0186736   0.66103956   277997 
12620000   0.34702367   -2.0187867   -2.0187867   -1.3569242   0.02902744   -2.0187867   0.66186249   277879 
12630000   0.34595003   -2.0208689   -2.0208689   -1.3607738  0.030025923   -2.0208689    0.6600951   277761 
12640000   0.34528575   -2.0177216   -2.0177216   -1.3586164  0.022882195   -2.0177216   0.65910524   277644 
12650000   0.34713553   -2.0205788   -2.0205788   -1.3576608  0.028196524   -2.0205788   0.66291797   277526 
12660000    0.3454346    -2.018415    -2.018415   -1.3584647  0.029984688    -2.018415   0.65995033   277408 
12670000   0.34606479   -2.0189812   -2.0189812    -1.357548  0.030611493   -2.0189812   0.66143327   277291 
12680000   0.34677228   -2.0187714   -2.0187714   -1.3557037  0.029529093   -2.0187714   0.66306766   277173 
12690000   0.34598321   -2.0186085   -2.0186085   -1.3567678  0.025424337   -2.0186085   0.66184064   277055 
12700000   0.34578672   -2.0191312   -2.0191312    -1.357387  0.025989773   -2.0191312   0.66174421   276938 
12710000   0.34537451   -2.0185169   -2.0185169   -1.3572798  0.028025796   -2.0185169    0.6612371   276820 
12720000   0.34488888    -2.018682    -2.018682   -1.3580931  0.030507448    -2.018682   0.66058892   276702 
12730000   0.34527685   -2.0178982   -2.0178982   -1.3562864  0.030301839   -2.0178982   0.66161179   276585 
12740000   0.34514466   -2.0168751   -2.0168751   -1.3552343   0.02086567   -2.0168751   0.66164077   276467 
12750000   0.34550534    -2.018364    -2.018364    -1.355749  0.026394637    -2.018364   0.66261501   276349 
12760000   0.34386181   -2.0139817   -2.0139817   -1.3542394  0.021367944   -2.0139817   0.65974234   276232 
12770000   0.34481005   -2.0185251   -2.0185251   -1.3566807  0.025025081   -2.0185251   0.66184438   276114 
12780000   0.34340508   -2.0166655   -2.0166655   -1.3572385  0.021891169   -2.0166655   0.65942705   275997 
12790000   0.34352993   -2.0176722   -2.0176722   -1.3577233   0.02381091   -2.0176722   0.65994894   275879 
12800000   0.34297901   -2.0147552   -2.0147552   -1.3555827  0.032601343   -2.0147552   0.65917253   275761 
12810000   0.34325642   -2.0145684   -2.0145684   -1.3545827  0.027964017   -2.0145684   0.65998569   275644 
12820000   0.34349568   -2.0200828   -2.0200828   -1.3593542  0.032590841   -2.0200828   0.66072858   275526 
12830000    0.3418272   -2.0147308   -2.0147308   -1.3569299  0.022918117   -2.0147308   0.65780091   275408 
12840000    0.3428537   -2.0174904   -2.0174904   -1.3574338  0.031486076   -2.0174904   0.66005668   275291 
12850000   0.34263509   -2.0173716   -2.0173716   -1.3574529  0.027595579   -2.0173716   0.65991867   275173 
12860000   0.34230068   -2.0172717   -2.0172717   -1.3577143  0.032863644   -2.0172717   0.65955742   275055 
12870000   0.34263035   -2.0173286   -2.0173286    -1.356855  0.026081962   -2.0173286   0.66047359   274938 
12880000   0.34172309   -2.0156597   -2.0156597   -1.3566521  0.026469455   -2.0156597   0.65900754   274820 
12890000   0.34213845   -2.0155565   -2.0155565   -1.3554645  0.024613879   -2.0155565   0.66009199   274702 
12900000   0.34184005   -2.0117374   -2.0117374   -1.3519401  0.028281071   -2.0117374    0.6597973   274585 
12910000   0.34197856   -2.0117495   -2.0117495   -1.3514011  0.030279918   -2.0117495   0.66034841   274467 
12920000   0.34108395   -2.0126602   -2.0126602   -1.3537559   0.02474139   -2.0126602   0.65890423   274349 
12930000   0.34158769   -2.0139018   -2.0139018   -1.3537429  0.029424343   -2.0139018   0.66015889   274232 
12940000   0.34173983   -2.0134307   -2.0134307   -1.3526935  0.027008157   -2.0134307   0.66073722   274114 
12950000   0.34009672   -2.0117874   -2.0117874   -1.3539462  0.026257518   -2.0117874   0.65784115   273997 
12960000   0.34085678   -2.0124154   -2.0124154     -1.35282  0.031373601   -2.0124154   0.65959537   273879 
12970000   0.34006858   -2.0126137   -2.0126137   -1.3542599  0.026097843   -2.0126137   0.65835378   273761 
12980000   0.34096292   -2.0125736   -2.0125736   -1.3522062  0.027241938   -2.0125736    0.6603674   273644 
12990000   0.34043231   -2.0109365   -2.0109365   -1.3513123  0.024835124   -2.0109365   0.65962417   273526 
13000000   0.33995683   -2.0120647   -2.0120647   -1.3530775  0.022884747   -2.0120647   0.65898715   273408 
13010000   0.33997163   -2.0125792   -2.0125792   -1.3532812  0.029342344   -2.0125792   0.65929797   273291 
13020000   0.33982933     -2.01346     -2.01346   -1.3541533  0.021885624     -2.01346    0.6593067   273173 
13030000    0.3392938   -2.0103314   -2.0103314   -1.3517792  0.030091722   -2.0103314   0.65855217   273055 
13040000    0.3384818   -2.0073273   -2.0073273   -1.3500696  0.034033523   -2.0073273   0.65725775   272938 
13050000   0.33865123   -2.0077984   -2.0077984   -1.3499273  0.026234831   -2.0077984   0.65787117   272820 
13060000   0.33845121   -2.0082096   -2.0082096   -1.3504425   0.02499763   -2.0082096    0.6577671   272702 
13070000   0.33810474   -2.0074098   -2.0074098    -1.350034  0.026463546   -2.0074098   0.65737579   272585 
13080000   0.33851517   -2.0089447   -2.0089447   -1.3504859  0.027144692   -2.0089447   0.65845882   272467 
13090000   0.33862954   -2.0087768   -2.0087768   -1.3498101   0.03132952   -2.0087768   0.65896668   272349 
13100000   0.33762122   -2.0071106   -2.0071106   -1.3498237  0.030235998   -2.0071106   0.65728687   272232 
13110000   0.33751269   -2.0055673   -2.0055673   -1.3482068  0.025588121   -2.0055673   0.65736052   272114 
13120000   0.33704192   -2.0045115   -2.0045115   -1.3477855  0.024425683   -2.0045115   0.65672599   271997 
13130000   0.33725382   -2.0068614   -2.0068614   -1.3494373  0.030942603   -2.0068614   0.65742409   271879 
13140000   0.33778783   -2.0066798   -2.0066798   -1.3479288  0.032178236   -2.0066798   0.65875097   271761 
13150000   0.33673385   -2.0044043   -2.0044043   -1.3474259   0.02516186   -2.0044043   0.65697835   271644 
13160000   0.33743049   -2.0080762   -2.0080762   -1.3494526  0.027896116   -2.0080762   0.65862361   271526 
13170000   0.33630403    -2.008849    -2.008849   -1.3521387   0.02551327    -2.008849    0.6567103   271408 
13180000   0.33595275    -2.007062    -2.007062   -1.3507548  0.030268149    -2.007062   0.65630727   271291 
13190000   0.33646232    -2.005207    -2.005207   -1.3476182  0.029507502    -2.005207   0.65758877   271173 
13200000   0.33571682   -2.0033588   -2.0033588   -1.3469414  0.023050823   -2.0033588   0.65641738   271055 
13210000   0.33612906   -2.0031358   -2.0031358   -1.3456286  0.028627229   -2.0031358   0.65750725   270938 
13220000   0.33541699   -2.0013896   -2.0013896   -1.3449894  0.024446966   -2.0013896   0.65640022   270820 
13230000   0.33433082   -2.0019305   -2.0019305   -1.3473707  0.031652702   -2.0019305   0.65455982   270702 
13240000   0.33517328   -2.0015318   -2.0015318   -1.3450389  0.024691428   -2.0015318   0.65649295   270585 
13250000   0.33408693   -2.0043687   -2.0043687   -1.3497181  0.028732304   -2.0043687   0.65465064   270467 
13260000    0.3356032   -2.0057885   -2.0057885   -1.3478797  0.025375922   -2.0057885   0.65790885   270349 
13270000     0.334587   -2.0060043   -2.0060043   -1.3498036  0.022552248   -2.0060043   0.65620069   270232 
13280000   0.33394712   -2.0017397   -2.0017397   -1.3465078  0.017714601   -2.0017397   0.65523185   270114 
13290000   0.33464994   -1.9995518   -1.9995518   -1.3426564  0.028579754   -1.9995518   0.65689538   269997 
13300000   0.33361557   -1.9998967   -1.9998967   -1.3447454  0.028608615   -1.9998967   0.65515132   269879 
13310000   0.33281662   -1.9989313   -1.9989313    -1.345063   0.02744358   -1.9989313   0.65386823   269761 
13320000   0.33330534   -2.0023442   -2.0023442   -1.3472317  0.032601367   -2.0023442   0.65511254   269644 
13330000   0.33417316   -2.0022132   -2.0022132   -1.3451074  0.029115963   -2.0022132   0.65710579   269526 
13340000   0.33273484   -1.9973161   -1.9973161    -1.342752  0.029123615   -1.9973161   0.65456411   269408 
13350000   0.33269666   -1.9969031   -1.9969031   -1.3421297  0.023306674   -1.9969031   0.65477336   269291 
13360000   0.33187896   -1.9978125   -1.9978125   -1.3443621  0.030439258   -1.9978125   0.65345039   269173 
13370000   0.33185221   -1.9984366   -1.9984366   -1.3447523  0.027428597   -1.9984366   0.65368428   269055 
13380000   0.33057238   -1.9980149   -1.9980149   -1.3465684  0.019062298   -1.9980149   0.65144655   268938 
13390000   0.33203842   -1.9977576   -1.9977576   -1.3431347  0.036025511   -1.9977576   0.65462284   268820 
13400000   0.33044879    -1.998509    -1.998509   -1.3467341   0.02588166    -1.998509   0.65177496   268702 
13410000   0.33215463   -1.9994213   -1.9994213   -1.3439964  0.023538929   -1.9994213   0.65542493   268585 
13420000     0.330658   -1.9970139   -1.9970139   -1.3442555  0.027204788   -1.9970139   0.65275848   268467 
13430000   0.32983834   -1.9947822   -1.9947822   -1.3433555  0.022792523   -1.9947822    0.6514267   268349 
13440000   0.33227901   -1.9972006   -1.9972006   -1.3406674  0.025103195   -1.9972006   0.65653323   268232 
13450000   0.32949426   -1.9946702   -1.9946702   -1.3433527  0.028305073   -1.9946702   0.65131752   268114 
13460000   0.33045296   -1.9962462   -1.9962462   -1.3427484  0.029724449   -1.9962462   0.65349776   267997 
13470000   0.33078587   -1.9976603   -1.9976603   -1.3432161  0.031641421   -1.9976603   0.65444428   267879 
13480000   0.32977957    -1.995088    -1.995088   -1.3423471  0.024023163    -1.995088    0.6527409   267761 
13490000    0.3295367   -1.9967006   -1.9967006   -1.3441553  0.024080391   -1.9967006   0.65254532   267644 
13500000    0.3296133   -1.9932621   -1.9932621   -1.3402772  0.022311761   -1.9932621   0.65298488   267526 
13510000   0.32980953   -1.9924383   -1.9924383   -1.3387764  0.026627316   -1.9924383   0.65366195   267408 
13520000   0.32967557   -1.9952263   -1.9952263   -1.3415439  0.031163034   -1.9952263   0.65368246   267291 
13530000   0.33009176   -1.9975413   -1.9975413   -1.3427446  0.030431659   -1.9975413   0.65479674   267173 
13540000   0.33032933   -1.9948103   -1.9948103   -1.3392527  0.025149659   -1.9948103   0.65555755   267055 
13550000   0.32949314   -1.9930956   -1.9930956   -1.3389109  0.030041932   -1.9930956   0.65418468   266938 
13560000   0.32869095     -1.99284     -1.99284   -1.3399594  0.025514526     -1.99284   0.65288061   266820 
13570000   0.32818917   -1.9895556   -1.9895556   -1.3373832  0.032039487   -1.9895556   0.65217233   266702 
13580000   0.32926462   -1.9937818   -1.9937818   -1.3391852  0.028559283   -1.9937818   0.65459661   266585 
13590000   0.32804881    -1.990308    -1.990308   -1.3378397  0.027037735    -1.990308   0.65246833   266467 
13600000   0.32866202   -1.9917823   -1.9917823   -1.3378047  0.029373132   -1.9917823   0.65397756   266349 
13610000   0.32848808   -1.9911526   -1.9911526   -1.3372339  0.031121812   -1.9911526    0.6539187   266232 
13620000   0.32860806   -1.9917754   -1.9917754   -1.3373278  0.021762091   -1.9917754   0.65444762   266114 
13630000   0.32821959   -1.9888955   -1.9888955    -1.334934  0.033349724   -1.9888955   0.65396147   265997 
13640000   0.32708301   -1.9870129   -1.9870129   -1.3350268  0.027535976   -1.9870129   0.65198612   265879 
13650000    0.3276152   -1.9891389   -1.9891389    -1.335802  0.028000779   -1.9891389   0.65333691   265761 
13660000   0.32610633   -1.9835601   -1.9835601   -1.3329458  0.019240134   -1.9835601   0.65061432   265644 
13670000   0.32596613   -1.9869541   -1.9869541   -1.3363305    0.0233444   -1.9869541   0.65062361   265526 
13680000   0.32628367   -1.9881599   -1.9881599   -1.3366129  0.022629716   -1.9881599   0.65154697   265408 
13690000   0.32655382   -1.9866133   -1.9866133   -1.3342393  0.025869527   -1.9866133   0.65237401   265291 
13700000   0.32629378   -1.9844913   -1.9844913   -1.3323468  0.023547233   -1.9844913   0.65214459   265173 
13710000   0.32697745   -1.9888791   -1.9888791   -1.3350772  0.029453346   -1.9888791   0.65380192   265055 
13720000   0.32649122    -1.986853    -1.986853    -1.333735  0.027860575    -1.986853     0.653118   264938 
13730000   0.32567626   -1.9871791   -1.9871791    -1.335401  0.030478036   -1.9871791   0.65177803   264820 
13740000   0.32486842   -1.9853033   -1.9853033   -1.3348522   0.02873977   -1.9853033   0.65045112   264702 
13750000    0.3255687   -1.9871823   -1.9871823   -1.3350408  0.023300282   -1.9871823   0.65214147   264585 
13760000   0.32494644   -1.9843361   -1.9843361   -1.3331506  0.029018051   -1.9843361   0.65118545   264467 
13770000   0.32496047   -1.9844646   -1.9844646   -1.3329603  0.021422806   -1.9844646   0.65150427   264349 
13780000   0.32440585   -1.9838086   -1.9838086   -1.3331283  0.026324848   -1.9838086    0.6506803   264232 
13790000   0.32515584    -1.983032    -1.983032    -1.330556  0.025073086    -1.983032     0.652476   264114 
13800000   0.32503991   -1.9832939   -1.9832939   -1.3307615  0.027508226   -1.9832939   0.65253243   263997 
13810000   0.32421774   -1.9824843   -1.9824843   -1.3313114  0.027250941   -1.9824843   0.65117293   263879 
13820000   0.32509088   -1.9830989   -1.9830989   -1.3298802  0.025060494   -1.9830989   0.65321868   263761 
13830000   0.32350756   -1.9802797   -1.9802797    -1.329954  0.024075164   -1.9802797   0.65032573   263644 
13840000   0.32342095    -1.981113    -1.981113   -1.3306702  0.026827227    -1.981113   0.65044275   263526 
13850000   0.32452759   -1.9804957   -1.9804957   -1.3275349  0.023782488   -1.9804957   0.65296073   263408 
13860000   0.32450023   -1.9802453   -1.9802453   -1.3270495  0.024138606   -1.9802453   0.65319582   263291 
13870000   0.32316715   -1.9800536   -1.9800536   -1.3292495  0.028912426   -1.9800536   0.65080408   263173 
13880000   0.32301848   -1.9788119   -1.9788119   -1.3280154  0.026331178   -1.9788119    0.6507965   263055 
13890000   0.32197075   -1.9773569   -1.9773569   -1.3283827  0.028975645   -1.9773569   0.64897424   262938 
13900000   0.32328895   -1.9777091   -1.9777091   -1.3257852  0.027404055   -1.9777091   0.65192382   262820 
13910000   0.32250347   -1.9760289   -1.9760289   -1.3253969  0.026329607   -1.9760289   0.65063198   262702 
13920000   0.32149913   -1.9745971   -1.9745971   -1.3257023  0.029957288   -1.9745971   0.64889478   262585 
13930000   0.32236424   -1.9772095   -1.9772095   -1.3262761  0.022893487   -1.9772095   0.65093339   262467 
13940000   0.32216154   -1.9776201   -1.9776201   -1.3268034  0.024413881   -1.9776201   0.65081668   262349 
13950000   0.32148877   -1.9755592   -1.9755592   -1.3258119  0.028852907   -1.9755592   0.64974736   262232 
13960000   0.32089087   -1.9708481   -1.9708481   -1.3220172   0.03396585   -1.9708481   0.64883092   262114 
13970000   0.32019232   -1.9728282   -1.9728282   -1.3251206   0.02600802   -1.9728282    0.6477076   261997 
13980000   0.32092713   -1.9732899   -1.9732899   -1.3238034  0.030790716   -1.9732899   0.64948655   261879 
13990000   0.32130968   -1.9721795   -1.9721795   -1.3216256   0.02466088   -1.9721795   0.65055387   261761 
14000000   0.32038443   -1.9700609   -1.9700609   -1.3210903  0.025518221   -1.9700609   0.64897059   261644 
14010000   0.32145569    -1.971361    -1.971361   -1.3199266  0.029699927    -1.971361   0.65143432   261526 
14020000     0.320346   -1.9682971   -1.9682971   -1.3188186  0.031137104   -1.9682971   0.64947858   261408 
14030000   0.32004523   -1.9699543   -1.9699543    -1.320795   0.02830134   -1.9699543   0.64915933   261291 
14040000   0.32109358   -1.9693872   -1.9693872   -1.3178072  0.028923575   -1.9693872   0.65157999   261173 
14050000   0.31919683    -1.966158    -1.966158   -1.3181343  0.032370995    -1.966158   0.64802378   261055 
14060000   0.32089936    -1.968708    -1.968708   -1.3169357  0.027615058    -1.968708   0.65177234   260938 
14070000   0.31991251   -1.9648233   -1.9648233   -1.3147613  0.034883284   -1.9648233   0.65006192   260820 
14080000   0.31918137   -1.9658686   -1.9658686   -1.3169988   0.03208456   -1.9658686   0.64886982   260702 
14090000   0.31882418   -1.9658822   -1.9658822   -1.3174475  0.028108583   -1.9658822   0.64843469   260585 
14100000   0.31832368   -1.9658308   -1.9658308   -1.3181208  0.031281906   -1.9658308   0.64771004   260467 
14110000   0.31782643   -1.9613319   -1.9613319   -1.3143405  0.032130013   -1.9613319   0.64699138   260349 
14120000   0.31947591   -1.9651731   -1.9651731   -1.3145315  0.027909598   -1.9651731   0.65064157   260232 
14130000   0.31880442   -1.9654037   -1.9654037   -1.3158352  0.026890542   -1.9654037   0.64956858   260114 
14140000    0.3183121   -1.9643078   -1.9643078   -1.3154504  0.034900356   -1.9643078   0.64885733   259997 
14150000    0.3184541   -1.9669296   -1.9669296   -1.3174881  0.031130849   -1.9669296   0.64944153   259879 
14160000   0.31779874    -1.965231    -1.965231   -1.3168316  0.025893068    -1.965231   0.64839942   259761 
14170000   0.31776052   -1.9644418   -1.9644418   -1.3158282  0.024863683   -1.9644418   0.64861359   259644 
14180000   0.31749649   -1.9629999   -1.9629999   -1.3146306   0.02970379   -1.9629999   0.64836932   259526 
14190000   0.31731675   -1.9658276   -1.9658276   -1.3175306  0.028466157   -1.9658276   0.64829703   259408 
14200000   0.31756534    -1.966507    -1.966507   -1.3174093  0.025854934    -1.966507   0.64909767   259291 
14210000   0.31746785   -1.9644135   -1.9644135   -1.3152196  0.024271364   -1.9644135   0.64919384   259173 
14220000   0.31579706   -1.9632963   -1.9632963   -1.3172249  0.022977127   -1.9632963   0.64607138   259055 
14230000   0.31543052   -1.9644345   -1.9644345   -1.3188214  0.025679162   -1.9644345   0.64561308   258938 
14240000   0.31556134   -1.9635287   -1.9635287   -1.3173534   0.02131406   -1.9635287    0.6461753   258820 
14250000   0.31571287   -1.9630598   -1.9630598   -1.3162793  0.030540522   -1.9630598   0.64678048   258702 
14260000   0.31509152    -1.961584    -1.961584   -1.3157844  0.028115137    -1.961584   0.64579962   258585 
14270000   0.31607158   -1.9650074   -1.9650074   -1.3169034  0.027823562   -1.9650074   0.64810406   258467 
14280000   0.31533549   -1.9631322   -1.9631322   -1.3162421   0.02636417   -1.9631322   0.64689004   258349 
14290000   0.31514858   -1.9610997   -1.9610997   -1.3143001  0.029484874   -1.9610997   0.64679954   258232 
14300000   0.31391835   -1.9598232   -1.9598232    -1.315254  0.031824385   -1.9598232   0.64456918   258114 
14310000   0.31537892   -1.9631759   -1.9631759   -1.3153141  0.023563985   -1.9631759   0.64786184   257997 
14320000   0.31403307   -1.9594952   -1.9594952   -1.3141029  0.030502119   -1.9594952   0.64539234   257879 
14330000   0.31450643   -1.9577128   -1.9577128   -1.3110517  0.024705219   -1.9577128   0.64666107   257761 
14340000   0.31405557   -1.9569224   -1.9569224   -1.3108951  0.027600181   -1.9569224    0.6460273   257644 
14350000   0.31422617   -1.9574114   -1.9574114    -1.310737  0.024941266   -1.9574114    0.6466744   257526 
14360000   0.31415649   -1.9586634   -1.9586634    -1.311836   0.02983936   -1.9586634   0.64682738   257408 
14370000   0.31359828   -1.9605069   -1.9605069   -1.3145352  0.025691511   -1.9605069   0.64597168   257291 
14380000   0.31300533   -1.9577763   -1.9577763   -1.3127302  0.027195613   -1.9577763    0.6450461   257173 
14390000   0.31290284   -1.9552027   -1.9552027   -1.3100718  0.031484406   -1.9552027   0.64513091   257055 
14400000   0.31254872   -1.9564509   -1.9564509   -1.3117567  0.025669212   -1.9564509   0.64469422   256938 
14410000   0.31269736   -1.9545324   -1.9545324   -1.3092352  0.027304485   -1.9545324   0.64529718   256820 
14420000   0.31360141     -1.95753     -1.95753   -1.3100697  0.024354134     -1.95753   0.64746031   256702 
14430000   0.31084321   -1.9516552   -1.9516552   -1.3095968  0.029422487   -1.9516552   0.64205839   256585 
14440000   0.31207643   -1.9553794   -1.9553794   -1.3104772  0.028942928   -1.9553794   0.64490223   256467 
14450000   0.31224427   -1.9544308   -1.9544308   -1.3088847  0.025153976   -1.9544308   0.64554608   256349 
14460000   0.31211534   -1.9518397   -1.9518397   -1.3062655  0.023390501   -1.9518397   0.64557417   256232 
14470000   0.31136035   -1.9509283   -1.9509283    -1.306619  0.025423005   -1.9509283   0.64430929   256114 
14480000   0.31123743   -1.9518187   -1.9518187   -1.3074694  0.023937287   -1.9518187   0.64434928   255997 
14490000   0.31195401   -1.9532199   -1.9532199   -1.3070893  0.022958136   -1.9532199   0.64613062   255879 
14500000   0.31115077   -1.9507351   -1.9507351   -1.3059708  0.032456391   -1.9507351   0.64476425   255761 
14510000   0.30986106   -1.9506051   -1.9506051   -1.3082195  0.026231902   -1.9506051   0.64238559   255644 
14520000   0.31010559   -1.9521306   -1.9521306   -1.3089412  0.025256751   -1.9521306   0.64318943   255526 
14530000   0.30949107   -1.9487879   -1.9487879   -1.3065765  0.021142166   -1.9487879   0.64221143   255408 
14540000   0.30936586   -1.9496589   -1.9496589   -1.3074131  0.021703149   -1.9496589   0.64224582   255291 
14550000   0.31019612   -1.9474348   -1.9474348   -1.3031676   0.02314747   -1.9474348   0.64426724   255173 
14560000   0.30966799   -1.9491607   -1.9491607   -1.3056929   0.02806734   -1.9491607   0.64346788   255055 
14570000   0.30905961   -1.9499215   -1.9499215   -1.3074231  0.028174927   -1.9499215   0.64249844   254938 
14580000   0.31005136   -1.9502152   -1.9502152   -1.3053566   0.02039723   -1.9502152   0.64485864   254820 
14590000   0.30934971   -1.9498009   -1.9498009   -1.3061035  0.034311641   -1.9498009    0.6436974   254702 
14600000    0.3089583   -1.9462851   -1.9462851   -1.3031067  0.028213654   -1.9462851    0.6431784   254585 
14610000   0.30861553   -1.9477005   -1.9477005   -1.3049378  0.025870386   -1.9477005   0.64276276   254467 
14620000   0.30871473   -1.9455621   -1.9455621   -1.3022944  0.031662859   -1.9455621   0.64326766   254349 
14630000   0.30796209   -1.9448594   -1.9448594   -1.3028647  0.027690742   -1.9448594    0.6419947   254232 
14640000   0.30850104   -1.9452245   -1.9452245   -1.3018077  0.026747376   -1.9452245   0.64341686   254114 
14650000   0.30822859    -1.948377    -1.948377   -1.3052322  0.018871659    -1.948377   0.64314476   253997 
14660000   0.30790467   -1.9454207   -1.9454207   -1.3026532  0.026767592   -1.9454207   0.64276749   253879 
14670000   0.30807032   -1.9456869   -1.9456869   -1.3022746  0.024307039   -1.9456869   0.64341234   253761 
14680000    0.3062896    -1.943465    -1.943465   -1.3034767  0.027589389    -1.943465   0.63998834   253644 
14690000   0.30712229   -1.9451604   -1.9451604   -1.3031335  0.024850642   -1.9451604   0.64202691   253526 
14700000   0.30601087   -1.9457694   -1.9457694    -1.305768  0.033225734   -1.9457694   0.64000142   253408 
14710000    0.3071764   -1.9458057   -1.9458057   -1.3030699  0.028877023   -1.9458057    0.6427358   253291 
14720000   0.30611235   -1.9460173   -1.9460173   -1.3052094  0.023877176   -1.9460173    0.6408079   253173 
14730000   0.30658532   -1.9438896   -1.9438896   -1.3017924  0.025982942   -1.9438896   0.64209728   253055 
14740000   0.30678575    -1.942508    -1.942508   -1.2996938  0.025688172    -1.942508   0.64281425   252938 
14750000   0.30519084    -1.944392    -1.944392   -1.3046211  0.024173068    -1.944392   0.63977088   252820 
14760000   0.30536863   -1.9426426   -1.9426426   -1.3022001  0.023642242   -1.9426426   0.64044249   252702 
14770000   0.30563595   -1.9446189   -1.9446189   -1.3033188  0.024825315   -1.9446189   0.64130006   252585 
14780000   0.30504953   -1.9435789   -1.9435789   -1.3032101  0.028323962   -1.9435789   0.64036877   252467 
14790000   0.30565274   -1.9435445   -1.9435445   -1.3016095  0.028132396   -1.9435445   0.64193507   252349 
14800000   0.30445471   -1.9430882   -1.9430882   -1.3033726  0.029519516   -1.9430882   0.63971555   252232 
14810000   0.30465421    -1.942486    -1.942486   -1.3020517  0.026541308    -1.942486   0.64043436   252114 
14820000   0.30454454   -1.9408452   -1.9408452   -1.3003441  0.026391808   -1.9408452   0.64050106   251997 
14830000   0.30365362   -1.9404376   -1.9404376   -1.3015111  0.028907816   -1.9404376    0.6389265   251879 
14840000   0.30433004   -1.9420141   -1.9420141   -1.3013642  0.026858274   -1.9420141   0.64064991   251761 
14850000   0.30324445   -1.9419687   -1.9419687   -1.3033072  0.022549406   -1.9419687   0.63866141   251644 
14860000   0.30331662   -1.9397573   -1.9397573   -1.3006442   0.03314957   -1.9397573   0.63911309   251526 
14870000   0.30326973   -1.9383619   -1.9383619   -1.2990477   0.02922118   -1.9383619   0.63931422   251408 
14880000   0.30290655   -1.9390821   -1.9390821   -1.3002361  0.031942806   -1.9390821   0.63884593   251291 
14890000    0.3024151   -1.9413946   -1.9413946   -1.3032855  0.023636406   -1.9413946   0.63810907   251173 
14900000    0.3026695   -1.9428101   -1.9428101    -1.303864  0.024970402   -1.9428101   0.63894603   251055 
14910000   0.30341907   -1.9406867   -1.9406867   -1.2998596  0.023066919   -1.9406867   0.64082706   250938 
14920000   0.30314477   -1.9422713   -1.9422713   -1.3017224  0.030789357   -1.9422713   0.64054893   250820 
14930000   0.30244614   -1.9385993   -1.9385993   -1.2992258  0.025573611   -1.9385993   0.63937353   250702 
14940000   0.30205806    -1.936906    -1.936906   -1.2980548  0.034484696    -1.936906   0.63885126   250585 
14950000   0.30146269      -1.9358      -1.9358   -1.2979076  0.028002575      -1.9358   0.63789244   250467 
14960000   0.30158479   -1.9395708   -1.9395708   -1.3011192  0.030215728   -1.9395708   0.63845159   250349 
14970000    0.3013141   -1.9401575   -1.9401575   -1.3019807  0.030448891   -1.9401575   0.63817678   250232 
14980000   0.30158096   -1.9366059   -1.9366059   -1.2975626  0.024778497   -1.9366059   0.63904334   250114 
14990000    0.3015534   -1.9386429   -1.9386429   -1.2993589  0.029265738   -1.9386429     0.639284   249997 
15000000   0.30048991   -1.9381443   -1.9381443   -1.3008141  0.031863579   -1.9381443   0.63733025   249879 
15010000   0.30057711   -1.9380892   -1.9380892   -1.3002728  0.025064367   -1.9380892   0.63781639   249761 
15020000   0.30015276   -1.9368412   -1.9368412   -1.2996267  0.025051641   -1.9368412   0.63721444   249644 
15030000   0.30008219   -1.9390944   -1.9390944   -1.3017285  0.026561229   -1.9390944   0.63736589   249526 
15040000   0.30075921   -1.9360875   -1.9360875   -1.2969814  0.025813639   -1.9360875   0.63910609   249408 
15050000   0.30042827   -1.9361492   -1.9361492   -1.2974467  0.029552764   -1.9361492   0.63870247   249291 
15060000   0.29971139   -1.9344083   -1.9344083   -1.2969282  0.025423057   -1.9344083   0.63748014   249173 
15070000   0.29916366   -1.9334378   -1.9334378   -1.2968212  0.023530597   -1.9334378   0.63661663   249055 
15080000   0.29993522   -1.9336953   -1.9336953   -1.2951368  0.023153176   -1.9336953   0.63855847   248938 
15090000   0.29901232   -1.9332588   -1.9332588   -1.2963633  0.026030949   -1.9332588   0.63689552   248820 
15100000   0.29896261   -1.9347085   -1.9347085   -1.2976167  0.020341282   -1.9347085   0.63709178   248702 
15110000   0.29844817   -1.9302141   -1.9302141   -1.2939193  0.030686477   -1.9302141   0.63629484   248585 
15120000   0.29799795   -1.9286161   -1.9286161   -1.2929794  0.022956434   -1.9286161   0.63563668   248467 
15130000   0.29882705   -1.9300654   -1.9300654   -1.2923574  0.022824791   -1.9300654   0.63770804   248349 
15140000   0.29831728   -1.9317409   -1.9317409   -1.2948206  0.026911214   -1.9317409   0.63692022   248232 
15150000   0.29783357   -1.9327921   -1.9327921   -1.2966022  0.031443739   -1.9327921    0.6361899   248114 
15160000   0.29685846    -1.931227    -1.931227   -1.2968208  0.024958664    -1.931227   0.63440616   247997 
15170000    0.2980778   -1.9341636   -1.9341636   -1.2968484    0.0255564   -1.9341636   0.63731523   247879 
15180000   0.29786392   -1.9341829   -1.9341829   -1.2970217  0.031102126   -1.9341829   0.63716124   247761 
15190000   0.29691285   -1.9342535   -1.9342535   -1.2988266  0.023454536   -1.9342535   0.63542687   247644 
15200000   0.29685555   -1.9316761   -1.9316761    -1.296069  0.027276631   -1.9316761    0.6356071   247526 
15210000   0.29684698   -1.9302842   -1.9302842   -1.2943923  0.023537334   -1.9302842    0.6358919   247408 
15220000   0.29578895   -1.9304695   -1.9304695   -1.2965443  0.025955679   -1.9304695   0.63392523   247291 
15230000   0.29568045   -1.9282578   -1.9282578   -1.2942626  0.027121428   -1.9282578    0.6339952   247173 
15240000   0.29617561   -1.9269071   -1.9269071   -1.2915469  0.022432301   -1.9269071   0.63536024   247055 
15250000   0.29561028   -1.9265922   -1.9265922   -1.2921443  0.025395552   -1.9265922   0.63444795   246938 
15260000   0.29617606   -1.9287005   -1.9287005   -1.2927344  0.025916605   -1.9287005   0.63596616   246820 
15270000   0.29663353   -1.9262359   -1.9262359   -1.2889828  0.030215092   -1.9262359   0.63725311   246702 
15280000   0.29504544   -1.9241295   -1.9241295   -1.2899873  0.026213393   -1.9241295    0.6341422   246585 
15290000   0.29555893    -1.926602    -1.926602   -1.2910521  0.030321928    -1.926602   0.63554997   246467 
15300000   0.29447095   -1.9253535   -1.9253535   -1.2918397  0.028397876   -1.9253535   0.63351375   246349 
15310000   0.29451888   -1.9251951   -1.9251951   -1.2912771  0.025836791   -1.9251951   0.63391795   246232 
15320000   0.29482948   -1.9274107   -1.9274107     -1.29252  0.029865037   -1.9274107   0.63489074   246114 
15330000   0.29471895   -1.9239092   -1.9239092   -1.2889546  0.025684249   -1.9239092   0.63495457   245997 
15340000   0.29416837   -1.9223063   -1.9223063   -1.2882338  0.024299821   -1.9223063   0.63407252   245879 
15350000   0.29351088   -1.9197186   -1.9197186   -1.2867595  0.029724223   -1.9197186   0.63295909   245761 
15360000   0.29457038   -1.9207343   -1.9207343   -1.2851878  0.025049165   -1.9207343   0.63554647   245644 
15370000   0.29466951   -1.9236685   -1.9236685   -1.2876026  0.027871442   -1.9236685    0.6360659   245526 
15380000   0.29432851   -1.9223528   -1.9223528   -1.2867175  0.026561077   -1.9223528   0.63563531   245408 
15390000   0.29384663   -1.9205138   -1.9205138   -1.2856165  0.026305822   -1.9205138   0.63489733   245291 
15400000   0.29366705   -1.9219616   -1.9219616   -1.2871469  0.030824702   -1.9219616   0.63481471   245173 
15410000   0.29332879    -1.920995    -1.920995   -1.2866062  0.031304878    -1.920995   0.63438882   245055 
15420000   0.29265743   -1.9209607   -1.9209607   -1.2877215  0.028227324   -1.9209607   0.63323918   244938 
15430000   0.29258303   -1.9207503   -1.9207503    -1.287367  0.020441869   -1.9207503   0.63338333   244820 
15440000   0.29252605   -1.9194901   -1.9194901   -1.2859248  0.026774641   -1.9194901   0.63356535   244702 
15450000   0.29205969    -1.918836    -1.918836   -1.2859781  0.031616745    -1.918836   0.63285788   244585 
15460000   0.29244579   -1.9213211   -1.9213211   -1.2873207   0.02853993   -1.9213211   0.63400038   244467 
15470000    0.2915767   -1.9194544   -1.9194544   -1.2870328  0.028464354   -1.9194544   0.63242154   244349 
15480000    0.2923367   -1.9200867   -1.9200867    -1.285713  0.021663864   -1.9200867   0.63437371   244232 
15490000   0.29179307   -1.9185442   -1.9185442   -1.2850441  0.018904555   -1.9185442   0.63350009   244114 
15500000   0.29143229   -1.9185066   -1.9185066   -1.2854864  0.024804963   -1.9185066   0.63302021   243997 
15510000   0.29100459   -1.9203744   -1.9203744   -1.2879773  0.026879728   -1.9203744   0.63239705   243879 
15520000   0.29170452   -1.9183389   -1.9183389   -1.2841139  0.027604397   -1.9183389   0.63422497   243761 
15530000   0.29119297   -1.9185544   -1.9185544   -1.2851377  0.024082688   -1.9185544   0.63341678   243644 
15540000   0.29032557   -1.9200187   -1.9200187   -1.2881827  0.023711493   -1.9200187   0.63183598   243526 
15550000   0.29005475   -1.9208741   -1.9208741   -1.2893215  0.025378805   -1.9208741   0.63155261   243408 
15560000   0.28994295   -1.9136664   -1.9136664   -1.2820537  0.027632958   -1.9136664   0.63161277   243291 
15570000   0.29041337   -1.9161197   -1.9161197   -1.2831752  0.024755625   -1.9161197   0.63294453   243173 
15580000   0.29007968   -1.9157639   -1.9157639   -1.2832397  0.028077868   -1.9157639   0.63252419   243055 
15590000   0.28960369   -1.9144087   -1.9144087   -1.2826183  0.027211602   -1.9144087   0.63179042   242938 
15600000     0.288987   -1.9131568   -1.9131568   -1.2824054  0.028606263   -1.9131568   0.63075143   242820 
15610000   0.28916344   -1.9107901   -1.9107901   -1.2793467  0.023686078   -1.9107901   0.63144339   242702 
15620000   0.28872449   -1.9114207   -1.9114207   -1.2806317  0.035476527   -1.9114207   0.63078894   242585 
15630000   0.28879539   -1.9155432   -1.9155432   -1.2842923  0.026969503   -1.9155432    0.6312509   242467 
15640000   0.28932308    -1.913213    -1.913213   -1.2805007  0.033816038    -1.913213   0.63271226   242349 
15650000   0.28960719   -1.9124601   -1.9124601   -1.2788207  0.028448798   -1.9124601   0.63363946   242232 
15660000   0.28852384   -1.9137441   -1.9137441   -1.2821672  0.028891526   -1.9137441   0.63157684   242114 
15670000   0.28888842   -1.9117493   -1.9117493   -1.2790687  0.027831675   -1.9117493   0.63268063   241997 
15680000   0.28713062   -1.9089756   -1.9089756   -1.2798378   0.02390193   -1.9089756   0.62913774   241879 
15690000   0.28739266   -1.9120322   -1.9120322   -1.2820129  0.025091084   -1.9120322   0.63001927   241761 
15700000   0.28779122   -1.9094702   -1.9094702   -1.2782717  0.024889375   -1.9094702   0.63119844   241644 
15710000   0.28766417   -1.9103603   -1.9103603   -1.2791322  0.026212732   -1.9103603   0.63122805   241526 
15720000   0.28697203   -1.9097099   -1.9097099   -1.2796928   0.03040461   -1.9097099   0.63001706   241408 
15730000   0.28724926   -1.9123309   -1.9123309   -1.2813994  0.025269254   -1.9123309   0.63093148   241291 
15740000    0.2865147   -1.9138339   -1.9138339    -1.284208  0.027118687   -1.9138339   0.62962594   241173 
15750000   0.28605904   -1.9073312   -1.9073312   -1.2783989  0.024714381   -1.9073312   0.62893234   241055 
15760000   0.28596441   -1.9076589   -1.9076589   -1.2786293   0.02656871   -1.9076589   0.62902959   240938 
15770000   0.28622808   -1.9075114   -1.9075114   -1.2775933  0.027633016   -1.9075114   0.62991809   240820 
15780000    0.2861469   -1.9089571   -1.9089571   -1.2789089      0.02619   -1.9089571   0.63004816   240702 
15790000   0.28586442   -1.9082684   -1.9082684   -1.2785362  0.024286384   -1.9082684   0.62973227   240585 
15800000   0.28634507   -1.9106436   -1.9106436   -1.2795429  0.027391974   -1.9106436   0.63110064   240467 
15810000    0.2851898   -1.9072156   -1.9072156   -1.2783525  0.030387078   -1.9072156   0.62886303   240349 
15820000   0.28515392   -1.9067458   -1.9067458   -1.2776557  0.021566076   -1.9067458   0.62909015   240232 
15830000   0.28438041   -1.9023981   -1.9023981   -1.2747061  0.024679205   -1.9023981   0.62769199   240114 
15840000   0.28493438   -1.9045701   -1.9045701   -1.2753488  0.036227253   -1.9045701   0.62922133   239997 
15850000   0.28432471   -1.9044365   -1.9044365   -1.2762526  0.025002472   -1.9044365   0.62818387   239879 
15860000    0.2841112   -1.9030872   -1.9030872   -1.2750661  0.028502798   -1.9030872   0.62802106   239761 
15870000   0.28355727    -1.900794    -1.900794   -1.2736914  0.016935919    -1.900794   0.62710263   239644 
15880000   0.28374502   -1.9038721   -1.9038721   -1.2760451  0.024261228   -1.9038721   0.62782699   239526 
15890000   0.28432624   -1.9015244   -1.9015244   -1.2721013  0.027402982   -1.9015244    0.6294231   239408 
15900000   0.28298746   -1.9026216   -1.9026216   -1.2758559   0.02679524   -1.9026216   0.62676569   239291 
15910000   0.28305558   -1.9009157   -1.9009157   -1.2736898   0.02505129   -1.9009157   0.62722587   239173 
15920000   0.28419032   -1.9017326   -1.9017326   -1.2716814  0.026818022   -1.9017326   0.63005121   239055 
15930000   0.28285137    -1.898219    -1.898219   -1.2708292    0.0281981    -1.898219   0.62738982   238938 
15940000   0.28309401   -1.8986882   -1.8986882   -1.2704499  0.032113353   -1.8986882   0.62823826   238820 
15950000   0.28270997   -1.8992735   -1.8992735   -1.2715774  0.028548116   -1.8992735   0.62769615   238702 
15960000    0.2817698   -1.8966786   -1.8966786   -1.2707631  0.031737342   -1.8966786    0.6259155   238585 
15970000   0.28146244    -1.895287    -1.895287   -1.2697448  0.028675166    -1.895287   0.62554212   238467 
15980000   0.28270671   -1.8990075   -1.8990075    -1.270389  0.024507077   -1.8990075   0.62861852   238349 
15990000   0.28295455   -1.9006506   -1.9006506    -1.271172  0.025773689   -1.9006506   0.62947861   238232 
16000000   0.28153711   -1.8982114   -1.8982114   -1.2715757  0.021635044   -1.8982114   0.62663566   238114 
16010000   0.28144088   -1.8987404   -1.8987404   -1.2720109  0.025227613   -1.8987404   0.62672944   237997 
16020000   0.28122687   -1.9007813   -1.9007813   -1.2742178  0.033367521   -1.9007813   0.62656351   237879 
16030000   0.28128504   -1.8998621   -1.8998621   -1.2728579  0.026839888   -1.8998621   0.62700415   237761 
16040000   0.28159917   -1.8986207   -1.8986207   -1.2706073  0.024166465   -1.8986207   0.62801342   237644 
16050000   0.28111966   -1.8988393   -1.8988393   -1.2715838  0.025414854   -1.8988393   0.62725548   237526 
16060000    0.2800288    -1.895354    -1.895354    -1.270222  0.027921273    -1.895354   0.62513203   237408 
16070000   0.28043889   -1.8953839   -1.8953839   -1.2690278  0.022672484   -1.8953839   0.62635617   237291 
16080000   0.27931646   -1.8934653   -1.8934653   -1.2693057  0.026307206   -1.8934653   0.62415964   237173 
16090000   0.27974342   -1.8919544   -1.8919544   -1.2665295  0.024239328   -1.8919544   0.62542489   237055 
16100000   0.27954009   -1.8927343   -1.8927343   -1.2674554  0.022186125   -1.8927343   0.62527892   236938 
16110000    0.2791105   -1.8915326   -1.8915326   -1.2669036   0.02454749   -1.8915326   0.62462907   236820 
16120000   0.27970052   -1.8913999   -1.8913999   -1.2651384  0.031775944   -1.8913999   0.62626155   236702 
16130000   0.27945603   -1.8929052   -1.8929052   -1.2668817  0.023899209   -1.8929052   0.62602355   236585 
16140000    0.2788212   -1.8914912   -1.8914912   -1.2665781  0.027883952   -1.8914912   0.62491313   236467 
16150000   0.27857515   -1.8894709   -1.8894709   -1.2647975  0.021472867   -1.8894709   0.62467337   236349 
16160000   0.27900502   -1.8880118   -1.8880118   -1.2620646  0.025660352   -1.8880118   0.62594719   236232 
16170000    0.2784505   -1.8902336   -1.8902336   -1.2652183  0.023591797   -1.8902336   0.62501532   236114 
16180000   0.27913191   -1.8880178   -1.8880178   -1.2611623  0.027917659   -1.8880178   0.62685543   235997 
16190000    0.2784068   -1.8887684   -1.8887684   -1.2632286  0.027593458   -1.8887684   0.62553982   235879 
16200000   0.27895072   -1.8865556   -1.8865556     -1.25948  0.021546687   -1.8865556   0.62707562   235761 
16210000   0.27886173   -1.8886785   -1.8886785   -1.2614917  0.024057567   -1.8886785   0.62718683   235644 
16220000   0.27785586    -1.886036    -1.886036   -1.2607983  0.022343914    -1.886036   0.62523762   235526 
16230000   0.27735019   -1.8842784   -1.8842784   -1.2598658  0.027591598   -1.8842784   0.62441258   235408 
16240000   0.27676053    -1.887247    -1.887247   -1.2638521  0.026173577    -1.887247    0.6233949   235291 
16250000   0.27676981   -1.8881095   -1.8881095   -1.2643809  0.022529117   -1.8881095   0.62372858   235173 
16260000   0.27608514   -1.8899099   -1.8899099   -1.2674119  0.030174742   -1.8899099   0.62249797   235055 
16270000   0.27585361   -1.8899057   -1.8899057   -1.2676201   0.02643382   -1.8899057   0.62228566   234938 
16280000   0.27579838   -1.8852898   -1.8852898   -1.2628161  0.031284032   -1.8852898   0.62247372   234820 
16290000   0.27638225   -1.8872573   -1.8872573   -1.2631522  0.025746605   -1.8872573   0.62410514   234702 
16300000   0.27582688   -1.8836527   -1.8836527    -1.260491  0.015974152   -1.8836527   0.62316169   234585 
16310000   0.27641334    -1.885983    -1.885983   -1.2611821   0.02394801    -1.885983   0.62480092   234467 
16320000   0.27587535   -1.8847473   -1.8847473   -1.2608484  0.026417091   -1.8847473   0.62389885   234349 
16330000   0.27494277   -1.8809774   -1.8809774    -1.258877  0.029486313   -1.8809774    0.6221004   234232 
16340000   0.27520163   -1.8836695   -1.8836695   -1.2606696  0.025653457   -1.8836695   0.62299994   234114 
16350000   0.27588509     -1.88297     -1.88297   -1.2581106  0.025226122     -1.88297   0.62485944   233997 
16360000   0.27567657    -1.882258    -1.882258   -1.2575558  0.018254827    -1.882258   0.62470219   233879 
16370000   0.27364551   -1.8805981   -1.8805981   -1.2601854  0.032811656   -1.8805981   0.62041268   233761 
16380000   0.27393191   -1.8822015   -1.8822015   -1.2608285  0.027551522   -1.8822015   0.62137303   233644 
16390000   0.27389923   -1.8838456   -1.8838456   -1.2622328  0.020144321   -1.8838456   0.62161282   233526 
16400000   0.27455498   -1.8844414   -1.8844414   -1.2610254  0.024325769   -1.8844414   0.62341606   233408 
16410000   0.27420476   -1.8836113   -1.8836113   -1.2606783   0.03113044   -1.8836113   0.62293309   233291 
16420000   0.27396946   -1.8814864   -1.8814864   -1.2587728  0.023229046   -1.8814864   0.62271353   233173 
16430000   0.27336117   -1.8828813   -1.8828813   -1.2612358  0.027286783   -1.8828813   0.62164551   233055 
16440000   0.27295735   -1.8811309   -1.8811309   -1.2600919   0.02865804   -1.8811309   0.62103896   232938 
16450000   0.27308865   -1.8814249   -1.8814249   -1.2597723  0.022884496   -1.8814249   0.62165261   232820 
16460000   0.27301213   -1.8785728   -1.8785728   -1.2567793  0.023919721   -1.8785728   0.62179356   232702 
16470000   0.27284732   -1.8808973   -1.8808973   -1.2591664  0.029996444   -1.8808973   0.62173082   232585 
16480000   0.27297961   -1.8802861   -1.8802861   -1.2579381  0.025926974   -1.8802861   0.62234799   232467 
16490000   0.27288046   -1.8795494   -1.8795494   -1.2571115  0.033383031   -1.8795494    0.6224379   232349 
16500000   0.27207831   -1.8760677   -1.8760677   -1.2551469  0.028320728   -1.8760677   0.62092086   232232 
16510000   0.27217203   -1.8779371   -1.8779371   -1.2564865  0.023979199   -1.8779371   0.62145052   232114 
16520000   0.27162106   -1.8765434   -1.8765434   -1.2560382  0.023031233   -1.8765434   0.62050526   231997 
16530000    0.2716022    -1.875731    -1.875731    -1.254953  0.024936086    -1.875731   0.62077791   231879 
16540000   0.27176116    -1.874058    -1.874058   -1.2526005  0.027847483    -1.874058    0.6214575   231761 
16550000   0.27216422   -1.8737954   -1.8737954   -1.2511018  0.025676305   -1.8737954   0.62269355   231644 
16560000   0.27037303   -1.8721195   -1.8721195   -1.2532088  0.025868254   -1.8721195   0.61891072   231526 
16570000   0.27079044   -1.8745051   -1.8745051   -1.2543229  0.025423575   -1.8745051   0.62018228   231408 
16580000   0.27079042   -1.8737747   -1.8737747   -1.2532787  0.025301032   -1.8737747   0.62049596   231291 
16590000   0.27135251   -1.8750104   -1.8750104    -1.252909   0.02240542   -1.8750104   0.62210134   231173 
16600000    0.2700591   -1.8718811   -1.8718811   -1.2524289  0.027165014   -1.8718811   0.61945225   231055 
16610000   0.26967486   -1.8750283   -1.8750283    -1.256144  0.022049939   -1.8750283   0.61888429   230938 
16620000   0.26924797   -1.8726658   -1.8726658   -1.2544453  0.030296224   -1.8726658   0.61822049   230820 
16630000   0.27029664   -1.8737868   -1.8737868    -1.252841  0.026942136   -1.8737868    0.6209458   230702 
16640000   0.26883669   -1.8722904   -1.8722904   -1.2543851  0.031728826   -1.8722904   0.61790524   230585 
16650000   0.26823001   -1.8739473   -1.8739473   -1.2571208  0.026776643   -1.8739473   0.61682649   230467 
16660000   0.26910094   -1.8741938   -1.8741938   -1.2550475  0.027493512   -1.8741938    0.6191463   230349 
16670000    0.2679152   -1.8705844   -1.8705844    -1.253853  0.029369767   -1.8705844   0.61673141   230232 
16680000   0.26844155   -1.8727964   -1.8727964   -1.2545364   0.02558076   -1.8727964   0.61825992   230114 
16690000    0.2685909   -1.8724498   -1.8724498   -1.2535312  0.027420245   -1.8724498   0.61891857   229997 
16700000   0.26730655   -1.8723804   -1.8723804   -1.2561052  0.025871858   -1.8723804   0.61627522   229879 
16710000   0.26779452   -1.8705413   -1.8705413    -1.252824  0.028783213   -1.8705413   0.61771732   229761 
16720000   0.26717123   -1.8700297   -1.8700297   -1.2534361  0.028662288   -1.8700297   0.61659357   229644 
16730000   0.26746193   -1.8686135   -1.8686135   -1.2510318  0.025565121   -1.8686135   0.61758179   229526 
16740000   0.26670459   -1.8708974   -1.8708974   -1.2547475  0.025665593   -1.8708974   0.61614982   229408 
16750000   0.26621428   -1.8687394   -1.8687394   -1.2534085  0.030452839   -1.8687394   0.61533091   229291 
16760000   0.26697884   -1.8697657   -1.8697657   -1.2523498  0.034395236   -1.8697657   0.61741588   229173 
16770000   0.26659657   -1.8712373   -1.8712373   -1.2543878  0.029137145   -1.8712373   0.61684944   229055 
16780000   0.26653345   -1.8705683   -1.8705683   -1.2535497  0.028564605   -1.8705683   0.61701857   228938 
16790000   0.26543219   -1.8697271   -1.8697271   -1.2549411  0.021518594   -1.8697271   0.61478606   228820 
16800000   0.26649963   -1.8727784   -1.8727784   -1.2552015  0.025629473   -1.8727784   0.61757691   228702 
16810000   0.26559455   -1.8687949   -1.8687949   -1.2530004  0.031435659   -1.8687949   0.61579453   228585 
16820000   0.26558186   -1.8702446   -1.8702446   -1.2541614  0.019518291   -1.8702446   0.61608314   228467 
16830000   0.26505784     -1.86702     -1.86702   -1.2518347  0.025124611     -1.86702   0.61518529   228349 
16840000   0.26498606   -1.8671602   -1.8671602   -1.2518262   0.02536578   -1.8671602   0.61533397   228232 
16850000   0.26450895   -1.8655398   -1.8655398    -1.250996  0.025171048   -1.8655398   0.61454379   228114 
16860000   0.26391214   -1.8676625   -1.8676625   -1.2541907  0.024748006   -1.8676625   0.61347185   227997 
16870000   0.26466594   -1.8631802   -1.8631802   -1.2476376  0.016825739   -1.8631802   0.61554266   227879 
16880000   0.26459138   -1.8642272   -1.8642272   -1.2485391  0.027803416   -1.8642272   0.61568806   227761 
16890000   0.26389816   -1.8604932   -1.8604932   -1.2461026  0.026709717   -1.8604932   0.61439059   227644 
16900000    0.2637076   -1.8595567   -1.8595567   -1.2452913  0.022904429   -1.8595567   0.61426535   227526 
16910000   0.26353823   -1.8591649   -1.8591649   -1.2449756  0.029439543   -1.8591649   0.61418936   227408 
16920000   0.26474922   -1.8645294   -1.8645294   -1.2472002  0.031743347   -1.8645294   0.61732923   227291 
16930000   0.26306208   -1.8619513   -1.8619513   -1.2482374  0.027240208   -1.8619513   0.61371386   227173 
16940000   0.26360914   -1.8640926   -1.8640926   -1.2487828  0.029275869   -1.8640926   0.61530975   227055 
16950000    0.2625399   -1.8564945   -1.8564945   -1.2433646  0.020051433   -1.8564945   0.61312989   226938 
16960000   0.26298402   -1.8598231   -1.8598231   -1.2453365  0.023884702   -1.8598231   0.61448659   226820 
16970000   0.26154235   -1.8603341   -1.8603341    -1.248898  0.032523374   -1.8603341    0.6114361   226702 
16980000   0.26186958   -1.8582351   -1.8582351   -1.2457179  0.019512589   -1.8582351    0.6125172   226585 
16990000   0.26093596   -1.8552193   -1.8552193   -1.2445678  0.030016951   -1.8552193   0.61065146   226467 
17000000   0.26133797   -1.8582537   -1.8582537   -1.2463426  0.028002698   -1.8582537    0.6119111   226349 
17010000   0.26174644   -1.8593103   -1.8593103   -1.2461259  0.028617353   -1.8593103   0.61318446   226232 
17020000   0.26149326   -1.8547052   -1.8547052   -1.2417941  0.027948159   -1.8547052   0.61291103   226114 
17030000   0.26140088   -1.8578772   -1.8578772   -1.2448655  0.026252704   -1.8578772   0.61301171   225997 
17040000    0.2611725   -1.8545679   -1.8545679   -1.2417718  0.031174705   -1.8545679   0.61279608   225879 
17050000   0.26064185   -1.8530451   -1.8530451   -1.2411744  0.030099721   -1.8530451   0.61187065   225761 
17060000   0.26111968   -1.8580564   -1.8580564   -1.2447461  0.031709536   -1.8580564   0.61331024   225644 
17070000    0.2605143   -1.8546195   -1.8546195    -1.242411  0.027692769   -1.8546195    0.6122085   225526 
17080000   0.26064382    -1.855881    -1.855881   -1.2430475   0.03275397    -1.855881   0.61283351   225408 
17090000   0.26071657   -1.8529099   -1.8529099    -1.239587  0.028194031   -1.8529099   0.61332291   225291 
17100000   0.26037338   -1.8515231   -1.8515231   -1.2386866  0.025273466   -1.8515231   0.61283655   225173 
17110000   0.26047587   -1.8530165   -1.8530165   -1.2396173   0.02947718   -1.8530165   0.61339923   225055 
17120000   0.26000423   -1.8503717   -1.8503717   -1.2377647  0.027263318   -1.8503717   0.61260703   224938 
17130000   0.25963817   -1.8526297   -1.8526297   -1.2405641  0.021227771   -1.8526297   0.61206562   224820 
17140000   0.25956413    -1.854468    -1.854468   -1.2422555  0.028571951    -1.854468   0.61221242   224702 
17150000   0.25870673   -1.8499434   -1.8499434   -1.2394353  0.021295722   -1.8499434   0.61050803   224585 
17160000   0.25961224   -1.8545291   -1.8545291   -1.2415621  0.025799371   -1.8545291   0.61296694   224467 
17170000   0.25849928   -1.8500901   -1.8500901   -1.2394299  0.025377144   -1.8500901   0.61066016   224349 
17180000    0.2581043   -1.8531991   -1.8531991   -1.2431538  0.026496053   -1.8531991   0.61004524   224232 
17190000   0.25841728   -1.8556127   -1.8556127   -1.2445061  0.039013564   -1.8556127   0.61110659   224114 
17200000   0.25766423   -1.8542954   -1.8542954   -1.2446514  0.022495397   -1.8542954   0.60964403   223997 
17210000   0.25758348   -1.8521344   -1.8521344   -1.2423602  0.027552154   -1.8521344   0.60977421   223879 
17220000   0.25732113   -1.8539802   -1.8539802   -1.2445058  0.019587265   -1.8539802   0.60947438   223761 
17230000   0.25682067   -1.8539526   -1.8539526   -1.2453453  0.022654907   -1.8539526   0.60860726   223644 
17240000   0.25625673   -1.8519263   -1.8519263   -1.2443349  0.027613298   -1.8519263   0.60759142   223526 
17250000   0.25667495   -1.8527263   -1.8527263   -1.2438218  0.024286383   -1.8527263   0.60890448   223408 
17260000   0.25757966   -1.8515304   -1.8515304   -1.2401595  0.027266589   -1.8515304   0.61137089   223291 
17270000   0.25748993   -1.8521288   -1.8521288   -1.2406477  0.028467417   -1.8521288   0.61148105   223173 
17280000   0.25680981   -1.8481806   -1.8481806    -1.237992  0.023160144   -1.8481806   0.61018853   223055 
17290000   0.25654401   -1.8470901   -1.8470901   -1.2372132  0.024989325   -1.8470901    0.6098769   222938 
17300000   0.25558349   -1.8467843   -1.8467843   -1.2388691  0.025433675   -1.8467843   0.60791522   222820 
17310000   0.25546022   -1.8450843   -1.8450843   -1.2371403  0.027414659   -1.8450843   0.60794398   222702 
17320000   0.25578063   -1.8467378   -1.8467378   -1.2377113  0.024724105   -1.8467378   0.60902646   222585 
17330000   0.25617373   -1.8472904   -1.8472904   -1.2370044  0.020052136   -1.8472904   0.61028598   222467 
17340000   0.25565725   -1.8455952   -1.8455952   -1.2362164   0.03062395   -1.8455952   0.60937877   222349 
17350000    0.2550453   -1.8454225   -1.8454225   -1.2371823  0.023039623   -1.8454225   0.60824021   222232 
17360000   0.25553692   -1.8458082   -1.8458082   -1.2360718  0.025236054   -1.8458082   0.60973639   222114 
17370000   0.25438552   -1.8440716   -1.8440716   -1.2367626  0.030692789   -1.8440716   0.60730894   221997 
17380000   0.25506571   -1.8458002   -1.8458002   -1.2365436  0.019417991   -1.8458002   0.60925665   221879 
17390000   0.25495172   -1.8452732   -1.8452732   -1.2359648  0.022868809   -1.8452732   0.60930841   221761 
17400000   0.25289406   -1.8408253   -1.8408253   -1.2361154   0.02835529   -1.8408253   0.60470985   221644 
17410000   0.25452382   -1.8420909   -1.8420909   -1.2331598  0.030302194   -1.8420909   0.60893105   221526 
17420000   0.25245229   -1.8387151   -1.8387151   -1.2344182  0.024413195   -1.8387151   0.60429696   221408 
17430000   0.25343789   -1.8409658   -1.8409658   -1.2339889  0.029417663   -1.8409658   0.60697694   221291 
17440000   0.25346554    -1.840179    -1.840179   -1.2328119  0.023914759    -1.840179   0.60736702   221173 
17450000   0.25319266   -1.8397967   -1.8397967   -1.2327597  0.018608771   -1.8397967   0.60703702   221055 
17460000   0.25264673   -1.8378869   -1.8378869    -1.231838  0.027849714   -1.8378869    0.6060489   220938 
17470000    0.2532166   -1.8408811   -1.8408811   -1.2331406  0.024309643   -1.8408811   0.60774047   220820 
17480000   0.25214043   -1.8377808   -1.8377808   -1.2322996   0.02995866   -1.8377808   0.60548115   220702 
17490000   0.25288418   -1.8362776   -1.8362776   -1.2286884  0.025192275   -1.8362776   0.60758925   220585 
17500000   0.25234029   -1.8348474   -1.8348474   -1.2282405  0.023348743   -1.8348474   0.60660699   220467 
17510000   0.25187187   -1.8373016   -1.8373016   -1.2314964  0.028343974   -1.8373016   0.60580519   220349 
17520000   0.25130639   -1.8335811   -1.8335811   -1.2288149  0.026679789   -1.8335811   0.60476619   220232 
17530000   0.25159265    -1.837109    -1.837109   -1.2313293  0.027244891    -1.837109   0.60577966   220114 
17540000   0.25254339   -1.8362929   -1.8362929   -1.2279007  0.029678538   -1.8362929   0.60839221   219997 
17550000   0.25178638   -1.8334975   -1.8334975   -1.2266034   0.02725652   -1.8334975   0.60689405   219879 
17560000   0.25154171   -1.8330283   -1.8330283   -1.2263984  0.022753639   -1.8330283   0.60662986   219761 
17570000   0.25116608   -1.8341174   -1.8341174   -1.2280707  0.030057431   -1.8341174   0.60604664   219644 
17580000   0.25115759   -1.8337641   -1.8337641   -1.2274122  0.028286077   -1.8337641    0.6063519   219526 
17590000   0.25004844   -1.8307372   -1.8307372   -1.2267384  0.024750755   -1.8307372   0.60399881   219408 
17600000   0.25021897   -1.8311574   -1.8311574   -1.2264242  0.031315751   -1.8311574   0.60473321   219291 
17610000   0.24985286   -1.8342935   -1.8342935     -1.23012  0.027719138   -1.8342935   0.60417349   219173 
17620000   0.25019758   -1.8337427   -1.8337427   -1.2284097  0.026590854   -1.8337427   0.60533298   219055 
17630000   0.24986994     -1.83096     -1.83096   -1.2260967  0.025895202     -1.83096   0.60486335   218938 
17640000   0.24989326   -1.8301682   -1.8301682   -1.2249222  0.024229575   -1.8301682   0.60524601   218820 
17650000   0.24939054   -1.8296299   -1.8296299   -1.2252756  0.028323151   -1.8296299   0.60435431   218702 
17660000   0.24996182   -1.8331078   -1.8331078   -1.2270449  0.025392883   -1.8331078   0.60606294   218585 
17670000   0.24865103   -1.8293413   -1.8293413   -1.2261309  0.029149788   -1.8293413    0.6032104   218467 
17680000   0.24877858   -1.8274152   -1.8274152   -1.2235692  0.027272663   -1.8274152   0.60384597   218349 
17690000   0.24914841   -1.8317839   -1.8317839    -1.226716  0.027267198   -1.8317839   0.60506786   218232 
17700000   0.24926247   -1.8313654   -1.8313654    -1.225693  0.026273258   -1.8313654   0.60567235   218114 
17710000   0.24748855   -1.8315076   -1.8315076   -1.2298229  0.029241102   -1.8315076   0.60168473   217997 
17720000   0.24834128   -1.8323475   -1.8323475   -1.2282626  0.027872114   -1.8323475   0.60408484   217879 
17730000   0.24770416   -1.8296792   -1.8296792   -1.2268177  0.027943987   -1.8296792   0.60286156   217761 
17740000    0.2476744   -1.8318417   -1.8318417   -1.2287285  0.024974091   -1.8318417   0.60311319   217644 
17750000    0.2468564   -1.8319288   -1.8319288   -1.2304814   0.03049759   -1.8319288   0.60144735   217526 
17760000   0.24687205   -1.8291872   -1.8291872   -1.2273753  0.022784035   -1.8291872   0.60181193   217408 
17770000   0.24797909   -1.8331636   -1.8331636   -1.2283275  0.025419984   -1.8331636   0.60483613   217291 
17780000    0.2471927    -1.831323    -1.831323   -1.2280773  0.023366955    -1.831323   0.60324567   217173 
17790000   0.24682805    -1.830312    -1.830312   -1.2276288  0.026647075    -1.830312   0.60268323   217055 
17800000   0.24624263   -1.8300861   -1.8300861    -1.228508  0.024900374   -1.8300861   0.60157809   216938 
17810000   0.24575531   -1.8302133   -1.8302133    -1.229499  0.029358069   -1.8302133    0.6007143   216820 
17820000   0.24580029   -1.8283083   -1.8283083   -1.2271569  0.028916821   -1.8283083   0.60115141   216702 
17830000   0.24498407    -1.830284    -1.830284   -1.2308052  0.027443785    -1.830284   0.59947884   216585 
17840000   0.24422462   -1.8273146   -1.8273146   -1.2293684  0.019220397   -1.8273146   0.59794624   216467 
17850000   0.24501814   -1.8281231   -1.8281231   -1.2279069  0.025354406   -1.8281231   0.60021624   216349 
17860000   0.24508731    -1.827786    -1.827786   -1.2270754  0.026562724    -1.827786   0.60071056   216232 
17870000   0.24544546   -1.8277748   -1.8277748   -1.2258579  0.024004474   -1.8277748   0.60191684   216114 
17880000   0.24472297   -1.8253835   -1.8253835   -1.2249134  0.021601811   -1.8253835   0.60047015   215997 
17890000   0.24474826   -1.8234045   -1.8234045   -1.2225441  0.028809983   -1.8234045   0.60086043   215879 
17900000   0.24477085     -1.82213     -1.82213   -1.2208855  0.032431417     -1.82213   0.60124454   215761 
17910000    0.2439685    -1.821491    -1.821491   -1.2218922  0.023441886    -1.821491   0.59959883   215644 
17920000   0.24423258   -1.8208119   -1.8208119   -1.2202354  0.026989145   -1.8208119   0.60057649   215526 
17930000   0.24352273   -1.8226074   -1.8226074   -1.2234485  0.024293639   -1.8226074   0.59915898   215408 
17940000   0.24326985   -1.8225378   -1.8225378   -1.2236758  0.025267669   -1.8225378   0.59886207   215291 
17950000   0.24264429   -1.8193935   -1.8193935   -1.2217438  0.025489912   -1.8193935   0.59764969   215173 
17960000   0.24374989   -1.8233287   -1.8233287   -1.2226264  0.024458872   -1.8233287   0.60070228   215055 
17970000   0.24334991   -1.8231134   -1.8231134   -1.2230704  0.025067734   -1.8231134   0.60004303   214938 
17980000   0.24305644   -1.8208067   -1.8208067   -1.2211581   0.01714877   -1.8208067    0.5996486   214820 
17990000   0.24275219   -1.8188427   -1.8188427   -1.2196156  0.021388249   -1.8188427   0.59922713   214702 
18000000    0.2426263   -1.8179294   -1.8179294   -1.2186865  0.031285717   -1.8179294   0.59924293   214585 
18010000   0.24207041   -1.8169836   -1.8169836   -1.2187847  0.030765416   -1.8169836   0.59819893   214467 
18020000   0.24210069   -1.8164359   -1.8164359   -1.2178328   0.03048467   -1.8164359    0.5986031   214349 
18030000   0.24211615   -1.8149292   -1.8149292   -1.2159609  0.023002385   -1.8149292   0.59896828   214232 
18040000   0.24132111   -1.8144003   -1.8144003   -1.2170698  0.026657358   -1.8144003   0.59733045   214114 
18050000   0.24136131   -1.8155426   -1.8155426    -1.217786  0.025745747   -1.8155426   0.59775658   213997 
18060000   0.24133946   -1.8158468   -1.8158468   -1.2178146  0.024502915   -1.8158468   0.59803224   213879 
18070000   0.24129682    -1.816399    -1.816399   -1.2181424  0.022346912    -1.816399   0.59825663   213761 
18080000   0.24109419   -1.8173783   -1.8173783   -1.2192967  0.021972048   -1.8173783    0.5980816   213644 
18090000   0.24089939   -1.8158023   -1.8158023   -1.2178737  0.028459145   -1.8158023   0.59792862   213526 
18100000   0.24061605   -1.8133315   -1.8133315    -1.215776  0.030254157   -1.8133315   0.59755556   213408 
18110000   0.23952404   -1.8155733   -1.8155733   -1.2204034  0.024450889   -1.8155733   0.59516993   213291 
18120000   0.23980716   -1.8129666   -1.8129666   -1.2167634  0.026508739   -1.8129666   0.59620325   213173 
18130000   0.23940874   -1.8148238   -1.8148238   -1.2192814  0.031282581   -1.8148238   0.59554236   213055 
18140000   0.23969808   -1.8142696   -1.8142696   -1.2176799  0.021500048   -1.8142696   0.59658973   212938 
18150000   0.23908887   -1.8155976   -1.8155976   -1.2201942  0.024085076   -1.8155976    0.5954034   212820 
18160000   0.23944598   -1.8164423   -1.8164423   -1.2198188  0.019898654   -1.8164423   0.59662352   212702 
18170000   0.23900323   -1.8142274   -1.8142274   -1.2183793  0.027074178   -1.8142274   0.59584809   212585 
18180000   0.23843668   -1.8100372   -1.8100372   -1.2152714  0.030661228   -1.8100372   0.59476578   212467 
18190000    0.2390539    -1.814486    -1.814486   -1.2178492  0.028296042    -1.814486   0.59663676   212349 
18200000   0.23785872   -1.8114886   -1.8114886   -1.2175075  0.021372562   -1.8114886   0.59398108   212232 
18210000   0.23813248   -1.8139683   -1.8139683   -1.2189728  0.031425451   -1.8139683   0.59499553   212114 
18220000   0.23773576   -1.8087349   -1.8087349   -1.2144028  0.024346761   -1.8087349   0.59433211   211997 
18230000   0.23770095    -1.808255    -1.808255    -1.213679  0.025924537    -1.808255   0.59457603   211879 
18240000   0.23752568   -1.8082517   -1.8082517    -1.213783  0.019407849   -1.8082517    0.5944687   211761 
18250000   0.23699777   -1.8084552   -1.8084552   -1.2149799  0.022459023   -1.8084552   0.59347537   211644 
18260000   0.23677051   -1.8098222   -1.8098222   -1.2165852  0.020501014   -1.8098222   0.59323703   211526 
18270000    0.2366403    -1.809426    -1.809426   -1.2161842  0.023003215    -1.809426   0.59324173   211408 
18280000   0.23633238   -1.8064956   -1.8064956   -1.2136978  0.026940106   -1.8064956   0.59279786   211291 
18290000   0.23648745   -1.8036416   -1.8036416   -1.2101233  0.027630616   -1.8036416   0.59351829   211173 
18300000    0.2371708   -1.8046035   -1.8046035   -1.2090374  0.028497976   -1.8046035    0.5955661   211055 
18310000   0.23622474   -1.8062034   -1.8062034   -1.2126839  0.028126803   -1.8062034   0.59351944   210938 
18320000   0.23641669   -1.8049889   -1.8049889   -1.2106547  0.029297499   -1.8049889    0.5943342   210820 
18330000   0.23575506   -1.8050544   -1.8050544   -1.2120516  0.024177318   -1.8050544   0.59300282   210702 
18340000   0.23567087   -1.8040422   -1.8040422   -1.2109218  0.030492857   -1.8040422   0.59312041   210585 
18350000   0.23582852   -1.8043446   -1.8043446   -1.2104946  0.022791937   -1.8043446   0.59384994   210467 
18360000   0.23532632   -1.8029104   -1.8029104   -1.2099926  0.027101807   -1.8029104   0.59291774   210349 
18370000     0.233917    -1.798915    -1.798915   -1.2092202  0.017212499    -1.798915   0.58969488   210232 
18380000   0.23519591   -1.8018703   -1.8018703   -1.2086184  0.027138106   -1.8018703   0.59325195   210114 
18390000   0.23531847   -1.8022008   -1.8022008    -1.208309  0.020094148   -1.8022008    0.5938918   209997 
18400000   0.23422396   -1.7991471   -1.7991471   -1.2076852  0.023681711   -1.7991471   0.59146184   209879 
18410000   0.23396706   -1.7990055   -1.7990055   -1.2078601  0.022278697   -1.7990055   0.59114548   209761 
18420000   0.23447934   -1.7978301   -1.7978301   -1.2050596  0.023924322   -1.7978301   0.59277046   209644 
18430000   0.23375381   -1.7968499   -1.7968499   -1.2055808  0.026217274   -1.7968499   0.59126907   209526 
18440000   0.23314104   -1.7947477   -1.7947477   -1.2046963  0.026838823   -1.7947477   0.59005141   209408 
18450000   0.23357092   -1.7957108   -1.7957108    -1.204241  0.022101091   -1.7957108   0.59146986   209291 
18460000   0.23343253   -1.7959967   -1.7959967   -1.2045438  0.025203771   -1.7959967   0.59145289   209173 
18470000   0.23307205   -1.7938806   -1.7938806   -1.2030078  0.025914995   -1.7938806   0.59087285   209055 
18480000   0.23364205   -1.7945346   -1.7945346    -1.201885  0.022343579   -1.7945346   0.59264958   208938 
18490000   0.23357851   -1.7926852   -1.7926852    -1.199862  0.026753061   -1.7926852   0.59282319   208820 
18500000    0.2332558   -1.7954561   -1.7954561   -1.2031172  0.025715455   -1.7954561   0.59233888   208702 
18510000   0.23171133   -1.7948648   -1.7948648    -1.206118  0.023963838   -1.7948648   0.58874686   208585 
18520000   0.23208617   -1.7916793   -1.7916793   -1.2016463  0.023529294   -1.7916793   0.59003306   208467 
18530000   0.23200813   -1.7917148   -1.7917148   -1.2015461  0.028050149   -1.7917148   0.59016871   208349 
18540000   0.23150527   -1.7896897   -1.7896897   -1.2004693  0.031379484   -1.7896897   0.58922045   208232 
18550000   0.23167609   -1.7906121   -1.7906121   -1.2006226  0.026442372   -1.7906121   0.58998954   208114 
18560000   0.23236888   -1.7883337   -1.7883337    -1.196247  0.029415479   -1.7883337   0.59208669   207997 
18570000   0.23119585   -1.7899297   -1.7899297   -1.2004975  0.025021817   -1.7899297   0.58943215   207879 
18580000   0.23166578   -1.7893255   -1.7893255   -1.1983598  0.024855985   -1.7893255   0.59096567   207761 
18590000    0.2306655   -1.7859726   -1.7859726    -1.197227  0.026238124   -1.7859726   0.58874557   207644 
18600000   0.23074734   -1.7882072   -1.7882072   -1.1989178  0.026875091   -1.7882072   0.58928935   207526 
18610000   0.23089396   -1.7848301   -1.7848301   -1.1948308  0.021186176   -1.7848301   0.58999927   207408 
18620000   0.22999921   -1.7854742   -1.7854742   -1.1974296  0.024150205   -1.7854742   0.58804463   207291 
18630000   0.23046607   -1.7845326   -1.7845326   -1.1949587  0.021218713   -1.7845326   0.58957389   207173 
18640000    0.2304451   -1.7851283   -1.7851283   -1.1952721   0.02541789   -1.7851283    0.5898562   207055 
18650000   0.22940519   -1.7836514   -1.7836514    -1.196125  0.023830046   -1.7836514    0.5875264   206938 
18660000     0.229259   -1.7830804   -1.7830804   -1.1955934  0.026025279   -1.7830804     0.587487   206820 
18670000   0.22924173   -1.7817652   -1.7817652   -1.1939871  0.023478087   -1.7817652    0.5877781   206702 
18680000   0.22919108   -1.7826693   -1.7826693   -1.1946883  0.022451638   -1.7826693   0.58798104   206585 
18690000   0.22936685   -1.7810911   -1.7810911   -1.1923228  0.023613671   -1.7810911   0.58876827   206467 
18700000   0.22870061   -1.7793734   -1.7793734   -1.1919796  0.025089185   -1.7793734   0.58739379   206349 
18710000   0.22848214   -1.7785762   -1.7785762   -1.1914106  0.025596908   -1.7785762   0.58716559   206232 
18720000   0.22787691   -1.7774142   -1.7774142   -1.1914687  0.024184515   -1.7774142    0.5859455   206114 
18730000   0.22906501    -1.782596    -1.782596    -1.193261  0.030030332    -1.782596   0.58933504   205997 
18740000   0.22772729   -1.7777647   -1.7777647   -1.1915356  0.022086047   -1.7777647   0.58622916   205879 
18750000   0.22772739   -1.7789827   -1.7789827    -1.192417  0.031941613   -1.7789827   0.58656562   205761 
18760000   0.22806123   -1.7765962   -1.7765962   -1.1888365   0.02631042   -1.7765962   0.58775972   205644 
18770000   0.22772505   -1.7792927   -1.7792927   -1.1920625  0.027951808   -1.7792927   0.58723028   205526 
18780000   0.22734194   -1.7772762   -1.7772762   -1.1906971  0.021716895   -1.7772762   0.58657912   205408 
18790000   0.22780252   -1.7795176   -1.7795176   -1.1914151  0.020951185   -1.7795176   0.58810248   205291 
18800000   0.22693001   -1.7788171   -1.7788171   -1.1926302  0.030897902   -1.7788171   0.58618691   205173 
18810000   0.22631845   -1.7759802   -1.7759802   -1.1910366  0.027248549   -1.7759802   0.58494359   205055 
18820000   0.22605654   -1.7757993   -1.7757993   -1.1911991  0.014980818   -1.7757993   0.58460023   204938 
18830000   0.22607304   -1.7765581   -1.7765581   -1.1915784  0.026303735   -1.7765581   0.58497972   204820 
18840000    0.2263498    -1.776668    -1.776668   -1.1906346  0.024251115    -1.776668   0.58603348   204702 
18850000   0.22604841   -1.7771229   -1.7771229   -1.1915351   0.02355379   -1.7771229   0.58558787   204585 
18860000    0.2253888    -1.776347    -1.776347   -1.1921309  0.029385725    -1.776347   0.58421608   204467 
18870000   0.22531468   -1.7733207   -1.7733207   -1.1889595  0.031137024   -1.7733207   0.58436119   204349 
18880000   0.22463851    -1.774608    -1.774608   -1.1916667  0.025778969    -1.774608   0.58294128   204232 
18890000   0.22536559   -1.7751585   -1.7751585   -1.1899923  0.024353719   -1.7751585   0.58516617   204114 
18900000   0.22459524   -1.7732874   -1.7732874    -1.189787   0.01673252   -1.7732874    0.5835004   203997 
18910000   0.22382428   -1.7727451   -1.7727451   -1.1909111  0.033491347   -1.7727451     0.581834   203879 
18920000   0.22468162   -1.7738255   -1.7738255   -1.1894246   0.02505531   -1.7738255   0.58440092   203761 
18930000   0.22452962   -1.7746811   -1.7746811     -1.19034  0.026646346   -1.7746811   0.58434107   203644 
18940000   0.22417586   -1.7702041   -1.7702041   -1.1864455  0.027642932   -1.7702041   0.58375866   203526 
18950000   0.22493667    -1.774052    -1.774052   -1.1879724  0.024190659    -1.774052   0.58607964   203408 
18960000   0.22461025   -1.7745693   -1.7745693   -1.1890034   0.03019814   -1.7745693   0.58556596   203291 
18970000    0.2241807   -1.7737321   -1.7737321   -1.1889466  0.033195966   -1.7737321   0.58478553   203173 
18980000   0.22283397   -1.7689872   -1.7689872   -1.1873769  0.026490943   -1.7689872   0.58161032   203055 
18990000    0.2239073   -1.7697519   -1.7697519   -1.1850032  0.022630719   -1.7697519   0.58474871   202938 
19000000   0.22348842   -1.7701698   -1.7701698   -1.1861754  0.027162905   -1.7701698   0.58399435   202820 
19010000   0.22387416    -1.769665    -1.769665   -1.1843222  0.019634425    -1.769665   0.58534287   202702 
19020000   0.22291355    -1.769192    -1.769192   -1.1860242  0.029717192    -1.769192   0.58316786   202585 
19030000   0.22317544   -1.7711269   -1.7711269   -1.1869336  0.027786172   -1.7711269   0.58419328   202467 
19040000   0.22250548   -1.7666504   -1.7666504   -1.1838712  0.025784122   -1.7666504    0.5827792   202349 
19050000   0.22315307     -1.77152     -1.77152   -1.1867065  0.023789297     -1.77152    0.5848135   202232 
19060000    0.2225427   -1.7707318   -1.7707318   -1.1871774  0.021612292   -1.7707318    0.5835544   202114 
19070000   0.22159184   -1.7698816   -1.7698816    -1.188484  0.023174791   -1.7698816    0.5813976   201997 
19080000   0.22125613   -1.7688976   -1.7688976   -1.1880415  0.021915736   -1.7688976    0.5808561   201879 
19090000   0.22082094    -1.766509    -1.766509   -1.1864564  0.026517024    -1.766509   0.58005267   201761 
19100000   0.22096086   -1.7689396   -1.7689396   -1.1881826  0.025454311   -1.7689396   0.58075698   201644 
19110000   0.22043709   -1.7674764   -1.7674764   -1.1877568  0.024906578   -1.7674764    0.5797196   201526 
19120000   0.22058796   -1.7684485   -1.7684485   -1.1879923  0.033524279   -1.7684485   0.58045624   201408 
19130000   0.22039824   -1.7637824   -1.7637824   -1.1834883  0.027988388   -1.7637824   0.58029412   201291 
19140000   0.22049895   -1.7626772   -1.7626772   -1.1817775  0.020848569   -1.7626772   0.58089979   201173 
19150000   0.22010156   -1.7628363   -1.7628363    -1.182643  0.021313273   -1.7628363   0.58019321   201055 
19160000   0.21969065   -1.7619033   -1.7619033   -1.1824561  0.024321698   -1.7619033   0.57944723   200938 
19170000   0.21907408   -1.7620974   -1.7620974   -1.1839369  0.029460764   -1.7620974   0.57816051   200820 
19180000   0.21851845    -1.761677    -1.761677   -1.1846437  0.021695624    -1.761677   0.57703322   200702 
19190000   0.21954477   -1.7601193   -1.7601193   -1.1800377  0.025126759   -1.7601193   0.58008154   200585 
19200000   0.21873523   -1.7605511   -1.7605511   -1.1822684  0.018369878   -1.7605511   0.57828277   200467 
19210000    0.2193568   -1.7619891   -1.7619891   -1.1817215  0.025843593   -1.7619891   0.58026759   200349 
19220000   0.21854883   -1.7598174   -1.7598174   -1.1813493  0.022083968   -1.7598174   0.57846807   200232 
19230000   0.21870002    -1.760645    -1.760645   -1.1814354  0.024565128    -1.760645   0.57920959   200114 
19240000   0.21875417   -1.7615471   -1.7615471   -1.1818552  0.026090536   -1.7615471   0.57969192   199997 
19250000   0.21750318   -1.7553579   -1.7553579   -1.1786408  0.022783764   -1.7553579   0.57671711   199879 
19260000   0.21808618   -1.7588863   -1.7588863   -1.1802818  0.028986815   -1.7588863   0.57860456   199761 
19270000   0.21772847   -1.7562387   -1.7562387   -1.1782447  0.022301416   -1.7562387   0.57799403   199644 
19280000   0.21812983   -1.7540076   -1.7540076   -1.1746057  0.024018108   -1.7540076   0.57940197   199526 
19290000   0.21766173   -1.7566222   -1.7566222   -1.1781215  0.026405565   -1.7566222   0.57850072   199408 
19300000   0.21716926   -1.7533467   -1.7533467    -1.175816  0.021034128   -1.7533467    0.5775307   199291 
19310000    0.2164922   -1.7520122   -1.7520122   -1.1759409  0.024603427   -1.7520122   0.57607123   199173 
19320000   0.21654556   -1.7573269   -1.7573269   -1.1807721  0.027241139   -1.7573269    0.5765548   199055 
19330000   0.21663108    -1.754341    -1.754341   -1.1772193  0.024062239    -1.754341   0.57712171   198938 
19340000   0.21628068   -1.7535948   -1.7535948   -1.1770646   0.02209141   -1.7535948   0.57653019   198820 
19350000   0.21647626   -1.7529647   -1.7529647   -1.1755704  0.026716984   -1.7529647   0.57739423   198702 
19360000   0.21670758   -1.7530255   -1.7530255   -1.1746737  0.027243746   -1.7530255   0.57835177   198585 
19370000   0.21706278   -1.7520638   -1.7520638   -1.1724196  0.023081332   -1.7520638   0.57964414   198467 
19380000   0.21529449   -1.7497497   -1.7497497   -1.1744856   0.02446419   -1.7497497   0.57526413   198349 
19390000   0.21564758   -1.7509495   -1.7509495   -1.1744018  0.023380134   -1.7509495   0.57654767   198232 
19400000   0.21578672    -1.750106    -1.750106   -1.1728427  0.024715516    -1.750106   0.57726328   198114 
19410000    0.2158249   -1.7502517   -1.7502517   -1.1725451  0.027149245   -1.7502517   0.57770661   197997 
19420000   0.21457327   -1.7453857   -1.7453857   -1.1706869  0.024330076   -1.7453857   0.57469881   197879 
19430000   0.21445871   -1.7466744   -1.7466744   -1.1719397  0.031403576   -1.7466744   0.57473472   197761 
19440000   0.21452316   -1.7460959   -1.7460959   -1.1708481  0.023311719   -1.7460959   0.57524778   197644 
19450000   0.21443532   -1.7478388   -1.7478388   -1.1724831  0.020111275   -1.7478388   0.57535573   197526 
19460000   0.21372351   -1.7478154   -1.7478154   -1.1740267  0.023049952   -1.7478154   0.57378864   197408 
19470000      0.21405   -1.7449983   -1.7449983   -1.1699923  0.024952351   -1.7449983   0.57500597   197291 
19480000   0.21351534   -1.7464794   -1.7464794   -1.1725665  0.025899442   -1.7464794   0.57391297   197173 
19490000   0.21397968   -1.7471326   -1.7471326   -1.1716271  0.022113661   -1.7471326    0.5755055   197055 
19500000   0.21312631   -1.7443584   -1.7443584   -1.1708075  0.026807197   -1.7443584   0.57355087   196938 
19510000   0.21268153    -1.742895    -1.742895    -1.170198    0.0259639    -1.742895   0.57269704   196820 
19520000   0.21333708   -1.7471848   -1.7471848   -1.1723779  0.024212845   -1.7471848    0.5748069   196702 
19530000   0.21213521   -1.7427977   -1.7427977   -1.1708889   0.02100142   -1.7427977   0.57190879   196585 
19540000   0.21199771   -1.7475309   -1.7475309   -1.1756495  0.017879943   -1.7475309   0.57188137   196467 
19550000   0.21166265   -1.7476289   -1.7476289   -1.1763082  0.029256924   -1.7476289   0.57132067   196349 
19560000   0.21114499    -1.747193    -1.747193   -1.1769298  0.019434439    -1.747193   0.57026319   196232 
19570000   0.21173764   -1.7471458   -1.7471458   -1.1749378  0.030719517   -1.7471458   0.57220792   196114 
19580000     0.211317   -1.7457555   -1.7457555   -1.1743435  0.029021224   -1.7457555   0.57141206   195997 
19590000   0.21064442   -1.7440603   -1.7440603   -1.1741238  0.016929486   -1.7440603   0.56993652   195879 
19600000   0.21177549    -1.745682    -1.745682   -1.1723398  0.026201963    -1.745682   0.57334221   195761 
19610000   0.21100424   -1.7447956   -1.7447956   -1.1731998  0.023731704   -1.7447956   0.57159581   195644 
19620000   0.21081623   -1.7436334   -1.7436334   -1.1722022  0.025379719   -1.7436334   0.57143118   195526 
19630000   0.21052976   -1.7430932   -1.7430932   -1.1720939  0.023009857   -1.7430932   0.57099926   195408 
19640000   0.21030474   -1.7427862   -1.7427862   -1.1720555   0.02781036   -1.7427862   0.57073068   195291 
19650000   0.21053009   -1.7415131   -1.7415131   -1.1698254  0.021465604   -1.7415131   0.57168768   195173 
19660000   0.21062502   -1.7422155   -1.7422155    -1.169924  0.024716694   -1.7422155   0.57229145   195055 
19670000   0.21023266   -1.7397755   -1.7397755   -1.1682072  0.021244663   -1.7397755   0.57156822   194938 
19680000   0.21005494   -1.7393917   -1.7393917   -1.1679607  0.024590876   -1.7393917   0.57143095   194820 
19690000   0.20948707    -1.738968    -1.738968   -1.1687365  0.029602911    -1.738968    0.5702315   194702 
19700000   0.20952018   -1.7394469   -1.7394469   -1.1687824  0.029412081   -1.7394469   0.57066456   194585 
19710000   0.20989703   -1.7454737   -1.7454737   -1.1734358  0.023763971   -1.7454737   0.57203787   194467 
19720000   0.20845202   -1.7398644   -1.7398644   -1.1714197  0.021121587   -1.7398644   0.56844466   194349 
19730000   0.20885283   -1.7356352   -1.7356352   -1.1657545  0.022172542   -1.7356352   0.56988075   194232 
19740000   0.20825698   -1.7359824   -1.7359824   -1.1673821  0.033876444   -1.7359824   0.56860034   194114 
19750000   0.20846412   -1.7356894   -1.7356894   -1.1661802  0.024788795   -1.7356894   0.56950914   193997 
19760000   0.20788904   -1.7353791   -1.7353791   -1.1670954  0.019915768   -1.7353791   0.56828374   193879 
19770000   0.20849699   -1.7353018   -1.7353018   -1.1650091  0.019106131   -1.7353018   0.57029272   193761 
19780000   0.20804232   -1.7371355   -1.7371355   -1.1677426  0.019991418   -1.7371355   0.56939289   193644 
19790000   0.20796783   -1.7384642   -1.7384642   -1.1689281  0.025204994   -1.7384642   0.56953609   193526 
19800000   0.20787963   -1.7396878   -1.7396878   -1.1700459  0.024213467   -1.7396878   0.56964187   193408 
19810000   0.20667261   -1.7379173   -1.7379173   -1.1712402  0.026883998   -1.7379173   0.56667713   193291 
19820000   0.20636789   -1.7341817   -1.7341817   -1.1679944  0.025376355   -1.7341817   0.56618727   193173 
19830000   0.20694906   -1.7357075   -1.7357075   -1.1675787  0.030890745   -1.7357075   0.56812878   193055 
19840000   0.20669663   -1.7346529   -1.7346529   -1.1668729  0.022301631   -1.7346529   0.56777992   192938 
19850000   0.20638819   -1.7317569   -1.7317569   -1.1644773  0.025924199   -1.7317569    0.5672796   192820 
19860000   0.20600872   -1.7312125   -1.7312125   -1.1646292  0.026372857   -1.7312125   0.56658331   192702 
19870000   0.20622976   -1.7337976   -1.7337976   -1.1662618  0.023740216   -1.7337976   0.56753583   192585 
19880000   0.20557331   -1.7326085   -1.7326085   -1.1665323  0.023850012   -1.7326085   0.56607614   192467 
19890000   0.20505813   -1.7315897   -1.7315897   -1.1665858  0.025495014   -1.7315897   0.56500393   192349 
19900000   0.20549482   -1.7277403   -1.7277403   -1.1611885  0.025467799   -1.7277403   0.56655176   192232 
19910000   0.20519218    -1.727592    -1.727592   -1.1615272  0.021564784    -1.727592   0.56606485   192114 
19920000   0.20548789   -1.7264495   -1.7264495   -1.1592234  0.024801373   -1.7264495   0.56722607   191997 
19930000   0.20521516   -1.7250153   -1.7250153   -1.1581937  0.019775707   -1.7250153    0.5668216   191879 
19940000   0.20446888   -1.7221205   -1.7221205   -1.1570127  0.023078162   -1.7221205   0.56510783   191761 
19950000   0.20476071   -1.7267247   -1.7267247   -1.1604648  0.023510617   -1.7267247    0.5662599   191644 
19960000   0.20459106   -1.7239719   -1.7239719   -1.1578326   0.02067329   -1.7239719   0.56613931   191526 
19970000   0.20345176   -1.7214393   -1.7214393   -1.1581056  0.023080658   -1.7214393   0.56333374   191408 
19980000    0.2042295   -1.7241474   -1.7241474   -1.1583143  0.030041409   -1.7241474   0.56583309   191291 
19990000   0.20381911   -1.7218917   -1.7218917   -1.1568471  0.022595427   -1.7218917   0.56504463   191173 
20000000   0.20382642    -1.722389    -1.722389   -1.1569752  0.027894757    -1.722389   0.56541387   191055 
20010000   0.20323405   -1.7231065   -1.7231065   -1.1589904  0.029083031   -1.7231065   0.56411611   190938 
20020000   0.20240722   -1.7220973   -1.7220973   -1.1599288  0.020339368   -1.7220973    0.5621685   190820 
20030000   0.20306568   -1.7223962   -1.7223962   -1.1580499  0.020768701   -1.7223962    0.5643463   190702 
20040000   0.20361425   -1.7239361   -1.7239361   -1.1577179  0.026394915   -1.7239361   0.56621822   190585 
20050000   0.20222005    -1.721689    -1.721689   -1.1589994  0.019222902    -1.721689   0.56268959   190467 
20060000   0.20161987   -1.7187461   -1.7187461   -1.1573788  0.019128953   -1.7187461   0.56136731   190349 
20070000   0.20159231   -1.7184138   -1.7184138    -1.156778  0.020536434   -1.7184138    0.5616358   190232 
20080000   0.20172388   -1.7188438   -1.7188438   -1.1564926  0.025942951   -1.7188438   0.56235118   190114 
20090000   0.20147203   -1.7155064   -1.7155064   -1.1535115  0.027109291   -1.7155064   0.56199497   189997 
20100000   0.20099308   -1.7156052   -1.7156052   -1.1545978  0.023374092   -1.7156052   0.56100738   189879 
20110000   0.20107941   -1.7151009   -1.7151009   -1.1535036  0.019297305   -1.7151009   0.56159733   189761 
20120000   0.19995914   -1.7143787   -1.7143787   -1.1555656  0.022950146   -1.7143787   0.55881306   189644 
20130000   0.20107098   -1.7186369   -1.7186369   -1.1563668  0.029820559   -1.7186369   0.56227012   189526 
20140000   0.20097392   -1.7183739   -1.7183739   -1.1560251  0.022157393   -1.7183739   0.56234881   189408 
20150000   0.19962162   -1.7170557   -1.7170557   -1.1581456  0.023912311   -1.7170557   0.55891017   189291 
20160000   0.20039445   -1.7164762   -1.7164762   -1.1550523  0.026544078   -1.7164762   0.56142396   189173 
20170000   0.19946593   -1.7130857   -1.7130857   -1.1539143  0.026864105   -1.7130857    0.5591714   189055 
20180000   0.19982525   -1.7136936   -1.7136936    -1.153168   0.02458912   -1.7136936    0.5605256   188938 
20190000   0.19909058   -1.7147614   -1.7147614   -1.1559476  0.023423526   -1.7147614    0.5588138   188820 
20200000   0.19934164   -1.7172911   -1.7172911   -1.1574228  0.023832302   -1.7172911   0.55986834   188702 
20210000   0.19841884   -1.7138292   -1.7138292   -1.1562069  0.025343328   -1.7138292   0.55762233   188585 
20220000   0.19879987   -1.7146168   -1.7146168   -1.1555739  0.022649273   -1.7146168   0.55904295   188467 
20230000   0.19922617    -1.712952    -1.712952   -1.1523593  0.024957121    -1.712952   0.56059273   188349 
20240000   0.19879998   -1.7126152   -1.7126152    -1.152874   0.02716852   -1.7126152    0.5597412   188232 
20250000   0.19845146   -1.7126077   -1.7126077   -1.1534973  0.025891684   -1.7126077   0.55911041   188114 
20260000   0.19808811   -1.7116356   -1.7116356   -1.1532016  0.023497152   -1.7116356   0.55843403   187997 
20270000   0.19838453   -1.7122022   -1.7122022   -1.1525813  0.020538313   -1.7122022   0.55962094   187879 
20280000   0.19670564   -1.7091056   -1.7091056   -1.1538719  0.021881661   -1.7091056    0.5552337   187761 
20290000   0.19741011   -1.7092785   -1.7092785   -1.1517088  0.026806284   -1.7092785   0.55756964   187644 
20300000   0.19799184   -1.7108964   -1.7108964   -1.1513318  0.024024557   -1.7108964   0.55956457   187526 
20310000   0.19746292   -1.7103171   -1.7103171    -1.151896  0.025207288   -1.7103171    0.5584211   187408 
20320000    0.1964581   -1.7106584   -1.7106584   -1.1547318  0.027086782   -1.7106584   0.55592655   187291 
20330000   0.19643213   -1.7090084   -1.7090084   -1.1528049  0.023701415   -1.7090084    0.5562035   187173 
20340000   0.19710981   -1.7073162   -1.7073162   -1.1488417  0.021684262   -1.7073162   0.55847447   187055 
20350000   0.19683621   -1.7063476   -1.7063476   -1.1482992  0.019425283   -1.7063476   0.55804831   186938 
20360000   0.19657379   -1.7064064   -1.7064064     -1.14875  0.019290158   -1.7064064   0.55765634   186820 
20370000   0.19560496   -1.7043455   -1.7043455   -1.1490869   0.02476661   -1.7043455   0.55525859   186702 
20380000   0.19557817    -1.701323    -1.701323   -1.1457923  0.021105679    -1.701323   0.55553067   186585 
20390000   0.19569033   -1.7024499   -1.7024499   -1.1462489  0.027339109   -1.7024499   0.55620101   186467 
20400000   0.19579513   -1.7042396   -1.7042396   -1.1473883  0.026192177   -1.7042396   0.55685128   186349 
20410000   0.19539344   -1.7030072   -1.7030072   -1.1469492  0.019446728   -1.7030072   0.55605797   186232 
20420000   0.19448762   -1.7006065   -1.7006065   -1.1467755   0.01956854   -1.7006065   0.55383108   186114 
20430000   0.19454098   -1.7047784   -1.7047784   -1.1504469   0.01865647   -1.7047784    0.5543315   185997 
20440000   0.19415927   -1.7013956   -1.7013956   -1.1478006  0.020342183   -1.7013956   0.55359505   185879 
20450000   0.19411373   -1.7001202   -1.7001202   -1.1463034  0.021097574   -1.7001202   0.55381678   185761 
20460000   0.19467383   -1.7034873   -1.7034873   -1.1477225   0.02202982   -1.7034873   0.55576482   185644 
20470000   0.19411357   -1.7036205   -1.7036205   -1.1491026  0.020213436   -1.7036205   0.55451783   185526 
20480000   0.19375252   -1.7011504   -1.7011504   -1.1473117  0.022396524   -1.7011504   0.55383868   185408 
20490000   0.19403775   -1.7013421   -1.7013421   -1.1463379  0.024706434   -1.7013421   0.55500424   185291 
20500000   0.19386958   -1.7009612   -1.7009612   -1.1460846  0.020522739   -1.7009612    0.5548766   185173 
20510000   0.19302924   -1.7004707   -1.7004707   -1.1476469   0.01865663   -1.7004707   0.55282373   185055 
20520000   0.19221758    -1.698866    -1.698866   -1.1480185  0.021429824    -1.698866   0.55084745   184938 
20530000   0.19276057   -1.7017319   -1.7017319   -1.1489756  0.015888625   -1.7017319   0.55275622   184820 
20540000   0.19299383    -1.699834    -1.699834   -1.1460553  0.023709667    -1.699834   0.55377867   184702 
20550000   0.19297744   -1.7015455   -1.7015455   -1.1474628  0.022844388   -1.7015455   0.55408264   184585 
20560000   0.19149794   -1.6989484   -1.6989484   -1.1487621  0.017358095   -1.6989484   0.55018636   184467 
20570000   0.19221257   -1.6982547   -1.6982547   -1.1456617  0.017670037   -1.6982547   0.55259302   184349 
20580000    0.1912684   -1.6965397   -1.6965397   -1.1463119   0.01981658   -1.6965397   0.55022785   184232 
20590000   0.19173852   -1.6986975   -1.6986975   -1.1467637  0.020990374   -1.6986975   0.55193376   184114 
20600000   0.19025601   -1.6972038   -1.6972038   -1.1491893  0.022371179   -1.6972038   0.54801448   183997 
20610000   0.19102404   -1.6994881   -1.6994881   -1.1489083  0.025692331   -1.6994881   0.55057983   183879 
20620000   0.19024397   -1.6968307   -1.6968307   -1.1481472  0.021561006   -1.6968307   0.54868355   183761 
20630000   0.19116745   -1.6993207   -1.6993207   -1.1476224  0.023055177   -1.6993207   0.55169823   183644 
20640000   0.18921853   -1.6924426   -1.6924426   -1.1460177  0.027073124   -1.6924426   0.54642487   183526 
20650000   0.19005092   -1.6990264   -1.6990264   -1.1498447  0.020294919   -1.6990264   0.54918176   183408 
20660000   0.18971425   -1.6946544   -1.6946544   -1.1460955  0.021751023   -1.6946544   0.54855883   183291 
20670000   0.18921716   -1.6923119   -1.6923119    -1.144838  0.030707264   -1.6923119   0.54747395   183173 
20680000   0.19009196   -1.6948035   -1.6948035   -1.1444439  0.020703945   -1.6948035    0.5503596   183055 
20690000   0.18932389   -1.6966677   -1.6966677   -1.1481813  0.021728284   -1.6966677   0.54848644   182938 
20700000   0.18884563   -1.6932765   -1.6932765   -1.1458225   0.01673504   -1.6932765   0.54745401   182820 
20710000   0.18885149   -1.6940259   -1.6940259   -1.1462013  0.016096588   -1.6940259   0.54782457   182702 
20720000   0.18967345   -1.6938917   -1.6938917   -1.1433302  0.025781697   -1.6938917    0.5505615   182585 
20730000    0.1887488   -1.6921789   -1.6921789    -1.143947  0.020549101   -1.6921789   0.54823186   182467 
20740000   0.18776369   -1.6919954   -1.6919954   -1.1462719  0.022035899   -1.6919954   0.54572345   182349 
20750000   0.18824213   -1.6914637   -1.6914637   -1.1439985   0.02064233   -1.6914637   0.54746529   182232 
20760000   0.18800712   -1.6884858   -1.6884858   -1.1413497  0.018346389   -1.6884858   0.54713609   182114 
20770000   0.18782249   -1.6872998   -1.6872998   -1.1403496  0.022910103   -1.6872998   0.54695018   181997 
20780000   0.18756457   -1.6892342   -1.6892342   -1.1426807  0.024259479   -1.6892342   0.54655344   181879 
20790000   0.18708674   -1.6880448   -1.6880448   -1.1425298  0.022175069   -1.6880448   0.54551499   181761 
20800000   0.18661555   -1.6893348   -1.6893348   -1.1448432  0.027319306   -1.6893348   0.54449157   181644 
20810000   0.18640631   -1.6868924   -1.6868924   -1.1426578    0.0174584   -1.6868924   0.54423461   181526 
20820000   0.18609804   -1.6889415   -1.6889415   -1.1452535  0.026074737   -1.6889415   0.54368801   181408 
20830000   0.18686216   -1.6867178   -1.6867178   -1.1404451  0.016401541   -1.6867178   0.54627274   181291 
20840000   0.18603415   -1.6839562   -1.6839562   -1.1397499  0.019383544   -1.6839562   0.54420633   181173 
20850000    0.1859091   -1.6870504   -1.6870504   -1.1428554  0.021586096   -1.6870504   0.54419498   181055 
20860000   0.18506718     -1.68168     -1.68168   -1.1395992  0.030626756     -1.68168   0.54208078   180938 
20870000   0.18544721   -1.6863418   -1.6863418   -1.1427934  0.016518471   -1.6863418   0.54354843   180820 
20880000   0.18513614   -1.6826802   -1.6826802   -1.1396891  0.021039049   -1.6826802   0.54299103   180702 
20890000   0.18453736   -1.6773401   -1.6773401   -1.1357546  0.018128201   -1.6773401    0.5415855   180585 
20900000   0.18530777   -1.6793191   -1.6793191   -1.1351169  0.023154422   -1.6793191   0.54420213   180467 
20910000    0.1851025   -1.6805295   -1.6805295   -1.1365745  0.021859905   -1.6805295   0.54395496   180349 
20920000   0.18495232   -1.6794233   -1.6794233   -1.1355568  0.018940175   -1.6794233   0.54386646   180232 
20930000   0.18480286   -1.6791421   -1.6791421   -1.1353591  0.019345957   -1.6791421   0.54378298   180114 
20940000   0.18415539   -1.6753597   -1.6753597   -1.1331297  0.029102741   -1.6753597   0.54223002   179997 
20950000   0.18438491   -1.6778809   -1.6778809   -1.1346189  0.028170237   -1.6778809   0.54326197   179879 
20960000   0.18428046   -1.6780375   -1.6780375   -1.1347268  0.020163737   -1.6780375   0.54331065   179761 
20970000   0.18358656   -1.6727798   -1.6727798   -1.1311625   0.02101867   -1.6727798   0.54161734   179644 
20980000   0.18425473   -1.6739334   -1.6739334   -1.1299875  0.019217372   -1.6739334   0.54394588   179526 
20990000   0.18353523   -1.6741924   -1.6741924   -1.1320142  0.025913738   -1.6741924   0.54217818   179408 
21000000    0.1839468   -1.6747704   -1.6747704   -1.1310218  0.024514337   -1.6747704   0.54374859   179291 
21010000   0.18279965   -1.6733286   -1.6733286   -1.1326151  0.021503217   -1.6733286   0.54071349   179173 
21020000   0.18334352   -1.6708325   -1.6708325   -1.1281529  0.017977668   -1.6708325   0.54267962   179055 
21030000   0.18249506   -1.6698902   -1.6698902   -1.1293688  0.023697498   -1.6698902   0.54052144   178938 
21040000   0.18304479   -1.6679285   -1.6679285   -1.1254211  0.023582101   -1.6679285   0.54250741   178820 
21050000   0.18211813   -1.6680027   -1.6680027   -1.1278853  0.027996178   -1.6680027    0.5401174   178702 
21060000    0.1818806   -1.6665918   -1.6665918   -1.1268255   0.01597374   -1.6665918   0.53976633   178585 
21070000   0.18193412   -1.6676612   -1.6676612    -1.127379  0.021809932   -1.6676612   0.54028217   178467 
21080000   0.18157633   -1.6674414   -1.6674414    -1.127865  0.018942024   -1.6674414    0.5395764   178349 
21090000   0.18236191   -1.6711455   -1.6711455   -1.1288789  0.022529517   -1.6711455    0.5422666   178232 
21100000   0.18085121   -1.6657638   -1.6657638   -1.1276331  0.021485764   -1.6657638   0.53813069   178114 
21110000   0.18067021    -1.664087    -1.664087   -1.1261415  0.024665631    -1.664087   0.53794549   177997 
21120000    0.1809215   -1.6655069   -1.6655069   -1.1264558  0.020512279   -1.6655069   0.53905105   177879 
21130000   0.18040315   -1.6639064   -1.6639064   -1.1260429  0.020038563   -1.6639064   0.53786345   177761 
21140000   0.18104996   -1.6668542   -1.6668542   -1.1267068  0.025467595   -1.6668542   0.54014738   177644 
21150000   0.17983453   -1.6637556   -1.6637556   -1.1268777  0.016433264   -1.6637556   0.53687788   177526 
21160000    0.1796742   -1.6646109   -1.6646109   -1.1278549  0.020687054   -1.6646109     0.536756   177408 
21170000   0.17999771   -1.6650455   -1.6650455   -1.1269682  0.018459174   -1.6650455   0.53807731   177291 
21180000   0.18022674   -1.6640411   -1.6640411   -1.1249203  0.021721606   -1.6640411    0.5391208   177173 
21190000   0.17962892   -1.6627924   -1.6627924   -1.1251018  0.018141157   -1.6627924   0.53769061   177055 
21200000   0.17939019   -1.6614341   -1.6614341    -1.124103  0.014516292   -1.6614341   0.53733111   176938 
21210000    0.1799905   -1.6615439   -1.6615439   -1.1220549  0.021753737   -1.6615439     0.539489   176820 
21220000   0.17830182   -1.6603384   -1.6603384    -1.125554  0.021643453   -1.6603384   0.53478439   176702 
21230000    0.1783422   -1.6577467   -1.6577467   -1.1224868  0.024411307   -1.6577467   0.53525989   176585 
21240000    0.1782296   -1.6580013   -1.6580013   -1.1227217  0.017710002   -1.6580013   0.53527963   176467 
21250000   0.17857458   -1.6589672   -1.6589672   -1.1222926  0.020302981   -1.6589672   0.53667458   176349 
21260000     0.178462   -1.6589239   -1.6589239   -1.1222316  0.021156627   -1.6589239   0.53669232   176232 
21270000   0.17770661    -1.659376    -1.659376   -1.1245973  0.016278453    -1.659376   0.53477871   176114 
21280000   0.17722257   -1.6574649   -1.6574649   -1.1237883  0.016348129   -1.6574649   0.53367659   175997 
21290000   0.17743273     -1.65704     -1.65704    -1.122372  0.024061597     -1.65704   0.53466793   175879 
21300000   0.17709095    -1.659288    -1.659288   -1.1252917  0.021110262    -1.659288   0.53399631   175761 
21310000   0.17741359   -1.6560892   -1.6560892   -1.1207637  0.017214657   -1.6560892   0.53532554   175644 
21320000   0.17675461   -1.6579832   -1.6579832   -1.1242875  0.021007366   -1.6579832   0.53369567   175526 
21330000   0.17604104    -1.655544    -1.655544   -1.1236453  0.024171411    -1.655544    0.5318987   175408 
21340000   0.17623432    -1.655818    -1.655818   -1.1229799  0.021883188    -1.655818    0.5328381   175291 
21350000   0.17603918   -1.6562006   -1.6562006    -1.123594  0.029170396   -1.6562006   0.53260664   175173 
21360000   0.17625696   -1.6576356   -1.6576356   -1.1240106  0.019474554   -1.6576356   0.53362497   175055 
21370000   0.17563697   -1.6571314   -1.6571314   -1.1250279  0.022874629   -1.6571314   0.53210356   174938 
21380000   0.17565244   -1.6562887   -1.6562887   -1.1237791  0.021088628   -1.6562887   0.53250964   174820 
21390000   0.17500433   -1.6567611   -1.6567611    -1.125858   0.02209823   -1.6567611   0.53090315   174702 
21400000   0.17535568   -1.6609894   -1.6609894   -1.1286638  0.023143201   -1.6609894   0.53232555   174585 
21410000   0.17477441    -1.656401    -1.656401   -1.1254812  0.023881031    -1.656401   0.53091982   174467 
21420000   0.17519451    -1.655621    -1.655621   -1.1230648  0.019901181    -1.655621   0.53255618   174349 
21430000    0.1746903   -1.6508209   -1.6508209   -1.1194408  0.027734028   -1.6508209   0.53138009   174232 
21440000    0.1746453   -1.6504684   -1.6504684   -1.1188652   0.01950119   -1.6504684   0.53160324   174114 
21450000   0.17458611   -1.6491608   -1.6491608   -1.1173804  0.027434732   -1.6491608    0.5317804   173997 
21460000   0.17452181   -1.6482674   -1.6482674   -1.1163221  0.017917316   -1.6482674    0.5319453   173879 
21470000   0.17414358   -1.6500166   -1.6500166   -1.1188637  0.022408645   -1.6500166   0.53115291   173761 
21480000   0.17434493   -1.6519886   -1.6519886   -1.1198633  0.014522803   -1.6519886   0.53212532   173644 
21490000   0.17422433   -1.6488377   -1.6488377   -1.1167189  0.024289469   -1.6488377   0.53211886   173526 
21500000   0.17418091   -1.6468334   -1.6468334   -1.1144852  0.022799994   -1.6468334   0.53234825   173408 
21510000   0.17327759   -1.6466858   -1.6466858   -1.1167408  0.027448229   -1.6466858   0.52994499   173291 
21520000   0.17307655   -1.6466113   -1.6466113   -1.1169205  0.018374576   -1.6466113   0.52969082   173173 
21530000   0.17273186   -1.6453455   -1.6453455   -1.1163492  0.024758703   -1.6453455   0.52899636   173055 
21540000   0.17288108   -1.6447906   -1.6447906    -1.114979   0.01912768   -1.6447906   0.52981156   172938 
21550000   0.17194659   -1.6472087   -1.6472087   -1.1199011  0.021342236   -1.6472087   0.52730753   172820 
21560000   0.17239183   -1.6484872   -1.6484872   -1.1194531  0.016311423   -1.6484872   0.52903417   172702 
21570000   0.17172015   -1.6465442   -1.6465442   -1.1192141  0.026432013   -1.6465442   0.52733016   172585 
21580000   0.17171633   -1.6458143   -1.6458143    -1.118135  0.023667523   -1.6458143   0.52767923   172467 
21590000   0.17151541   -1.6451749   -1.6451749   -1.1177522  0.021661563   -1.6451749   0.52742265   172349 
21600000   0.17131504   -1.6458702   -1.6458702   -1.1187059  0.016612604   -1.6458702   0.52716437   172232 
21610000   0.17079135   -1.6471325   -1.6471325   -1.1212193  0.023195236   -1.6471325   0.52591321   172114 
21620000   0.17145227   -1.6457538   -1.6457538   -1.1174463  0.020700158   -1.6457538   0.52830749   171997 
21630000   0.17053356   -1.6461766   -1.6461766   -1.1203393   0.01685118   -1.6461766   0.52583735   171879 
21640000   0.17000213    -1.647852    -1.647852   -1.1232931  0.019149599    -1.647852   0.52455884   171761 
21650000   0.17043227   -1.6471798   -1.6471798   -1.1209353  0.024282025   -1.6471798   0.52624454   171644 
21660000   0.16985476   -1.6459522   -1.6459522     -1.12113  0.017394153   -1.6459522   0.52482215   171526 
21670000   0.16962238   -1.6463795   -1.6463795   -1.1219145  0.021040141   -1.6463795   0.52446493   171408 
21680000   0.17009765   -1.6478673   -1.6478673   -1.1215735  0.015581616   -1.6478673    0.5262937   171291 
21690000    0.1689069   -1.6486412   -1.6486412   -1.1256715  0.026516639   -1.6486412   0.52296971   171173 
21700000   0.16891379   -1.6464485   -1.6464485   -1.1230967   0.02277288   -1.6464485   0.52335182   171055 
21710000   0.16836949   -1.6437425   -1.6437425   -1.1217201  0.022502494   -1.6437425   0.52202244   170938 
21720000   0.16882167   -1.6449181   -1.6449181   -1.1211321  0.018627675   -1.6449181   0.52378598   170820 
21730000   0.16784285   -1.6423231   -1.6423231    -1.121214  0.015621512   -1.6423231   0.52110907   170702 
21740000   0.16767676   -1.6418764   -1.6418764   -1.1209259  0.023037864   -1.6418764   0.52095047   170585 
21750000   0.16826071   -1.6427947   -1.6427947   -1.1196681  0.026006631   -1.6427947   0.52312658   170467 
21760000   0.16714841   -1.6403052   -1.6403052   -1.1202768  0.015448027   -1.6403052   0.52002841   170349 
21770000   0.16814026   -1.6455845   -1.6455845   -1.1221108  0.021168389   -1.6455845   0.52347375   170232 
21780000   0.16757943   -1.6422442   -1.6422442   -1.1201546  0.021535333   -1.6422442   0.52208961   170114 
21790000   0.16754705   -1.6425318   -1.6425318   -1.1201838  0.014652341   -1.6425318   0.52234798   169997 
21800000   0.16705892   -1.6433458   -1.6433458   -1.1221578  0.016938293   -1.6433458   0.52118797   169879 
21810000   0.16664065   -1.6430785   -1.6430785   -1.1228341  0.022629806   -1.6430785   0.52024442   169761 
21820000   0.16633532   -1.6426154   -1.6426154   -1.1229661   0.01724928   -1.6426154   0.51964932   169644 
21830000   0.16674859   -1.6417938   -1.6417938   -1.1204907  0.017875225   -1.6417938   0.52130305   169526 
21840000   0.16658079   -1.6426399   -1.6426399   -1.1214987  0.015875229   -1.6426399   0.52114117   169408 
21850000   0.16639689   -1.6426162   -1.6426162   -1.1216905  0.023257022   -1.6426162   0.52092563   169291 
21860000   0.16546987   -1.6415081   -1.6415081   -1.1231233  0.021795024   -1.6415081   0.51838481   169173 
21870000   0.16591588   -1.6419606   -1.6419606   -1.1218157  0.020756963   -1.6419606   0.52014487   169055 
21880000   0.16566145   -1.6435851   -1.6435851   -1.1238781  0.024965717   -1.6435851   0.51970692   168938 
21890000   0.16466756   -1.6404655   -1.6404655   -1.1235155  0.020923733   -1.6404655   0.51695001   168820 
21900000   0.16545192   -1.6407258   -1.6407258   -1.1209501  0.015329563   -1.6407258   0.51977571   168702 
21910000   0.16458363   -1.6370981   -1.6370981   -1.1196913  0.019082155   -1.6370981   0.51740676   168585 
21920000   0.16501534   -1.6377556   -1.6377556   -1.1186283  0.023857832   -1.6377556   0.51912732   168467 
21930000   0.16377117    -1.638387    -1.638387   -1.1228126  0.020978729    -1.638387   0.51557437   168349 
21940000   0.16445059   -1.6375798   -1.6375798   -1.1195065  0.022611985   -1.6375798   0.51807332   168232 
21950000   0.16414605   -1.6349225   -1.6349225   -1.1174457  0.018675477   -1.6349225   0.51747688   168114 
21960000    0.1642574   -1.6338366   -1.6338366   -1.1156481  0.019956244   -1.6338366   0.51818855   167997 
21970000   0.16396249   -1.6357069   -1.6357069   -1.1180851  0.020685509   -1.6357069   0.51762177   167879 
21980000   0.16363671   -1.6370222   -1.6370222   -1.1200656  0.024379608   -1.6370222   0.51695665   167761 
21990000   0.16311422   -1.6364802   -1.6364802   -1.1208145   0.02406816   -1.6364802   0.51566567   167644 
22000000   0.16265743   -1.6322861   -1.6322861   -1.1177024  0.010119853   -1.6322861   0.51458376   167526 
22010000   0.16288043   -1.6311026   -1.6311026   -1.1154501  0.017419785   -1.6311026   0.51565246   167408 
22020000   0.16216557   -1.6325617   -1.6325617   -1.1188133  0.016399558   -1.6325617    0.5137484   167291 
22030000   0.16143701   -1.6311747   -1.6311747   -1.1193734  0.021071391   -1.6311747   0.51180129   167173 
22040000   0.16171592   -1.6335317   -1.6335317   -1.1204841  0.018224133   -1.6335317   0.51304764   167055 
22050000   0.16124156   -1.6329469   -1.6329469   -1.1210457  0.016843001   -1.6329469   0.51190124   166938 
22060000   0.16232862   -1.6325988   -1.6325988   -1.1168819  0.019894972   -1.6325988   0.51571692   166820 
22070000   0.16171743   -1.6295964   -1.6295964   -1.1154575  0.018800551   -1.6295964   0.51413884   166702 
22080000   0.16173844   -1.6293243   -1.6293243   -1.1147575  0.022194515   -1.6293243    0.5145668   166585 
22090000   0.16096036    -1.628147    -1.628147   -1.1156927  0.019173752    -1.628147   0.51245433   166467 
22100000   0.16143457   -1.6315876   -1.6315876   -1.1172589  0.015293515   -1.6315876    0.5143287   166349 
22110000   0.16088385   -1.6323868   -1.6323868   -1.1194519   0.02175422   -1.6323868   0.51293486   166232 
22120000   0.16066167   -1.6287337   -1.6287337   -1.1161433  0.026988447   -1.6287337   0.51259038   166114 
22130000   0.16048136   -1.6294952   -1.6294952   -1.1171192  0.021588839   -1.6294952   0.51237597   165997 
22140000   0.16015767   -1.6283511   -1.6283511   -1.1166448  0.023640227   -1.6283511   0.51170625   165879 
22150000   0.15974433   -1.6291439   -1.6291439   -1.1183949  0.011578651   -1.6291439   0.51074896   165761 
22160000   0.15981402   -1.6263867   -1.6263867    -1.115054  0.020053777   -1.6263867   0.51133271   165644 
22170000   0.15966388   -1.6249591   -1.6249591   -1.1137426  0.018964272   -1.6249591    0.5112165   165526 
22180000   0.15917003   -1.6235623   -1.6235623   -1.1135634  0.018485503   -1.6235623   0.50999884   165408 
22190000   0.15896848   -1.6232008   -1.6232008   -1.1134872  0.019176364   -1.6232008    0.5097136   165291 
22200000   0.15933783   -1.6260677   -1.6260677   -1.1148049  0.022720067   -1.6260677   0.51126284   165173 
22210000    0.1586585   -1.6230191   -1.6230191   -1.1135721  0.018283917   -1.6230191   0.50944705   165055 
22220000   0.15874535   -1.6269882   -1.6269882   -1.1169007   0.02379755   -1.6269882   0.51008752   164938 
22230000   0.15807246   -1.6251386   -1.6251386   -1.1168496  0.021594238   -1.6251386   0.50828897   164820 
22240000   0.15833539   -1.6261156   -1.6261156   -1.1166164  0.019051944   -1.6261156   0.50949922   164702 
22250000   0.15811169   -1.6219712   -1.6219712   -1.1128301   0.01566434   -1.6219712   0.50914108   164585 
22260000   0.15764763   -1.6234722   -1.6234722   -1.1154612  0.017386446   -1.6234722   0.50801096   164467 
22270000     0.158122   -1.6228903   -1.6228903   -1.1129849  0.019841163   -1.6228903   0.50990541   164349 
22280000   0.15677973   -1.6181333   -1.6181333   -1.1121962  0.024954806   -1.6181333   0.50593709   164232 
22290000   0.15685733   -1.6176465   -1.6176465    -1.111095  0.014187715   -1.6176465   0.50655147   164114 
22300000   0.15698004   -1.6186381   -1.6186381   -1.1113286  0.018541985   -1.6186381   0.50730943   163997 
22310000   0.15627178     -1.62142     -1.62142   -1.1160358  0.018521549     -1.62142   0.50538421   163879 
22320000   0.15599073    -1.622452    -1.622452   -1.1176132  0.016881636    -1.622452   0.50483878   163761 
22330000   0.15698151    -1.619742    -1.619742   -1.1113335  0.017512983    -1.619742   0.50840851   163644 
22340000    0.1559279   -1.6154452   -1.6154452   -1.1100845  0.016191716   -1.6154452   0.50536063   163526 
22350000   0.15630839   -1.6172161   -1.6172161   -1.1102565  0.026975512   -1.6172161   0.50695963   163408 
22360000   0.15578849   -1.6164976   -1.6164976   -1.1108622  0.015372591   -1.6164976   0.50563546   163291 
22370000   0.15575057   -1.6180354   -1.6180354   -1.1121575  0.018562213   -1.6180354   0.50587795   163173 
22380000   0.15535364   -1.6184079   -1.6184079    -1.113454  0.011107118   -1.6184079   0.50495388   163055 
22390000   0.15566797   -1.6174395   -1.6174395   -1.1111006  0.011189568   -1.6174395   0.50633887   162938 
22400000    0.1548759   -1.6176441   -1.6176441   -1.1135165  0.016104957   -1.6176441   0.50412762   162820 
22410000   0.15462662   -1.6170625   -1.6170625   -1.1133813  0.019662457   -1.6170625   0.50368122   162702 
22420000   0.15435576   -1.6182036   -1.6182036   -1.1150429  0.020414136   -1.6182036   0.50316075   162585 
22430000   0.15478806   -1.6178232   -1.6178232   -1.1128867  0.016127384   -1.6178232   0.50493643   162467 
22440000   0.15396661   -1.6165581   -1.6165581   -1.1139363  0.019839904   -1.6165581   0.50262181   162349 
22450000   0.15412766   -1.6164624   -1.6164624    -1.112952  0.023174961   -1.6164624   0.50351041   162232 
22460000   0.15291711   -1.6122388   -1.6122388   -1.1123195  0.013978243   -1.6122388   0.49991938   162114 
22470000   0.15323588   -1.6140455   -1.6140455   -1.1127222  0.020509836   -1.6140455   0.50132329   161997 
22480000   0.15333377   -1.6144422   -1.6144422   -1.1124329  0.025154387   -1.6144422   0.50200923   161879 
22490000   0.15270754   -1.6143592   -1.6143592   -1.1140355  0.020977759   -1.6143592   0.50032367   161761 
22500000   0.15307337   -1.6148536   -1.6148536   -1.1129684   0.01541287   -1.6148536   0.50188526   161644 
22510000   0.15254327   -1.6145555   -1.6145555   -1.1140429    0.0212402   -1.6145555   0.50051259   161526 
22520000   0.15177589   -1.6116725   -1.6116725   -1.1133137  0.015975939   -1.6116725   0.49835879   161408 
22530000   0.15246198   -1.6178428   -1.6178428   -1.1168681  0.023712587   -1.6178428   0.50097471   161291 
22540000   0.15168637   -1.6157058   -1.6157058   -1.1169148  0.024842724   -1.6157058   0.49879107   161173 
22550000   0.15210122   -1.6159577   -1.6159577    -1.115436  0.018193832   -1.6159577   0.50052166   161055 
22560000   0.15174536   -1.6134654   -1.6134654   -1.1137518  0.017033995   -1.6134654   0.49971364   160938 
22570000   0.15213667   -1.6160948   -1.6160948   -1.1147249  0.020208696   -1.6160948    0.5013699   160820 
22580000   0.15151526   -1.6138706   -1.6138706    -1.114182  0.022830356   -1.6138706   0.49968867   160702 
22590000   0.15084061   -1.6142585   -1.6142585   -1.1164324  0.017342502   -1.6142585   0.49782614   160585 
22600000   0.15071204   -1.6144762   -1.6144762   -1.1167086  0.017684743   -1.6144762   0.49776759   160467 
22610000   0.15060009   -1.6132353   -1.6132353   -1.1154714  0.011428486   -1.6132353   0.49776386   160349 
22620000   0.15058303   -1.6131819   -1.6131819    -1.115111  0.020883674   -1.6131819   0.49807092   160232 
22630000   0.15061717   -1.6118161   -1.6118161   -1.1132651  0.018786393   -1.6118161   0.49855099   160114 
22640000   0.14957446   -1.6109002   -1.6109002   -1.1154386  0.016527488   -1.6109002   0.49546161   159997 
22650000   0.14968491   -1.6115468   -1.6115468   -1.1153534  0.020960629   -1.6115468   0.49619341   159879 
22660000   0.14955205   -1.6116794   -1.6116794   -1.1155603  0.022567564   -1.6116794   0.49611916   159761 
22670000   0.14874083   -1.6111551   -1.6111551   -1.1173654   0.01776283   -1.6111551   0.49378968   159644 
22680000   0.14895116   -1.6136989   -1.6136989   -1.1188452  0.018963185   -1.6136989   0.49485369   159526 
22690000   0.14856294    -1.612556    -1.612556   -1.1186268  0.015084925    -1.612556   0.49392927   159408 
22700000   0.14907804   -1.6139854   -1.6139854   -1.1179795  0.018050575   -1.6139854    0.4960059   159291 
22710000    0.1486312   -1.6104274   -1.6104274   -1.1155416  0.012335266   -1.6104274    0.4948858   159173 
22720000    0.1487194   -1.6094266   -1.6094266   -1.1138797  0.016489217   -1.6094266   0.49554683   159055 
22730000   0.14766859   -1.6104754   -1.6104754   -1.1180678  0.014945055   -1.6104754   0.49240763   158938 
22740000   0.14761905   -1.6084889   -1.6084889   -1.1158808   0.02205005   -1.6084889   0.49260816   158820 
22750000   0.14729227     -1.60774     -1.60774   -1.1158569  0.012470933     -1.60774   0.49188314   158702 
22760000   0.14679766   -1.6072763   -1.6072763   -1.1166833   0.01924738   -1.6072763   0.49059309   158585 
22770000   0.14718838   -1.6082804   -1.6082804   -1.1160153  0.025043629   -1.6082804   0.49226514   158467 
22780000   0.14692604   -1.6105432   -1.6105432   -1.1187893   0.01529547   -1.6105432   0.49175395   158349 
22790000   0.14640976   -1.6112445   -1.6112445   -1.1208561  0.013705106   -1.6112445   0.49038832   158232 
22800000   0.14611988   -1.6109717   -1.6109717    -1.121189  0.016402981   -1.6109717   0.48978264   158114 
22810000   0.14680855   -1.6148441   -1.6148441   -1.1223887  0.016778038   -1.6148441   0.49245541   157997 
22820000   0.14576997   -1.6115623   -1.6115623   -1.1222253   0.01897975   -1.6115623   0.48933705   157879 
22830000   0.14581843    -1.614115    -1.614115   -1.1242491  0.017305543    -1.614115   0.48986586   157761 
22840000   0.14504162   -1.6060646   -1.6060646   -1.1184468  0.015021512   -1.6060646   0.48761785   157644 
22850000   0.14522325   -1.6107095   -1.6107095   -1.1221153  0.019095148   -1.6107095   0.48859419   157526 
22860000    0.1454972   -1.6113752   -1.6113752   -1.1214924  0.018613852   -1.6113752   0.48988283   157408 
22870000   0.14467997   -1.6103142   -1.6103142   -1.1228206  0.014384357   -1.6103142   0.48749362   157291 
22880000   0.14483937    -1.614814    -1.614814   -1.1264169  0.013298665    -1.614814   0.48839711   157173 
22890000   0.14368201     -1.61273     -1.61273   -1.1278715  0.020639318     -1.61273   0.48485853   157055 
22900000   0.14381732   -1.6142449   -1.6142449   -1.1285679  0.017070295   -1.6142449   0.48567694   156938 
22910000   0.14414765   -1.6134744   -1.6134744   -1.1263156  0.018040961   -1.6134744   0.48715874   156820 
22920000   0.14408393   -1.6106267   -1.6106267   -1.1233166  0.012041033   -1.6106267   0.48731011   156702 
22930000   0.14435036   -1.6115698   -1.6115698   -1.1229938  0.014275427   -1.6115698   0.48857597   156585 
22940000   0.14357292   -1.6084285   -1.6084285   -1.1221174  0.013626864   -1.6084285   0.48631111   156467 
22950000   0.14367592   -1.6057327   -1.6057327   -1.1187054  0.015491961   -1.6057327   0.48702728   156349 
22960000   0.14340715   -1.6106517   -1.6106517   -1.1241714  0.022936023   -1.6106517   0.48648024   156232 
22970000   0.14337817   -1.6057274   -1.6057274   -1.1189778  0.016202742   -1.6057274   0.48674959   156114 
22980000   0.14279623   -1.6063688   -1.6063688   -1.1212313  0.018998499   -1.6063688   0.48513754   155997 
22990000   0.14232199   -1.6045282   -1.6045282   -1.1206358  0.008923383   -1.6045282   0.48389241   155879 
23000000   0.14225093   -1.6040768   -1.6040768   -1.1200596  0.015807082   -1.6040768   0.48401718   155761 
23010000   0.14246765   -1.6036978   -1.6036978   -1.1185788  0.016288554   -1.6036978   0.48511898   155644 
23020000   0.14262694   -1.6022338   -1.6022338    -1.116204  0.015619389   -1.6022338   0.48602989   155526 
23030000   0.14208425   -1.6002849   -1.6002849   -1.1157368  0.014009314   -1.6002849   0.48454819   155408 
23040000   0.14190702   -1.6000782   -1.6000782   -1.1157698  0.019339923   -1.6000782   0.48430838   155291 
23050000   0.14139822   -1.6005021   -1.6005021   -1.1175632  0.013718171   -1.6005021   0.48293891   155173 
23060000   0.14064947   -1.6028059   -1.6028059   -1.1220588   0.01775879   -1.6028059   0.48074716   155055 
23070000   0.14099455   -1.6001857   -1.6001857   -1.1178951  0.020414731   -1.6001857   0.48229059   154938 
23080000   0.14171187   -1.5982951   -1.5982951   -1.1131814  0.018587239   -1.5982951   0.48511372   154820 
23090000   0.14068635   -1.6009427   -1.6009427   -1.1189722 0.0082854477   -1.6009427   0.48197048   154702 
23100000   0.14066883   -1.5999979   -1.5999979   -1.1177227  0.020819316   -1.5999979    0.4822752   154585 
23110000   0.14072407   -1.5984022   -1.5984022    -1.115569  0.018119037   -1.5984022   0.48283316   154467 
23120000   0.14060848   -1.6008455   -1.6008455   -1.1180401   0.01799486   -1.6008455   0.48280538   154349 
23130000   0.14018885    -1.598052    -1.598052   -1.1163223  0.018660613    -1.598052   0.48172965   154232 
23140000   0.13985985   -1.5942661   -1.5942661    -1.113299  0.019009603   -1.5942661    0.4809671   154114 
23150000   0.14025129   -1.5949442   -1.5949442   -1.1122645  0.014033147   -1.5949442   0.48267968   153997 
23160000   0.13993457   -1.5945347   -1.5945347   -1.1125757  0.018531798   -1.5945347   0.48195898   153879 
23170000   0.13908473   -1.5950071   -1.5950071   -1.1156075  0.012952905   -1.5950071   0.47939958   153761 
23180000   0.13905665     -1.59319     -1.59319   -1.1135222  0.012429137     -1.59319   0.47966777   153644 
23190000   0.13885826   -1.5953932   -1.5953932   -1.1160416   0.01308466   -1.5953932   0.47935158   153526 
23200000   0.13858892   -1.5968032   -1.5968032   -1.1180134  0.012598923   -1.5968032   0.47878981   153408 
23210000   0.13773493     -1.59594     -1.59594   -1.1197373  0.014143509     -1.59594   0.47620266   153291 
23220000    0.1385299   -1.5971973   -1.5971973   -1.1178772  0.010345444   -1.5971973   0.47932015   153173 
23230000   0.13826464   -1.5929087   -1.5929087   -1.1141375  0.014965684   -1.5929087   0.47877118   153055 
23240000    0.1377696   -1.5909241   -1.5909241   -1.1135021 0.0095473371   -1.5909241   0.47742197   152938 
23250000   0.13726703   -1.5942564   -1.5942564   -1.1182087  0.013181581   -1.5942564   0.47604767   152820 
23260000   0.13711929   -1.5970855   -1.5970855   -1.1211827 0.0047518668   -1.5970855   0.47590277   152702 
23270000   0.13694075   -1.5944381   -1.5944381   -1.1187906  0.014487857   -1.5944381   0.47564753   152585 
23280000   0.13701774   -1.5943272   -1.5943272   -1.1180439  0.007358448   -1.5943272   0.47628328   152467 
23290000   0.13658532   -1.5963606   -1.5963606   -1.1212127  0.015278337   -1.5963606   0.47514791   152349 
23300000   0.13622664    -1.593125    -1.593125   -1.1188607 0.0085937188    -1.593125   0.47426435   152232 
23310000   0.13589584   -1.5904405   -1.5904405   -1.1169608  0.012416348   -1.5904405    0.4734797   152114 
23320000   0.13575758   -1.5911442   -1.5911442   -1.1177821  0.013743986   -1.5911442   0.47336209   151997 
23330000   0.13599965   -1.5905249   -1.5905249   -1.1159503  0.015922144   -1.5905249   0.47457456   151879 
23340000   0.13522166   -1.5890653   -1.5890653   -1.1168386  0.011866024   -1.5890653   0.47222665   151761 
23350000   0.13548722   -1.5903998   -1.5903998   -1.1168807  0.012141465   -1.5903998    0.4735191   151644 
23360000   0.13543786   -1.5902238   -1.5902238   -1.1165086  0.012861312   -1.5902238   0.47371521   151526 
23370000   0.13532195   -1.5892759   -1.5892759   -1.1155972 0.0073752648   -1.5892759   0.47367866   151408 
23380000   0.13450515   -1.5889543   -1.5889543   -1.1177706  0.010854473   -1.5889543   0.47118365   151291 
23390000   0.13454702   -1.5877049   -1.5877049   -1.1160066   0.01668702   -1.5877049   0.47169825   151173 
23400000   0.13457475   -1.5880164   -1.5880164   -1.1158524  0.014519784   -1.5880164     0.472164   151055 
23410000   0.13443679   -1.5838574   -1.5838574   -1.1118118  0.011041314   -1.5838574    0.4720456   150938 
23420000   0.13424491   -1.5838859   -1.5838859   -1.1121453  0.015386423   -1.5838859   0.47174062   150820 
23430000   0.13386349   -1.5850095   -1.5850095   -1.1142409  0.014993471   -1.5850095   0.47076865   150702 
23440000   0.13378548   -1.5890912   -1.5890912   -1.1182313   0.01588885   -1.5890912   0.47085985   150585 
23450000   0.13292428   -1.5848153   -1.5848153   -1.1166196 0.0088329142   -1.5848153   0.46819573   150467 
23460000   0.13287537   -1.5858176   -1.5858176   -1.1174268  0.016625958   -1.5858176   0.46839077   150349 
23470000   0.13238184   -1.5849073   -1.5849073   -1.1178928  0.010498297   -1.5849073    0.4670145   150232 
23480000   0.13266549   -1.5862843   -1.5862843   -1.1179013  0.012581732   -1.5862843   0.46838303   150114 
23490000   0.13243017   -1.5846481   -1.5846481   -1.1167312  0.013062508   -1.5846481   0.46791694   149997 
23500000   0.13213256   -1.5846453   -1.5846453   -1.1174123  0.013298343   -1.5846453   0.46723295   149879 
23510000   0.13204842   -1.5843034   -1.5843034   -1.1170001 0.0086213707   -1.5843034   0.46730331   149761 
23520000   0.13149643   -1.5866936   -1.5866936   -1.1209798  0.015704955   -1.5866936   0.46571374   149644 
23530000   0.13156998   -1.5852919   -1.5852919     -1.11895  0.016048783   -1.5852919   0.46634195   149526 
23540000   0.13164442   -1.5839703   -1.5839703    -1.116996  0.014325072   -1.5839703   0.46697431   149408 
23550000   0.13050509    -1.582996    -1.582996   -1.1197004  0.011339578    -1.582996   0.46329566   149291 
23560000   0.13065614   -1.5795549   -1.5795549   -1.1153561 0.0095760015   -1.5795549   0.46419877   149173 
23570000    0.1304179   -1.5825916   -1.5825916   -1.1188724  0.015954559   -1.5825916   0.46371918   149055 
23580000   0.12995897   -1.5822158   -1.5822158   -1.1197654   0.01090108   -1.5822158   0.46245039   148938 
23590000   0.13033301   -1.5814657   -1.5814657   -1.1173165   0.01409793   -1.5814657   0.46414913   148820 
23600000   0.12963465    -1.578861    -1.578861   -1.1168325 0.0088410046    -1.578861   0.46202843   148702 
23610000    0.1298685   -1.5820543   -1.5820543    -1.118828  0.021652073   -1.5820543   0.46322635   148585 
23620000   0.12957755   -1.5815765   -1.5815765   -1.1190206   0.01724921   -1.5815765   0.46255589   148467 
23630000   0.12944262   -1.5796263   -1.5796263   -1.1171845  0.010327969   -1.5796263   0.46244177   148349 
23640000   0.12904516   -1.5802568   -1.5802568   -1.1188711   0.01181217   -1.5802568   0.46138573   148232 
23650000   0.12874729   -1.5808864   -1.5808864    -1.120199  0.014528819   -1.5808864   0.46068746   148114 
23660000   0.12847346   -1.5825049   -1.5825049   -1.1224338 0.0080528654   -1.5825049   0.46007105   147997 
23670000   0.12790392    -1.579519    -1.579519    -1.121122  0.012999506    -1.579519   0.45839698   147879 
23680000   0.12842973   -1.5782623   -1.5782623   -1.1176133  0.016472966   -1.5782623   0.46064902   147761 
23690000    0.1281577   -1.5782936   -1.5782936   -1.1182561  0.013682972   -1.5782936   0.46003758   147644 
23700000   0.12794412   -1.5797059   -1.5797059   -1.1200677 0.0085936266   -1.5797059   0.45963826   147526 
23710000   0.12822201   -1.5788371   -1.5788371   -1.1178318  0.011135247   -1.5788371   0.46100532   147408 
23720000   0.12665152   -1.5749369   -1.5749369   -1.1192164  0.011448359   -1.5749369   0.45572051   147291 
23730000   0.12736931   -1.5760167   -1.5760167    -1.117346  0.013967727   -1.5760167   0.45867076   147173 
23740000   0.12788316   -1.5785649   -1.5785649   -1.1176742 0.0084145704   -1.5785649   0.46089072   147055 
23750000   0.12700836   -1.5766704   -1.5766704    -1.118568  0.017058815   -1.5766704   0.45810242   146938 
23760000    0.1273303   -1.5775873   -1.5775873   -1.1179546  0.015763326   -1.5775873   0.45963272   146820 
23770000   0.12675408   -1.5772613   -1.5772613   -1.1193406  0.018178075   -1.5772613   0.45792073   146702 
23780000   0.12649191   -1.5765725   -1.5765725   -1.1192342  0.016365768   -1.5765725   0.45733833   146585 
23790000   0.12634559   -1.5760798   -1.5760798   -1.1189024  0.013088385   -1.5760798   0.45717733   146467 
23800000    0.1261246   -1.5775965   -1.5775965   -1.1208508  0.013040468   -1.5775965   0.45674568   146349 
23810000   0.12599084   -1.5787735   -1.5787735   -1.1221471 0.0099698202   -1.5787735   0.45662634   146232 
23820000   0.12553083   -1.5793158   -1.5793158   -1.1239893  0.012705939   -1.5793158   0.45532655   146114 
23830000   0.12522024   -1.5772237   -1.5772237   -1.1226597 0.0089842513   -1.5772237   0.45456395   145997 
23840000   0.12493441   -1.5755901   -1.5755901   -1.1216969 0.0062935528   -1.5755901   0.45389322   145879 
23850000   0.12504506   -1.5694488   -1.5694488   -1.1147858  0.012569186   -1.5694488   0.45466298   145761 
23860000   0.12459602   -1.5733777   -1.5733777   -1.1199835   0.01057309   -1.5733777   0.45339419   145644 
23870000   0.12406404   -1.5694834   -1.5694834   -1.1176589  0.011526494   -1.5694834   0.45182446   145526 
23880000   0.12445459   -1.5721113   -1.5721113   -1.1184967 0.0097938804   -1.5721113   0.45361458   145408 
23890000   0.12366475   -1.5683172   -1.5683172   -1.1172185  0.014025815   -1.5683172   0.45109873   145291 
23900000   0.12459404   -1.5686745   -1.5686745   -1.1138166  0.010036894   -1.5686745   0.45485796   145173 
23910000   0.12370668   -1.5665373   -1.5665373   -1.1145514   0.01033953   -1.5665373   0.45198588   145055 
23920000   0.12348161   -1.5678422   -1.5678422   -1.1163145  0.014757434   -1.5678422    0.4515277   144938 
23930000   0.12333616   -1.5648557   -1.5648557   -1.1134924  0.013969316   -1.5648557   0.45136332   144820 
23940000   0.12345581   -1.5678012   -1.5678012   -1.1156316  0.012258387   -1.5678012   0.45216963   144702 
23950000   0.12355471   -1.5637432   -1.5637432   -1.1108452  0.014758649   -1.5637432   0.45289806   144585 
23960000   0.12244624   -1.5624572   -1.5624572   -1.1132557  0.014193267   -1.5624572    0.4492015   144467 
23970000   0.12256851   -1.5623277   -1.5623277   -1.1123101 0.0074858783   -1.5623277   0.45001764   144349 
23980000   0.12309285   -1.5649759   -1.5649759   -1.1126666  0.016650572   -1.5649759   0.45230938   144232 
23990000   0.12255695    -1.564533    -1.564533    -1.113824   0.01319492    -1.564533   0.45070894   144114 
24000000    0.1222534   -1.5604374   -1.5604374   -1.1104795  0.013415809   -1.5604374   0.44995791   143997 
24010000   0.12159421   -1.5655064   -1.5655064   -1.1176076  0.010776709   -1.5655064   0.44789877   143879 
24020000   0.12163656    -1.563858    -1.563858   -1.1154355  0.012263767    -1.563858   0.44842255   143761 
24030000   0.12175394   -1.5626571   -1.5626571   -1.1134362 0.0057946591   -1.5626571   0.44922087   143644 
24040000    0.1214164     -1.56239     -1.56239   -1.1140462  0.014274424     -1.56239    0.4483438   143526 
24050000   0.12230658   -1.5655341   -1.5655341   -1.1135316  0.007846489   -1.5655341   0.45200249   143408 
24060000   0.12127137   -1.5606962   -1.5606962   -1.1121535  0.013743981   -1.5606962   0.44854268   143291 
24070000   0.12114567   -1.5624769   -1.5624769   -1.1140298 0.0075363149   -1.5624769   0.44844706   143173 
24080000   0.12032979   -1.5605033   -1.5605033    -1.114709  0.012068842   -1.5605033    0.4457943   143055 
24090000   0.12042454    -1.559888    -1.559888   -1.1133775  0.018077622    -1.559888   0.44651052   142938 
24100000   0.12001581   -1.5589351   -1.5589351   -1.1135724  0.013635315   -1.5589351   0.44536267   142820 
24110000   0.12028561   -1.5584362   -1.5584362   -1.1117033  0.011213284   -1.5584362   0.44673297   142702 
24120000   0.11994526    -1.561726    -1.561726   -1.1158915  0.011514266    -1.561726   0.44583449   142585 
24130000   0.11947634   -1.5571548   -1.5571548   -1.1126954  0.010825715   -1.5571548   0.44445935   142467 
24140000   0.11928886   -1.5628287   -1.5628287    -1.118699 0.0079840492   -1.5628287   0.44412975   142349 
24150000   0.11951986   -1.5616582   -1.5616582   -1.1163024   0.01109892   -1.5616582   0.44535584   142232 
24160000   0.11938833   -1.5615042   -1.5615042   -1.1162691  0.013633018   -1.5615042    0.4452351   142114 
24170000   0.11866787   -1.5556213   -1.5556213   -1.1127083  0.018182465   -1.5556213   0.44291294   141997 
24180000   0.11914435   -1.5583316   -1.5583316   -1.1132704 0.0094674901   -1.5583316   0.44506119   141879 
24190000   0.11870615   -1.5589349   -1.5589349   -1.1151415  0.013890408   -1.5589349    0.4437934   141761 
24200000   0.11842559   -1.5597531   -1.5597531   -1.1166429  0.012529855   -1.5597531   0.44311024   141644 
24210000   0.11783632   -1.5587082   -1.5587082   -1.1174352  0.012592579   -1.5587082   0.44127298   141526 
24220000   0.11827342   -1.5610159   -1.5610159   -1.1177364 0.0088412583   -1.5610159   0.44327943   141408 
24230000   0.11715426   -1.5578576   -1.5578576   -1.1184091 0.0075863986   -1.5578576   0.43944849   141291 
24240000   0.11641045   -1.5602116   -1.5602116   -1.1231882   0.01055453   -1.5602116   0.43702343   141173 
24250000   0.11672217   -1.5635997   -1.5635997   -1.1250394  0.012796319   -1.5635997   0.43856026   141055 
24260000   0.11577221   -1.5588267   -1.5588267   -1.1234746  0.015537042   -1.5588267   0.43535207   140938 
24270000   0.11719623    -1.561441    -1.561441   -1.1203648 0.0096596619    -1.561441   0.44107627   140820 
24280000   0.11655528   -1.5594796   -1.5594796   -1.1204477  0.016135068   -1.5594796    0.4390319   140702 
24290000   0.11606664   -1.5590754   -1.5590754   -1.1215203 0.0070210905   -1.5590754   0.43755517   140585 
24300000   0.11581167   -1.5575512   -1.5575512   -1.1205905 0.0086833499   -1.5575512   0.43696073   140467 
24310000   0.11554902   -1.5605606   -1.5605606   -1.1242243 0.0084362901   -1.5605606    0.4363363   140349 
24320000   0.11571408   -1.5614956   -1.5614956   -1.1241714  0.010283983   -1.5614956   0.43732417   140232 
24330000   0.11588765   -1.5637601   -1.5637601   -1.1254111  0.010417074   -1.5637601   0.43834902   140114 
24340000   0.11497677   -1.5582811   -1.5582811   -1.1230141  0.011129959   -1.5582811   0.43526701   139997 
24350000   0.11497413   -1.5598958   -1.5598958   -1.1242716  0.014538633   -1.5598958   0.43562423   139879 
24360000    0.1150055   -1.5599591   -1.5599591   -1.1238482 0.0067147676   -1.5599591   0.43611097   139761 
24370000   0.11456858   -1.5540969   -1.5540969   -1.1192787  0.010529524   -1.5540969   0.43481813   139644 
24380000    0.1146557   -1.5593229   -1.5593229   -1.1238061   0.01001947   -1.5593229   0.43551681   139526 
24390000    0.1141014   -1.5554959   -1.5554959   -1.1217177  0.014907082   -1.5554959   0.43377816   139408 
24400000   0.11397986   -1.5569499   -1.5569499   -1.1232698 0.0082572038   -1.5569499   0.43368007   139291 
24410000   0.11356946   -1.5572047   -1.5572047   -1.1247198  0.012372009   -1.5572047   0.43248493   139173 
24420000   0.11313559   -1.5561392   -1.5561392    -1.124941   0.01025118   -1.5561392   0.43119829   139055 
24430000   0.11337425   -1.5529004   -1.5529004   -1.1204286  0.012462678   -1.5529004   0.43247179   138938 
24440000   0.11366896   -1.5544462   -1.5544462   -1.1204816  0.012302447   -1.5544462   0.43396454   138820 
24450000   0.11305654    -1.556081    -1.556081   -1.1240873 0.0083201607    -1.556081   0.43199366   138702 
24460000   0.11255111   -1.5570141   -1.5570141   -1.1265887 0.0025366384   -1.5570141   0.43042545   138585 
24470000   0.11190524   -1.5536709   -1.5536709   -1.1253507 0.0057093857   -1.5536709   0.42832017   138467 
24480000   0.11230576   -1.5560853   -1.5560853   -1.1258655  0.015026388   -1.5560853   0.43021979   138349 
24490000   0.11164223   -1.5546403   -1.5546403   -1.1266003 0.0087421896   -1.5546403   0.42803994   138232 
24500000   0.11174527   -1.5511722   -1.5511722   -1.1223711  0.012099736   -1.5511722   0.42880105   138114 
24510000   0.11146111   -1.5536429   -1.5536429   -1.1255696 0.0083737033   -1.5536429   0.42807328   137997 
24520000   0.11126846   -1.5502792   -1.5502792   -1.1225801  0.011642672   -1.5502792   0.42769912   137879 
24530000   0.11080725     -1.55149     -1.55149   -1.1251989 0.0094243322     -1.55149   0.42629112   137761 
24540000    0.1114703   -1.5544132   -1.5544132   -1.1252067  0.014754229   -1.5544132   0.42920649   137644 
24550000   0.11075695   -1.5531888   -1.5531888   -1.1263631  0.015925468   -1.5531888   0.42682571   137526 
24560000   0.11008254    -1.548272    -1.548272   -1.1236809 0.0058449906    -1.548272   0.42459105   137408 
24570000   0.11037698    -1.551594    -1.551594   -1.1255045  0.011733075    -1.551594   0.42608949   137291 
24580000    0.1100144   -1.5514183   -1.5514183   -1.1263631  0.011743786   -1.5514183   0.42505516   137173 
24590000    0.1097966   -1.5504559   -1.5504559    -1.125877 0.0030453683   -1.5504559   0.42457888   137055 
24600000   0.10992565   -1.5492422   -1.5492422   -1.1238011 0.0095024115   -1.5492422   0.42544113   136938 
24610000   0.11008386   -1.5483865   -1.5483865   -1.1219657  0.010994133   -1.5483865   0.42642086   136820 
24620000   0.10911253   -1.5503173   -1.5503173   -1.1272942  0.011117643   -1.5503173   0.42302317   136702 
24630000    0.1085237   -1.5493708   -1.5493708   -1.1282701  0.013531385   -1.5493708   0.42110074   136585 
24640000    0.1086073   -1.5539602   -1.5539602   -1.1321707  0.015701218   -1.5539602   0.42178951   136467 
24650000   0.10860825   -1.5511216   -1.5511216   -1.1289633 0.0062035363   -1.5511216   0.42215822   136349 
24660000   0.10881709   -1.5560191   -1.5560191   -1.1326858  0.010504941   -1.5560191   0.42333326   136232 
24670000   0.10761901   -1.5511137   -1.5511137   -1.1320784 0.0072008573   -1.5511137   0.41903529   136114 
24680000   0.10824479   -1.5504342   -1.5504342   -1.1285997  0.013196394   -1.5504342   0.42183446   135997 
24690000   0.10812706   -1.5481589   -1.5481589   -1.1264172  0.010154593   -1.5481589   0.42174162   135879 
24700000   0.10785901   -1.5452482   -1.5452482   -1.1241865 0.0060953408   -1.5452482   0.42106175   135761 
24710000   0.10748662   -1.5440543   -1.5440543   -1.1240844 0.0044938505   -1.5440543   0.41996993   135644 
24720000   0.10777267   -1.5415691   -1.5415691   -1.1201149  0.011081249   -1.5415691   0.42145421   135526 
24730000   0.10686453   -1.5406044   -1.5406044   -1.1223373 0.0061326156   -1.5406044   0.41826705   135408 
24740000   0.10694032   -1.5384464   -1.5384464   -1.1195207  0.012236849   -1.5384464   0.41892569   135291 
24750000   0.10676832   -1.5382541   -1.5382541   -1.1196371 0.0085106343   -1.5382541     0.418617   135173 
24760000   0.10678909   -1.5399229   -1.5399229   -1.1208587 0.0021713846   -1.5399229   0.41906426   135055 
24770000   0.10673602   -1.5413286   -1.5413286   -1.1221094 0.0083750106   -1.5413286   0.41921918   134938 
24780000   0.10575869   -1.5416826   -1.5416826   -1.1259384 0.0093223432   -1.5416826   0.41574415   134820 
24790000   0.10576375   -1.5435325   -1.5435325   -1.1274043  0.010610606   -1.5435325   0.41612824   134702 
24800000   0.10574717   -1.5429106   -1.5429106   -1.1264858 0.0096489574   -1.5429106   0.41642472   134585 
24810000   0.10617128   -1.5426115   -1.5426115   -1.1241497  0.010285767   -1.5426115   0.41846173   134467 
24820000   0.10569261   -1.5405486   -1.5405486   -1.1236076  0.012654698   -1.5405486   0.41694098   134349 
24830000   0.10548901   -1.5396926   -1.5396926    -1.123192 0.0090225678   -1.5396926   0.41650053   134232 
24840000   0.10528067   -1.5419084   -1.5419084   -1.1258647 0.0090303636   -1.5419084   0.41604366   134114 
24850000   0.10511927   -1.5366331   -1.5366331   -1.1208645  0.009360957   -1.5366331   0.41576858   133997 
24860000   0.10422555   -1.5375617   -1.5375617   -1.1249646  0.010149845   -1.5375617   0.41259707   133879 
24870000   0.10394022   -1.5380181   -1.5380181   -1.1261876 0.0059088839   -1.5380181   0.41183053   133761 
24880000   0.10353129   -1.5345622   -1.5345622   -1.1239928 0.0068208658   -1.5345622    0.4105694   133644 
24890000   0.10314281    -1.532124    -1.532124   -1.1227337 0.0069154877    -1.532124   0.40939028   133526 
24900000   0.10365038   -1.5376853   -1.5376853   -1.1259165 0.0093465769   -1.5376853    0.4117688   133408 
24910000   0.10307444   -1.5365576   -1.5365576   -1.1267174  0.011311915   -1.5365576   0.40984018   133291 
24920000   0.10291765   -1.5380184   -1.5380184    -1.128439 0.0078781771   -1.5380184   0.40957936   133173 
24930000   0.10282351   -1.5336894   -1.5336894   -1.1241218 0.0097147088   -1.5336894   0.40956762   133055 
24940000   0.10263244   -1.5339004   -1.5339004    -1.124734 0.0014894887   -1.5339004   0.40916634   132938 
24950000   0.10200241   -1.5315971   -1.5315971   -1.1245812 0.0068490604   -1.5315971   0.40701589   132820 
24960000   0.10210367    -1.532893    -1.532893   -1.1251108 0.0090822358    -1.532893    0.4077822   132702 
24970000   0.10226902   -1.5335682   -1.5335682   -1.1247652 0.0077518378   -1.5335682   0.40880304   132585 
24980000   0.10223802   -1.5330975   -1.5330975   -1.1240543 0.0025562254   -1.5330975   0.40904315   132467 
24990000   0.10187594   -1.5289413   -1.5289413   -1.1209834  0.017539732   -1.5289413   0.40795789   132349 
25000000   0.10187844   -1.5296488   -1.5296488   -1.1213199 0.0043976882   -1.5296488   0.40832889   132232 
25010000    0.1010405   -1.5297619   -1.5297619   -1.1244298 0.0090140735   -1.5297619   0.40533214   132114 
25020000   0.10126572   -1.5294327   -1.5294327    -1.122837 0.0089298724   -1.5294327   0.40659569   131997 
25030000   0.10040479   -1.5290752   -1.5290752   -1.1255755 0.0073409956   -1.5290752   0.40349968   131879 
25040000   0.10052164    -1.532635    -1.532635    -1.128304 0.0078208821    -1.532635   0.40433106   131761 
25050000   0.10057966   -1.5317921   -1.5317921   -1.1268682 0.0073674982   -1.5317921   0.40492396   131644 
25060000   0.10058498   -1.5323706   -1.5323706   -1.1270619 0.0028694087   -1.5323706    0.4053087   131526 
25070000  0.099659829   -1.5315388   -1.5315388   -1.1295974  0.005480576   -1.5315388   0.40194139   131408 
25080000    0.1000951   -1.5294874   -1.5294874   -1.1254307 0.0056609708   -1.5294874   0.40405666   131291 
25090000  0.099841794   -1.5299787   -1.5299787    -1.126582 0.0019188394   -1.5299787   0.40339668   131173 
25100000  0.099941645   -1.5299231   -1.5299231   -1.1257594 0.0077034184   -1.5299231   0.40416369   131055 
25110000   0.09958265   -1.5302166   -1.5302166   -1.1271448 0.0043139215   -1.5302166   0.40307176   130938 
25120000  0.099170407   -1.5289254   -1.5289254   -1.1271602  0.004661817   -1.5289254   0.40176523   130820 
25130000  0.098833032    -1.527673    -1.527673   -1.1269131 0.0040422536    -1.527673   0.40075992   130702 
25140000  0.098879753   -1.5289628   -1.5289628   -1.1276541 0.0083903318   -1.5289628   0.40130861   130585 
25150000  0.098283956   -1.5269367   -1.5269367   -1.1276854 0.0022512927   -1.5269367   0.39925131   130467 
25160000  0.098406924    -1.526134    -1.526134   -1.1260213 0.0065454367    -1.526134   0.40011271   130349 
25170000   0.09811355   -1.5245177   -1.5245177   -1.1252394 0.0067172552   -1.5245177   0.39927827   130232 
25180000  0.098123028   -1.5227756   -1.5227756   -1.1230967  0.003971012   -1.5227756   0.39967898   130114 
25190000  0.097403477   -1.5214283   -1.5214283   -1.1243231 0.0041436576   -1.5214283   0.39710516   129997 
25200000  0.097617575   -1.5206319   -1.5206319   -1.1222923 0.0078644062   -1.5206319   0.39833959   129879 
25210000   0.09732968   -1.5216324   -1.5216324   -1.1241064  0.011348143   -1.5216324   0.39752597   129761 
25220000  0.097725687   -1.5220117   -1.5220117   -1.1225081 0.0066287648   -1.5220117   0.39950361   129644 
25230000   0.09682328    -1.520262    -1.520262   -1.1240869 0.0089106451    -1.520262   0.39617515   129526 
25240000  0.096466785   -1.5211815   -1.5211815   -1.1261051 0.0052067627   -1.5211815   0.39507639   129408 
25250000  0.096945164   -1.5210218   -1.5210218   -1.1236269 -0.0001306204   -1.5210218   0.39739487   129291 
25260000  0.096254268   -1.5230002   -1.5230002    -1.128077 0.0084529601   -1.5230002    0.3949232   129173 
25270000  0.095868942   -1.5214546   -1.5214546   -1.1277527  0.010572373   -1.5214546   0.39370189   129055 
25280000  0.095984307   -1.5196822   -1.5196822   -1.1251488 0.0066298711   -1.5196822   0.39453333   128938 
25290000  0.095305487    -1.519938    -1.519938   -1.1278361 0.0061471226    -1.519938   0.39210195   128820 
25300000  0.094930961   -1.5174866   -1.5174866   -1.1265674 0.0084781664   -1.5174866   0.39091918   128702 
25310000  0.095113848   -1.5196404   -1.5196404   -1.1276117  0.011730668   -1.5196404   0.39202868   128585 
25320000   0.09485034   -1.5167963   -1.5167963   -1.1254946 0.0004514206   -1.5167963   0.39130168   128467 
25330000  0.094558049   -1.5163044   -1.5163044   -1.1258499 0.0063442999   -1.5163044   0.39045448   128349 
25340000  0.094854025   -1.5155525   -1.5155525   -1.1235185 0.0023506397   -1.5155525   0.39203401   128232 
25350000  0.094851527   -1.5158938   -1.5158938    -1.123509 0.0035457944   -1.5158938   0.39238476   128114 
25360000  0.093784129   -1.5167549   -1.5167549   -1.1284312 0.0069173798   -1.5167549   0.38832375   127997 
25370000   0.09326228    -1.518517    -1.518517   -1.1319977 0.0076320697    -1.518517   0.38651931   127879 
25380000  0.093555594   -1.5184038   -1.5184038   -1.1303108 0.0083156667   -1.5184038   0.38809304   127761 
25390000  0.093192688    -1.517114    -1.517114    -1.130172 0.0063045247    -1.517114   0.38694196   127644 
25400000  0.092940857   -1.5141156   -1.5141156   -1.1278622 0.0057345613   -1.5141156   0.38625341   127526 
25410000  0.092835436   -1.5096981   -1.5096981   -1.1235255 0.0055238487   -1.5096981   0.38617262   127408 
25420000  0.093108981   -1.5086183   -1.5086183   -1.1209518  0.007604087   -1.5086183    0.3876665   127291 
25430000  0.093168082   -1.5093303   -1.5093303   -1.1210577 0.0085680634   -1.5093303    0.3882725   127173 
25440000  0.092394107   -1.5124817   -1.5124817   -1.1270771  0.004639249   -1.5124817   0.38540461   127055 
25450000   0.09188558   -1.5075341   -1.5075341   -1.1238974 0.0055667525   -1.5075341   0.38363667   126938 
25460000  0.092528863    -1.508866    -1.508866    -1.122184  0.012787021    -1.508866   0.38668193   126820 
25470000  0.091742263   -1.5107208   -1.5107208    -1.126969 0.0051939802   -1.5107208   0.38375176   126702 
25480000  0.091774254   -1.5120419   -1.5120419   -1.1278015 0.0019344817   -1.5120419   0.38424039   126585 
25490000  0.091644456   -1.5108963   -1.5108963   -1.1268413 0.0069477042   -1.5108963   0.38405496   126467 
25500000  0.090970762   -1.5110374   -1.5110374   -1.1294497 0.0055350204   -1.5110374   0.38158775   126349 
25510000   0.09120408    -1.510362    -1.510362    -1.127441 0.0067549711    -1.510362   0.38292102   126232 
25520000  0.091364637   -1.5101732   -1.5101732   -1.1262192 0.0072414779   -1.5101732   0.38395403   126114 
25530000  0.090607827   -1.5052967   -1.5052967   -1.1241695 0.0037128899   -1.5052967   0.38112717   125997 
25540000  0.090342585   -1.5047272   -1.5047272   -1.1243595 0.0042491549   -1.5047272   0.38036769   125879 
25550000   0.08975336   -1.5046467   -1.5046467   -1.1264053 0.0018813101   -1.5046467   0.37824146   125761 
25560000  0.089385047   -1.5038898   -1.5038898   -1.1268497 0.0056622333   -1.5038898   0.37704008   125644 
25570000   0.08970197   -1.5034162   -1.5034162   -1.1246836  0.009261086   -1.5034162    0.3787326   125526 
25580000  0.089473571   -1.5016334   -1.5016334   -1.1235097  0.003562042   -1.5016334   0.37812372   125408 
25590000   0.08897878   -1.5035257   -1.5035257   -1.1271419 0.0085010766   -1.5035257   0.37638384   125291 
25600000  0.089510621   -1.5010079   -1.5010079   -1.1220174  0.006561217   -1.5010079   0.37899049   125173 
25610000  0.088611136   -1.5013834   -1.5013834   -1.1258473 0.0093073792   -1.5013834   0.37553606   125055 
25620000  0.088598988   -1.5017915   -1.5017915   -1.1259553  0.004633315   -1.5017915    0.3758362   124938 
25630000  0.088637128   -1.5007416   -1.5007416   -1.1243881 0.0080945716   -1.5007416   0.37635344   124820 
25640000  0.088095848   -1.5007514   -1.5007514   -1.1263423 -0.00015044574   -1.5007514   0.37440912   124702 
25650000  0.088272474   -1.5000329   -1.5000329   -1.1245208 0.0043522445   -1.5000329    0.3755121   124585 
25660000   0.08821481   -1.5023803   -1.5023803   -1.1267577 0.00043230821   -1.5023803   0.37562257   124467 
25670000  0.087786095   -1.5027226   -1.5027226   -1.1285708 0.00017542235   -1.5027226   0.37415179   124349 
25680000  0.087307025    -1.502187    -1.502187   -1.1297266 0.0043264631    -1.502187    0.3724604   124232 
25690000  0.086878357   -1.5024764   -1.5024764   -1.1314924 0.0064139593   -1.5024764   0.37098404   124114 
25700000  0.086597539   -1.4986285   -1.4986285   -1.1284947 -0.0012717152   -1.4986285   0.37013382   123997 
25710000  0.087320137    -1.497587    -1.497587   -1.1240091 0.0047563309    -1.497587   0.37357785   123879 
25720000   0.08661881   -1.4977414   -1.4977414   -1.1268107 0.0025974697   -1.4977414   0.37093072   123761 
25730000  0.086094711   -1.5004692   -1.5004692    -1.131434 0.0030353109   -1.5004692   0.36903523   123644 
25740000   0.08609317   -1.4969533   -1.4969533   -1.1275722 0.0077673881   -1.4969533   0.36938114   123526 
25750000  0.085957324   -1.4976593   -1.4976593   -1.1285084 0.0052507812   -1.4976593   0.36915093   123408 
25760000  0.085934665   -1.4934174   -1.4934174   -1.1240135 0.0075831203   -1.4934174   0.36940384   123291 
25770000  0.085649831   -1.4960456   -1.4960456   -1.1275135 0.0035571106   -1.4960456   0.36853216   123173 
25780000  0.085654499    -1.495256    -1.495256   -1.1263503 0.0023682223    -1.495256   0.36890565   123055 
25790000  0.085492591   -1.4961592   -1.4961592   -1.1276004   0.00121297   -1.4961592   0.36855876   122938 
25800000  0.084660394    -1.492856    -1.492856   -1.1275342 0.0049668321    -1.492856    0.3653218   122820 
25810000   0.08452395   -1.4916888   -1.4916888    -1.126605 0.0089553796   -1.4916888   0.36508378   122702 
25820000  0.084825533   -1.4911485   -1.4911485   -1.1244124  0.006062561   -1.4911485    0.3667361   122585 
25830000  0.084550897   -1.4899663   -1.4899663   -1.1240653 0.0047524753   -1.4899663   0.36590095   122467 
25840000  0.084460867    -1.491045    -1.491045   -1.1251811 0.0016182592    -1.491045   0.36586386   122349 
25850000  0.084233933   -1.4914556   -1.4914556   -1.1262256 -0.0020553476   -1.4914556    0.3652301   122232 
25860000  0.084386539   -1.4919684   -1.4919684   -1.1257231  0.010135975   -1.4919684   0.36624534   122114 
25870000  0.084115314   -1.4920258   -1.4920258   -1.1266075 0.0033125717   -1.4920258   0.36541832   121997 
25880000  0.083790281   -1.4895538   -1.4895538   -1.1251951 0.00021221351   -1.4895538   0.36435872   121879 
25890000  0.083266608   -1.4915651   -1.4915651   -1.1291326 0.0021274774   -1.4915651   0.36243244   121761 
25900000  0.083080265   -1.4883327   -1.4883327   -1.1263636 0.0066899596   -1.4883327   0.36196916   121644 
25910000  0.082652607   -1.4853781   -1.4853781   -1.1249225 0.0043987267   -1.4853781   0.36045558   121526 
25920000   0.08330721   -1.4878627   -1.4878627   -1.1241992 0.0042398166   -1.4878627   0.36366348   121408 
25930000  0.082753425   -1.4836167   -1.4836167   -1.1220222 0.0072415302   -1.4836167   0.36159448   121291 
25940000  0.082132892   -1.4794909   -1.4794909   -1.1202584 0.0053686698   -1.4794909   0.35923252   121173 
25950000  0.082047716   -1.4810742   -1.4810742   -1.1218644 0.00024265805   -1.4810742   0.35920979   121055 
25960000  0.081974949   -1.4808493   -1.4808493   -1.1216109 0.0020305953   -1.4808493   0.35923841   120938 
25970000   0.08186022   -1.4796692   -1.4796692   -1.1205832 0.0088999159   -1.4796692     0.359086   120820 
25980000  0.081824958   -1.4795802   -1.4795802    -1.120298 0.0046897674   -1.4795802   0.35928222   120702 
25990000  0.081233409   -1.4805354   -1.4805354   -1.1235045  0.013180273   -1.4805354   0.35703089   120585 
26000000  0.080986337   -1.4814952   -1.4814952   -1.1252015 0.0020200378   -1.4814952   0.35629363   120467 
26010000  0.081554392   -1.4784704   -1.4784704   -1.1193259 0.0023918566   -1.4784704   0.35914454   120349 
26020000  0.080920092   -1.4803476   -1.4803476   -1.1236496 0.0027865565   -1.4803476   0.35669801   120232 
26030000  0.080561843   -1.4777513   -1.4777513   -1.1222836 0.00083484308   -1.4777513   0.35546772   120114 
26040000  0.080323809   -1.4733782   -1.4733782   -1.1186152 0.0018162312   -1.4733782   0.35476299   119997 
26050000  0.080278991   -1.4728952   -1.4728952   -1.1179811 0.00067611551   -1.4728952   0.35491405   119879 
26060000  0.080539368   -1.4744293   -1.4744293   -1.1180133 0.0038051621   -1.4744293   0.35641601   119761 
26070000  0.079573581   -1.4735472   -1.4735472   -1.1210608 0.0048991407   -1.4735472   0.35248641   119644 
26080000  0.079531848   -1.4699833   -1.4699833   -1.1173339 0.00057660376   -1.4699833   0.35264935   119526 
26090000  0.079870401   -1.4705091   -1.4705091   -1.1160086 0.0047454066   -1.4705091   0.35450049   119408 
26100000  0.079256818   -1.4689267   -1.4689267   -1.1168046 0.0027305154   -1.4689267   0.35212216   119291 
26110000  0.079349167   -1.4666583   -1.4666583   -1.1137768  0.005875029   -1.4666583   0.35288151   119173 
26120000   0.07900519   -1.4662527   -1.4662527   -1.1145527 0.00099854355   -1.4662527   0.35170001   119055 
26130000  0.078173811   -1.4698158   -1.4698158   -1.1214745 0.0044710372   -1.4698158   0.34834137   118938 
26140000  0.078577613   -1.4700815   -1.4700815   -1.1195931 0.0067892134   -1.4700815   0.35048843   118820 
26150000  0.078308212   -1.4652325   -1.4652325   -1.1155984 0.0021542589   -1.4652325   0.34963401   118702 
26160000  0.078106571   -1.4673786   -1.4673786   -1.1183009 0.0047538938   -1.4673786   0.34907778   118585 
26170000  0.077543326   -1.4664231   -1.4664231   -1.1195174 0.0047403423   -1.4664231    0.3469057   118467 
26180000  0.076984774   -1.4689892   -1.4689892   -1.1242389 0.0058541561   -1.4689892   0.34475029   118349 
26190000  0.076168673   -1.4642146   -1.4642146   -1.1227814 0.0023174406   -1.4642146    0.3414332   118232 
26200000  0.076800779   -1.4674424   -1.4674424   -1.1228318 0.0067648396   -1.4674424   0.34461061   118114 
26210000  0.076091743   -1.4670972   -1.4670972   -1.1253295 0.00032171404   -1.4670972   0.34176766   117997 
26220000  0.076259163   -1.4644448   -1.4644448   -1.1215823 0.0057270538   -1.4644448    0.3428625   117879 
26230000  0.076430711   -1.4657461   -1.4657461    -1.121768 0.00089649748   -1.4657461   0.34397812   117761 
26240000  0.075882796    -1.457967    -1.457967   -1.1161152 0.0087419597    -1.457967   0.34185185   117644 
26250000  0.076267447   -1.4609252   -1.4609252   -1.1169955  0.003035456   -1.4609252   0.34392968   117526 
26260000  0.075836026    -1.460837    -1.460837   -1.1185091 0.0010054584    -1.460837   0.34232788   117408 
26270000  0.075835076   -1.4577848   -1.4577848   -1.1151197 0.0021580873   -1.4577848   0.34266507   117291 
26280000  0.075537116    -1.455956    -1.455956   -1.1142935 0.0057837351    -1.455956   0.34166245   117173 
26290000  0.074962883   -1.4567683   -1.4567683   -1.1173613 0.0033551163   -1.4567683   0.33940693   117055 
26300000  0.074619806   -1.4589841   -1.4589841   -1.1207924 0.0013663023   -1.4589841   0.33819163   116938 
26310000   0.07455637   -1.4570519   -1.4570519   -1.1188064 0.0025546147   -1.4570519   0.33824544   116820 
26320000  0.074880312   -1.4513912   -1.4513912   -1.1113327 0.0056587335   -1.4513912   0.34005858   116702 
26330000  0.074277247   -1.4504094   -1.4504094    -1.112751 0.0023390542   -1.4504094   0.33765837   116585 
26340000  0.074445134   -1.4487429   -1.4487429   -1.1099785 0.0030350408   -1.4487429   0.33876444   116467 
26350000  0.074247132   -1.4489798   -1.4489798   -1.1107737 0.0028528491   -1.4489798   0.33820609   116349 
26360000   0.07354974    -1.448302    -1.448302   -1.1129354 0.0020503978    -1.448302   0.33536662   116232 
26370000  0.073431026   -1.4465297   -1.4465297   -1.1113641 0.0078784205   -1.4465297   0.33516558   116114 
26380000  0.073724964   -1.4448313   -1.4448313   -1.1079846 0.0013449372   -1.4448313   0.33684663   115997 
26390000  0.073472765   -1.4461869   -1.4461869   -1.1101507 0.00072696084   -1.4461869   0.33603618   115879 
26400000  0.072698485   -1.4452108   -1.4452108   -1.1123769 0.0044219447   -1.4452108   0.33283385   115761 
26410000  0.072405234   -1.4464214   -1.4464214   -1.1145947 0.0037955463   -1.4464214   0.33182664   115644 
26420000  0.072153357    -1.446671    -1.446671   -1.1156609 0.00022395196    -1.446671   0.33101007   115526 
26430000  0.072447503   -1.4457356   -1.4457356   -1.1130363 0.0065740766   -1.4457356   0.33269931   115408 
26440000  0.072185112   -1.4476645   -1.4476645   -1.1158337 0.00046853452   -1.4476645   0.33183075   115291 
26450000  0.071443226   -1.4413572   -1.4413572   -1.1126004  0.004734218   -1.4413572   0.32875682   115173 
26460000  0.072026279   -1.4428178   -1.4428178   -1.1110381 0.0017267749   -1.4428178   0.33177975   115055 
26470000  0.071255976   -1.4399217   -1.4399217   -1.1113561 0.0049023993   -1.4399217   0.32856557   114938 
26480000  0.070910997   -1.4387866   -1.4387866   -1.1114757 0.0054343624   -1.4387866   0.32731088   114820 
26490000  0.071114339   -1.4400719   -1.4400719   -1.1114847 0.0037335813   -1.4400719   0.32858716   114702 
26500000  0.070847753   -1.4351702   -1.4351702   -1.1074806 0.0065307508   -1.4351702   0.32768964   114585 
26510000  0.070330572   -1.4371492   -1.4371492   -1.1115163 0.0031423861   -1.4371492   0.32563288   114467 
26520000  0.070241864   -1.4344888   -1.4344888    -1.108931 0.0087779662   -1.4344888   0.32555776   114349 
26530000  0.070919637   -1.4354946   -1.4354946   -1.1064588 -0.0020627758   -1.4354946   0.32903578   114232 
26540000  0.070588522   -1.4337984   -1.4337984   -1.1059602  0.001515965   -1.4337984    0.3278382   114114 
26550000  0.070523173   -1.4346414   -1.4346414   -1.1067705 0.0067231101   -1.4346414   0.32787086   113997 
26560000  0.070349472   -1.4316184   -1.4316184   -1.1042162 0.0047602156   -1.4316184    0.3274022   113879 
26570000  0.069597194   -1.4294507   -1.4294507   -1.1052136 -0.0013256457   -1.4294507   0.32423712   113761 
26580000  0.069177436   -1.4304893   -1.4304893    -1.107876 0.0042348808   -1.4304893   0.32261336   113644 
26590000  0.069080341   -1.4296746   -1.4296746   -1.1071792 0.0039235355   -1.4296746   0.32249541   113526 
26600000  0.068690102   -1.4318801   -1.4318801   -1.1108728 0.0036550747   -1.4318801   0.32100727   113408 
26610000  0.068835744   -1.4286362   -1.4286362    -1.106616 0.0090970739   -1.4286362   0.32202011   113291 
26620000  0.068414738   -1.4288041   -1.4288041   -1.1084198  0.001608393   -1.4288041   0.32038431   113173 
26630000  0.068272602   -1.4299429   -1.4299429   -1.1098905 0.00030378226   -1.4299429   0.32005239   113055 
26640000  0.067958511   -1.4263034   -1.4263034   -1.1073934 0.0023855525   -1.4263034   0.31891002   112938 
26650000  0.068184622   -1.4282884   -1.4282884   -1.1079826 0.00084739659   -1.4282884   0.32030575   112820 
26660000  0.067814835   -1.4270142   -1.4270142   -1.1081121  0.003277207   -1.4270142   0.31890217   112702 
26670000  0.067236285   -1.4237012   -1.4237012   -1.1071911 0.0013131845   -1.4237012    0.3165101   112585 
26680000   0.06728572   -1.4219204   -1.4219204   -1.1048452 0.0028115899   -1.4219204   0.31707514   112467 
26690000  0.067700697   -1.4260854   -1.4260854   -1.1067196 0.0021381464   -1.4260854   0.31936574   112349 
26700000  0.067172321   -1.4246169   -1.4246169   -1.1074133 0.0050125872   -1.4246169   0.31720356   112232 
26710000  0.066354735   -1.4221156   -1.4221156   -1.1084431  0.001103006   -1.4221156   0.31367252   112114 
26720000  0.066359541   -1.4201416   -1.4201416   -1.1061186 0.0009398825   -1.4201416   0.31402295   111997 
26730000  0.066335273   -1.4217628   -1.4217628   -1.1075236 0.0041815311   -1.4217628   0.31423919   111879 
26740000  0.066136467   -1.4213608   -1.4213608   -1.1077326 0.0040650724   -1.4213608    0.3136282   111761 
26750000  0.065845141   -1.4131359   -1.4131359    -1.100562 0.0013798187   -1.4131359   0.31257392   111644 
26760000  0.065748515   -1.4114753   -1.4114753   -1.0990299 0.0051221726   -1.4114753   0.31244546   111526 
26770000   0.06544326   -1.4115438   -1.4115438   -1.1002196  -0.00156082   -1.4115438   0.31132425   111408 
26780000  0.064816561   -1.4103264   -1.4103264   -1.1016593 0.0015646269   -1.4103264    0.3086671   111291 
26790000  0.064864166   -1.4080674   -1.4080674   -1.0988458 0.0032668142   -1.4080674   0.30922166   111173 
26800000  0.064316964    -1.403666    -1.403666   -1.0967272 0.00028972929    -1.403666   0.30693882   111055 
26810000  0.064320551   -1.4069168   -1.4069168   -1.0996371 0.0019100726   -1.4069168   0.30727966   110938 
26820000  0.063921193   -1.4051573   -1.4051573   -1.0994603 -0.0032229874   -1.4051573   0.30569696   110820 
26830000  0.064309951   -1.4093342   -1.4093342   -1.1014502 0.0043628318   -1.4093342   0.30788399   110702 
26840000  0.064000003   -1.4050399   -1.4050399   -1.0983156 0.0028169549   -1.4050399   0.30672429   110585 
26850000  0.063420592   -1.4014488   -1.4014488   -1.0971767 -0.0032934868   -1.4014488    0.3042721   110467 
26860000  0.063291731   -1.4053673   -1.4053673   -1.1013887 0.0036870055   -1.4053673   0.30397857   110349 
26870000  0.063194031    -1.403358    -1.403358   -1.0995265 0.0016081082    -1.403358   0.30383148   110232 
26880000  0.063128355   -1.4047345   -1.4047345   -1.1008935 -0.0045789966   -1.4047345   0.30384097   110114 
26890000  0.062921764   -1.4038993   -1.4038993   -1.1007305 -0.0018108458   -1.4038993   0.30316876   109997 
26900000  0.062817314   -1.3986256   -1.3986256   -1.0956351 -7.6387442e-05   -1.3986256   0.30299053   109879 
26910000  0.062256251   -1.3997754   -1.3997754   -1.0991682 0.0030872658   -1.3997754   0.30060715   109761 
26920000  0.062205714   -1.4016337   -1.4016337   -1.1009501 -0.0042684753   -1.4016337   0.30068364   109644 
26930000  0.061288452    -1.396624    -1.396624   -1.1000549 -0.0062793627    -1.396624   0.29656905   109526 
26940000  0.061393761   -1.3953621   -1.3953621    -1.097963 -0.0024005425   -1.3953621   0.29739904   109408 
26950000  0.061602724   -1.3999453   -1.3999453   -1.1012146 -0.00099125983   -1.3999453   0.29873074   109291 
26960000  0.061237698   -1.4000297   -1.4000297   -1.1027481 0.0033089851   -1.4000297   0.29728158   109173 
26970000  0.061068717    -1.399502    -1.399502     -1.10272 -0.00090036079    -1.399502   0.29678204   109055 
26980000  0.060842181   -1.3984978   -1.3984978   -1.1024991 -0.0087571456   -1.3984978   0.29599868   108938 
26990000  0.060692162   -1.3945549   -1.3945549   -1.0989659 -0.0086154042   -1.3945549   0.29558901   108820 
27000000  0.060322293   -1.3929613   -1.3929613   -1.0988547 0.0006088334   -1.3929613   0.29410656   108702 
27010000  0.060510084   -1.3955588   -1.3955588   -1.1002187 4.4859018e-05   -1.3955588   0.29534003   108585 
27020000  0.059860823   -1.3932595   -1.3932595   -1.1007706 -0.0012961758   -1.3932595   0.29248894   108467 
27030000  0.060071627    -1.395854    -1.395854   -1.1020154 -0.0013524855    -1.395854   0.29383863   108349 
27040000  0.059567369   -1.3923208   -1.3923208   -1.1006337 0.0041245703   -1.3923208   0.29168704   108232 
27050000  0.059658001   -1.3883224   -1.3883224   -1.0958727 -0.001273039   -1.3883224   0.29244969   108114 
27060000   0.05930371   -1.3879337   -1.3879337   -1.0969059 0.00027692462   -1.3879337   0.29102786   107997 
27070000   0.05943569   -1.3846346   -1.3846346     -1.09264 -0.0030544519   -1.3846346   0.29199458   107879 
27080000  0.059137741   -1.3855483   -1.3855483   -1.0946993 0.0002349486   -1.3855483   0.29084896   107761 
27090000  0.058639379   -1.3828887   -1.3828887   -1.0941773 -0.00013109365   -1.3828887    0.2887114   107644 
27100000  0.058620548   -1.3856698   -1.3856698   -1.0967344 -0.001156429   -1.3856698   0.28893542   107526 
27110000  0.058396591   -1.3853358   -1.3853358    -1.097188 0.0081131476   -1.3853358   0.28814777   107408 
27120000  0.058150509   -1.3788127   -1.3788127   -1.0915662 -0.0035655692   -1.3788127   0.28724642   107291 
27130000  0.058136944   -1.3759695   -1.3759695   -1.0884739 0.00014297355   -1.3759695   0.28749561   107173 
27140000  0.057326026   -1.3772469   -1.3772469    -1.093449 -0.0036076277   -1.3772469   0.28379797   107055 
27150000  0.057416018   -1.3765228   -1.3765228   -1.0919683 -0.0041751016   -1.3765228   0.28455447   106938 
27160000  0.057442953   -1.3752543   -1.3752543   -1.0902519 0.0026427642   -1.3752543   0.28500244   106820 
27170000   0.05676129   -1.3733109   -1.3733109   -1.0913791 -0.0016758227   -1.3733109   0.28193182   106702 
27180000  0.056525185   -1.3739892   -1.3739892   -1.0929219 0.0028527072   -1.3739892   0.28106729   106585 
27190000  0.056596362   -1.3737347   -1.3737347   -1.0920016 -0.00048069782   -1.3737347   0.28173311   106467 
27200000  0.056405114   -1.3700588   -1.3700588   -1.0889661  0.001688572   -1.3700588   0.28109264   106349 
27210000  0.056096962   -1.3714504   -1.3714504   -1.0915855 -0.0028085138   -1.3714504   0.27986487   106232 
27220000  0.055450927   -1.3702735   -1.3702735   -1.0933241 -0.00053272061   -1.3702735   0.27694946   106114 
27230000  0.055836969   -1.3667016   -1.3667016   -1.0875162 -0.0029277753   -1.3667016   0.27918537   105997 
27240000  0.055530383   -1.3637385   -1.3637385   -1.0857767 -0.0058759825   -1.3637385   0.27796188   105879 
27250000  0.055444051     -1.36381     -1.36381   -1.0859706 0.0035958893     -1.36381   0.27783938   105761 
27260000  0.055025993   -1.3596928   -1.3596928    -1.083643 -8.7927165e-06   -1.3596928   0.27604981   105644 
27270000   0.05490295   -1.3599425   -1.3599425    -1.084202 -0.0027726941   -1.3599425   0.27574053   105526 
27280000  0.054977569   -1.3605555   -1.3605555   -1.0841311 -0.0042493953   -1.3605555   0.27642439   105408 
27290000  0.054429336   -1.3570039   -1.3570039   -1.0830319 -0.0041280588   -1.3570039     0.273972   105291 
27300000  0.054332556   -1.3551007   -1.3551007    -1.081309 -0.0018973934   -1.3551007   0.27379169   105173 
27310000  0.054243852   -1.3548469   -1.3548469   -1.0811951 0.00084812408   -1.3548469   0.27365173   105055 
27320000  0.053990205   -1.3530299   -1.3530299   -1.0803541 -0.0056552867   -1.3530299   0.27267579   104938 
27330000  0.053651669   -1.3512445   -1.3512445   -1.0799735 -0.0068175132   -1.3512445   0.27127107   104820 
27340000   0.05378229   -1.3517116   -1.3517116   -1.0794736 -0.0039382987   -1.3517116   0.27223798   104702 
27350000  0.053339348   -1.3502925   -1.3502925   -1.0799945 -0.001477004   -1.3502925   0.27029792   104585 
27360000  0.053225285   -1.3474555   -1.3474555    -1.077431 -0.0031775416   -1.3474555   0.27002456   104467 
27370000  0.052885957   -1.3477954   -1.3477954   -1.0791889 -0.00079670249   -1.3477954   0.26860647   104349 
27380000  0.052611688    -1.348687    -1.348687   -1.0811736 0.00013703951    -1.348687   0.26751341   104232 
27390000  0.052475459   -1.3462794   -1.3462794   -1.0791563 0.00030784275   -1.3462794   0.26712314   104114 
27400000  0.052126495   -1.3400104   -1.3400104   -1.0743652 -0.0014103398   -1.3400104   0.26564528   103997 
27410000  0.052294069   -1.3404326   -1.3404326   -1.0736307 -0.00030229283   -1.3404326   0.26680199   103879 
27420000  0.052163618   -1.3354544   -1.3354544   -1.0690153 0.00095137404   -1.3354544    0.2664391   103761 
27430000  0.051323723   -1.3321497   -1.3321497   -1.0697047 0.00085461649   -1.3321497   0.26244505   103644 
27440000  0.051624901   -1.3279852   -1.3279852   -1.0636992 -0.0031471192   -1.3279852   0.26428602   103526 
27450000  0.051369108   -1.3297419   -1.3297419   -1.0664653 -0.0022900289   -1.3297419   0.26327661   103408 
27460000  0.051083188   -1.3312982   -1.3312982   -1.0691905 -0.00054578935   -1.3312982   0.26210778   103291 
27470000  0.051038857   -1.3272947   -1.3272947   -1.0651149 -0.0052600683   -1.3272947   0.26217983   103173 
27480000  0.051083512   -1.3264743   -1.3264743   -1.0637647 0.0011408776   -1.3264743   0.26270968   103055 
27490000  0.050718357   -1.3228305   -1.3228305   -1.0617023 0.0037332338   -1.3228305   0.26112825   102938 
27500000   0.05068138   -1.3223932   -1.3223932   -1.0611559 -0.0028039952   -1.3223932   0.26123733   102820 
27510000  0.049997657   -1.3151366   -1.3151366   -1.0571275 -0.0034124975   -1.3151366   0.25800917   102702 
27520000  0.049887692   -1.3151316   -1.3151316   -1.0573963 -0.0043770824   -1.3151316   0.25773533   102585 
27530000  0.049905329   -1.3131969   -1.3131969   -1.0550736 0.00058734771   -1.3131969   0.25812336   102467 
27540000  0.049024406    -1.308839    -1.308839   -1.0549797 -0.0025349538    -1.308839   0.25385933   102349 
27550000  0.049394454   -1.3113581   -1.3113581   -1.0552899 -0.003857521   -1.3113581   0.25606825   102232 
27560000  0.049334156   -1.3116526   -1.3116526   -1.0556014 0.00078238398   -1.3116526    0.2560512   102114 
27570000  0.048948409   -1.3110368   -1.3110368   -1.0566962 -0.0021531021   -1.3110368   0.25434054   101997 
27580000   0.04884872   -1.3112851   -1.3112851   -1.0571686 -9.0223797e-05   -1.3112851   0.25411653   101879 
27590000  0.048703051   -1.3105263   -1.3105263   -1.0568738 -0.0036601066   -1.3105263   0.25365253   101761 
27600000   0.04858019   -1.3099759   -1.3099759    -1.056672 -0.0024239176   -1.3099759   0.25330389   101644 
27610000   0.04810231   -1.3033811   -1.3033811   -1.0522774 -0.0024441402   -1.3033811   0.25110367   101526 
27620000  0.047603201   -1.3041845   -1.3041845   -1.0553971 0.00039512922   -1.3041845   0.24878737   101408 
27630000  0.047943753   -1.3009308   -1.3009308   -1.0500742 -0.0061488623   -1.3009308   0.25085662   101291 
27640000  0.047380936     -1.30104     -1.30104   -1.0528391 -0.0038511482     -1.30104   0.24820093   101173 
27650000  0.047317848   -1.2989442   -1.2989442   -1.0507843 -0.0055917552   -1.2989442   0.24815988   101055 
27660000  0.046964822   -1.2980048   -1.2980048   -1.0514109 -0.0027158266   -1.2980048   0.24659393   100938 
27670000  0.046751488   -1.2965598   -1.2965598   -1.0507987 -0.0032320421   -1.2965598    0.2457611   100820 
27680000  0.046409902   -1.2972381   -1.2972381   -1.0529867 -0.00065158982   -1.2972381   0.24425134   100702 
27690000  0.046824349   -1.2972217   -1.2972217   -1.0505025 0.0013730336   -1.2972217   0.24671919   100585 
27700000  0.046082821   -1.2930321   -1.2930321   -1.0499348 -0.0094358668   -1.2930321   0.24309724   100467 
27710000  0.046026464   -1.2917943   -1.2917943   -1.0487089 -0.0038014692   -1.2917943   0.24308545   100349 
27720000  0.046043288   -1.2936733   -1.2936733   -1.0502152 0.0044521554   -1.2936733   0.24345816   100232 
27730000    0.0455827   -1.2954814   -1.2954814   -1.0541746 0.0025349746   -1.2954814   0.24130684   100114 
27740000  0.045575992   -1.2918607   -1.2918607   -1.0503071 -0.00081607545   -1.2918607   0.24155362    99997 
27750000  0.045029258   -1.2869554   -1.2869554   -1.0480175 -0.0026891294   -1.2869554   0.23893788    99879 
27760000  0.044584833   -1.2847697   -1.2847697   -1.0479102 0.0050828257   -1.2847697   0.23685946    99761 
27770000  0.044995337   -1.2813916   -1.2813916   -1.0420706 0.0038625241   -1.2813916   0.23932097    99644 
27780000  0.044871798   -1.2834799   -1.2834799   -1.0445331 -0.0022174668   -1.2834799   0.23894685    99526 
27790000  0.044464589   -1.2821888   -1.2821888   -1.0451293 0.0015367578   -1.2821888   0.23705949    99408 
27800000  0.044206766   -1.2811886   -1.2811886   -1.0452259 0.0019347458   -1.2811886   0.23596265    99291 
27810000  0.043855663   -1.2765163   -1.2765163   -1.0421492 -0.0051137682   -1.2765163   0.23436709    99173 
27820000  0.044250806   -1.2779758   -1.2779758   -1.0412153 0.00045867788   -1.2779758   0.23676047    99055 
27830000   0.04360434   -1.2749425   -1.2749425    -1.041365 -0.0034872255   -1.2749425   0.23357749    98938 
27840000  0.043371757   -1.2736916   -1.2736916   -1.0410826 -0.0051935512   -1.2736916   0.23260902    98820 
27850000  0.043057435   -1.2694255   -1.2694255   -1.0382262 -0.0081681922   -1.2694255   0.23119934    98702 
27860000  0.042801808   -1.2688298   -1.2688298   -1.0387303 0.0012681652   -1.2688298    0.2300995    98585 
27870000  0.042422279    -1.268784    -1.268784   -1.0404515 -0.0036154239    -1.268784   0.22833248    98467 
27880000  0.042614645   -1.2660905   -1.2660905   -1.0364474 -0.0023060169   -1.2660905   0.22964306    98349 
27890000  0.042470229   -1.2654944   -1.2654944    -1.036357  0.002153942   -1.2654944   0.22913742    98232 
27900000  0.042363996   -1.2634854   -1.2634854   -1.0346463 -0.0056117028   -1.2634854   0.22883916    98114 
27910000  0.041686254   -1.2588038   -1.2588038   -1.0333567 -0.0044699274   -1.2588038   0.22544702    97997 
27920000   0.04173147   -1.2549875   -1.2549875   -1.0290238 -0.009145775   -1.2549875   0.22596364    97879 
27930000  0.041658911   -1.2520797   -1.2520797   -1.0262366 -0.0038047071   -1.2520797   0.22584302    97761 
27940000   0.04133771   -1.2474608   -1.2474608   -1.0230905 -0.0015081872   -1.2474608   0.22437024    97644 
27950000  0.041331499    -1.246305    -1.246305   -1.0216971 0.0013218009    -1.246305   0.22460796    97526 
27960000  0.041363246   -1.2441282   -1.2441282   -1.0190755 -0.0036692912   -1.2441282   0.22505278    97408 
27970000  0.040675841   -1.2429944   -1.2429944   -1.0214156 0.00040560923   -1.2429944   0.22157884    97291 
27980000  0.040380803   -1.2388053   -1.2388053   -1.0185665 -0.0081972043   -1.2388053   0.22023875    97173 
27990000  0.040420478   -1.2379965   -1.2379965   -1.0172733 -0.0040524057   -1.2379965   0.22072317    97055 
28000000  0.039888783   -1.2357959   -1.2357959   -1.0177132 -0.0012630595   -1.2357959   0.21808266    96938 
28010000  0.040126176   -1.2331501   -1.2331501   -1.0135021 -0.0068919106   -1.2331501   0.21964792    96820 
28020000  0.039830625    -1.230262    -1.230262   -1.0119658 9.0547608e-05    -1.230262   0.21829614    96702 
28030000  0.039723201   -1.2282373   -1.2282373   -1.0102661 -0.0029851919   -1.2282373   0.21797112    96585 
28040000  0.039265389   -1.2275262   -1.2275262   -1.0118037 0.00055811885   -1.2275262   0.21572254    96467 
28050000  0.039143541   -1.2239558   -1.2239558   -1.0086393 0.0011621976   -1.2239558   0.21531649    96349 
28060000  0.038980144   -1.2193743   -1.2193743   -1.0046959 -0.0028546009   -1.2193743   0.21467839    96232 
28070000  0.038909043   -1.2153958   -1.2153958   -1.0008459 -0.0018436908   -1.2153958   0.21454989    96114 
28080000   0.03852528   -1.2145575   -1.2145575   -1.0018649 0.00064898967   -1.2145575   0.21269268    95997 
28090000  0.038357317   -1.2080088   -1.2080088  -0.99598281 -0.0068317323   -1.2080088     0.212026    95879 
28100000  0.038085904   -1.2092544   -1.2092544   -0.9984693 -0.0079955627   -1.2092544   0.21078514    95761 
28110000  0.038268762   -1.2088286   -1.2088286  -0.99677234 0.00018597427   -1.2088286   0.21205625    95644 
28120000  0.037156041   -1.2039199   -1.2039199  -0.99777519 -0.001111601   -1.2039199   0.20614473    95526 
28130000  0.037275444   -1.1993916   -1.1993916  -0.99232865 1.0306726e-05   -1.1993916   0.20706296    95408 
28140000   0.03727935    -1.200118    -1.200118  -0.99277909 0.0016628002    -1.200118   0.20733893    95291 
28150000  0.037296234    -1.199018    -1.199018    -0.991328 -0.0044051517    -1.199018   0.20769002    95173 
28160000  0.036756568   -1.1973979   -1.1973979  -0.99245899 -0.00013177069   -1.1973979   0.20493889    95055 
28170000  0.036760393   -1.1933342   -1.1933342  -0.98812135 -0.0020934406   -1.1933342   0.20521281    94938 
28180000  0.036626006   -1.1945583   -1.1945583  -0.98984124 0.0036615215   -1.1945583   0.20471705    94820 
28190000  0.036220311   -1.1906746   -1.1906746  -0.98797285 0.00042673082   -1.1906746   0.20270171    94702 
28200000  0.035786559   -1.1884702   -1.1884702  -0.98794814 0.0018381694   -1.1884702   0.20052202    94585 
28210000  0.035508384   -1.1865324   -1.1865324  -0.98732053 -5.366547e-05   -1.1865324   0.19921186    94467 
28220000  0.035704715   -1.1848803   -1.1848803  -0.98431642 -0.0064836037   -1.1848803   0.20056385    94349 
28230000  0.035513829   -1.1858473   -1.1858473  -0.98610798 -0.003721166   -1.1858473   0.19973928    94232 
28240000  0.035024046   -1.1772131   -1.1772131  -0.97998156 -0.0030344626   -1.1772131   0.19723159    94114 
28250000  0.035171104   -1.1755511   -1.1755511  -0.97724485 -0.0028989616   -1.1755511   0.19830625    93997 
28260000  0.034840992   -1.1713251   -1.1713251  -0.97463317 -0.0053529369   -1.1713251   0.19669189    93879 
28270000  0.034556821   -1.1709426   -1.1709426  -0.97560947 -0.0014059604   -1.1709426   0.19533315    93761 
28280000  0.034441633   -1.1679539   -1.1679539  -0.97302859 -0.0063839548   -1.1679539   0.19492528    93644 
28290000  0.034024243   -1.1628663   -1.1628663  -0.97006029 -0.0050578083   -1.1628663   0.19280598    93526 
28300000  0.034196696    -1.164236    -1.164236  -0.97020799 -0.006903238    -1.164236   0.19402803    93408 
28310000  0.033949185   -1.1580753   -1.1580753  -0.96521003 0.0023651899   -1.1580753   0.19286526    93291 
28320000  0.033401954   -1.1599543   -1.1599543   -0.9699575 -0.0082719164   -1.1599543   0.18999676    93173 
28330000  0.033255726   -1.1558667   -1.1558667  -0.96646189 -0.003867544   -1.1558667   0.18940486    93055 
28340000  0.033174175   -1.1556106   -1.1556106  -0.96643235 -0.0059782357   -1.1556106   0.18917825    92938 
28350000  0.032725933   -1.1488259   -1.1488259  -0.96196656 0.00012418765   -1.1488259   0.18685937    92820 
28360000   0.03257849   -1.1419763   -1.1419763  -0.95572202 -0.0019935753   -1.1419763   0.18625427    92702 
28370000  0.032367632    -1.141997    -1.141997  -0.95671436 -0.00099023772    -1.141997   0.18528263    92585 
28380000  0.032074167   -1.1393425   -1.1393425  -0.95550548 -0.0014804337   -1.1393425   0.18383704    92467 
28390000  0.031918001    -1.134988    -1.134988  -0.95181226 -0.0043654021    -1.134988   0.18317571    92349 
28400000  0.031908476   -1.1310403   -1.1310403  -0.94768694 -0.0039504318   -1.1310403   0.18335334    92232 
28410000  0.032177973   -1.1288877   -1.1288877  -0.94374889 -0.0028431541   -1.1288877    0.1851388    92114 
28420000  0.031437172   -1.1242998   -1.1242998  -0.94319319 -0.0076127842   -1.1242998   0.18110657    91997 
28430000  0.031529659   -1.1253663   -1.1253663  -0.94349364 -0.0063086146   -1.1253663   0.18187265    91879 
28440000  0.031054157   -1.1204867   -1.1204867  -0.94112655 -0.0064144499   -1.1204867   0.17936017    91761 
28450000   0.03061043   -1.1178517   -1.1178517  -0.94082861 -0.0044822414   -1.1178517   0.17702304    91644 
28460000   0.03051883    -1.113627    -1.113627  -0.93690616 -0.0050383139    -1.113627   0.17672085    91526 
28470000  0.030285145   -1.1117931   -1.1117931  -0.93619901 -0.0063809905   -1.1117931   0.17559407    91408 
28480000  0.030168324   -1.1074198   -1.1074198  -0.93227892 -0.0083270583   -1.1074198   0.17514092    91291 
28490000  0.030240222   -1.1025146   -1.1025146  -0.92673677 -0.0010808921   -1.1025146   0.17577782    91177 
28500000  0.029899149   -1.0976819   -1.0976819  -0.92367289 -0.006844336   -1.0976819   0.17400901    91065 
28510000  0.029474954   -1.0965953   -1.0965953  -0.92485513 -0.0080014391   -1.0965953   0.17174016    90959 
28520000  0.029616605   -1.0944075   -1.0944075  -0.92164445 -0.0026777447   -1.0944075   0.17276304    90855 
28530000  0.029083676   -1.0874088   -1.0874088  -0.91756194 -0.00021645117   -1.0874088   0.16984685    90752 
28540000   0.02935909   -1.0859337   -1.0859337   -0.9142704 -0.00046556404   -1.0859337   0.17166332    90642 
28550000  0.028961965   -1.0821603   -1.0821603   -0.9126507 -0.0033346826   -1.0821603   0.16950963    90552 
28560000  0.028986923   -1.0786155   -1.0786155  -0.90875528 -0.0063837089   -1.0786155   0.16986017    90443 
28570000  0.028901118    -1.074388    -1.074388  -0.90486195 -0.0044610798    -1.074388   0.16952606    90353 
28580000  0.028524103    -1.073234    -1.073234  -0.90573774 -0.0021644259    -1.073234   0.16749626    90255 
28590000  0.028325135   -1.0707909   -1.0707909  -0.90429883 -0.0053274014   -1.0707909   0.16649208    90166 
28600000  0.028213862   -1.0688601   -1.0688601  -0.90284717 0.00098767708   -1.0688601   0.16601295    90071 
28610000  0.028117748   -1.0677309   -1.0677309  -0.90210881 -0.0070355856   -1.0677309   0.16562209    89976 
28620000  0.027756375   -1.0605652   -1.0605652  -0.89692258 0.0015964822   -1.0605652   0.16364262    89894 
28630000  0.027802659   -1.0611589   -1.0611589  -0.89709008 -0.0025815319   -1.0611589   0.16406882    89810 
28640000  0.027546817   -1.0534938   -1.0534938  -0.89077353 -0.0066778407   -1.0534938   0.16272029    89721 
28650000  0.027233879   -1.0492124   -1.0492124  -0.88820781 -0.0049304809   -1.0492124   0.16100454    89647 
28660000  0.027032847   -1.0494709   -1.0494709  -0.88949783 -0.0049856079   -1.0494709   0.15997309    89559 
28670000  0.027134331   -1.0459853   -1.0459853  -0.88525374 -0.0068794442   -1.0459853   0.16073158    89471 
28680000  0.027031537   -1.0421326   -1.0421326  -0.88189711 -0.0057099674   -1.0421326   0.16023551    89408 
28690000  0.026674799   -1.0395986   -1.0395986  -0.88132549 -0.004658562   -1.0395986    0.1582731    89322 
28700000  0.026619391   -1.0352769   -1.0352769  -0.87718214 -0.00084986277   -1.0352769   0.15809478    89237 
28710000  0.026556545   -1.0308473   -1.0308473   -0.8729807 -0.0024340589   -1.0308473    0.1578666    89155 
28720000  0.026387718   -1.0291301   -1.0291301  -0.87211741 -0.00074662961   -1.0291301    0.1570127    89070 
28730000  0.026140613   -1.0260342   -1.0260342  -0.87037471 -0.0065944992   -1.0260342   0.15565946    89003 
28740000  0.026239434   -1.0221959   -1.0221959   -0.8658373 -0.0041966365   -1.0221959   0.15635859    88940 
28750000  0.026420573   -1.0208602   -1.0208602  -0.86328934 -0.007190482   -1.0208602   0.15757085    88865 
28760000  0.025898412   -1.0159877   -1.0159877  -0.86140049 -0.0025508117   -1.0159877   0.15458718    88790 
28770000  0.026111153   -1.0145055   -1.0145055  -0.85853429 -0.0040384577   -1.0145055   0.15597121    88725 
28780000  0.025442619    -1.010491    -1.010491  -0.85838975 -0.0029975387    -1.010491   0.15210125    88653 
28790000   0.02575819   -1.0094834   -1.0094834  -0.85534433 -0.008560203   -1.0094834   0.15413906    88566 
28800000  0.025440545   -1.0046126   -1.0046126  -0.85225567 -0.005295363   -1.0046126   0.15235694    88497 
28810000  0.025381949    -1.002155    -1.002155  -0.85002174 -0.0049830495    -1.002155   0.15213324    88423 
28820000  0.025354601   -0.9973251   -0.9973251  -0.84525086 -0.0071499947   -0.9973251   0.15207424    88362 
28830000  0.025267826  -0.99906288  -0.99906288   -0.8473838 -0.0022160426  -0.99906288   0.15167907    88289 
28840000  0.025332468  -0.99606423  -0.99606423  -0.84386783 -0.00040806382  -0.99606423    0.1521964    88214 
28850000  0.024829614   -0.9936451   -0.9936451  -0.84432595 -0.00014948943   -0.9936451   0.14931915    88129 
28860000  0.024776666  -0.99065403  -0.99065403  -0.84154162 -0.0028744956  -0.99065403   0.14911241    88063 
28870000  0.024468998  -0.98446445  -0.98446445  -0.83708317 -0.0031517037  -0.98446445   0.14738128    87991 
28880000  0.024556395  -0.98272885  -0.98272885  -0.83467983 -0.0032953381  -0.98272885   0.14804902    87907 
28890000  0.024577318  -0.97855507  -0.97855507  -0.83026688 -0.0033642717  -0.97855507   0.14828819    87840 
28900000  0.024215091  -0.97580501  -0.97580501  -0.82961412 -0.0032616029  -0.97580501   0.14619089    87787 
28910000  0.024063769  -0.97436987  -0.97436987  -0.82894345 -0.0014384351  -0.97436987   0.14542642    87697 
28920000  0.023901138   -0.9754066   -0.9754066  -0.83084268 -0.0018139037   -0.9754066   0.14456391    87624 
28930000  0.024179421  -0.97101851  -0.97101851  -0.82468291 -0.0064053612  -0.97101851    0.1463356    87571 
28940000  0.023418942   -0.9685144   -0.9685144  -0.82666789 0.00094072531   -0.9685144   0.14184651    87501 
28950000  0.023699515  -0.96339574  -0.96339574  -0.81976283 -0.0046792594  -0.96339574   0.14363291    87448 
28960000  0.023540337  -0.96000409  -0.96000409  -0.81725426 -0.0053963285  -0.96000409   0.14274982    87398 
28970000  0.023561365  -0.95968419  -0.95968419  -0.81669887 -0.0044998739  -0.95968419   0.14298532    87332 
28980000  0.023208841  -0.95561278  -0.95561278  -0.81466351 -0.0027221933  -0.95561278   0.14094927    87268 
28990000  0.023594817  -0.95335799  -0.95335799  -0.80996443 -0.0049017262  -0.95335799   0.14339357    87207 
29000000  0.023401181  -0.94963615  -0.94963615  -0.80734432 -0.00077861092  -0.94963615   0.14229183    87161 
29010000  0.023288529   -0.9470214   -0.9470214  -0.80532351 -0.0034545493   -0.9470214   0.14169788    87105 
29020000  0.023384968  -0.94463808  -0.94463808  -0.80223898 -0.0018820391  -0.94463808    0.1423991    87035 
29030000  0.023083725  -0.94381364  -0.94381364  -0.80315679 -0.0034078594  -0.94381364   0.14065685    86978 
29040000   0.02283142  -0.94039984  -0.94039984  -0.80117634 -0.0031264906  -0.94039984   0.13922351    86913 
29050000  0.022863083  -0.93713702  -0.93713702  -0.79761769 -0.0033840354  -0.93713702   0.13951933    86849 
29060000   0.02270544  -0.93455688  -0.93455688  -0.79590376 -0.0056087772  -0.93455688   0.13865312    86789 
29070000  0.022451706  -0.93250073  -0.93250073  -0.79531013 -0.0049649391  -0.93250073    0.1371906    86734 
29080000  0.022550327  -0.92731843  -0.92731843  -0.78943141 -0.0052913175  -0.92731843   0.13788702    86675 
29090000  0.022284017  -0.92470119  -0.92470119  -0.78834344 -0.0042681509  -0.92470119   0.13635775    86612 
29100000  0.022204798  -0.92447562  -0.92447562  -0.78851629 -0.001652906  -0.92447562   0.13595933    86557 
29110000  0.022358866  -0.92463817  -0.92463817  -0.78762784 -0.0020245747  -0.92463817   0.13701033    86489 
29120000  0.022064918   -0.9208132   -0.9208132  -0.78552122 -0.005464163   -0.9208132   0.13529198    86436 
29130000  0.021864408  -0.92144622  -0.92144622  -0.78731384 -0.0017049365  -0.92144622   0.13413238    86391 
29140000  0.021657458    -0.917037    -0.917037  -0.78409727 -0.0035924619    -0.917037   0.13293973    86341 
29150000  0.021777979  -0.91540664  -0.91540664  -0.78165121 -0.0024165557  -0.91540664   0.13375543    86292 
29160000   0.02189942  -0.91469474  -0.91469474  -0.78011546 -0.0078252867  -0.91469474   0.13457928    86242 
29170000  0.021616955  -0.91186822  -0.91186822  -0.77894001 -0.0057143543  -0.91186822   0.13292821    86187 
29180000  0.021605027  -0.91026291  -0.91026291  -0.77734174 -0.007235494  -0.91026291   0.13292117    86144 
29190000  0.021674079  -0.90813993  -0.90813993  -0.77470563 -0.0043899752  -0.90813993    0.1334343    86087 
29200000   0.02172206  -0.90782211  -0.90782211  -0.77403181 -0.002700701  -0.90782211    0.1337903    86048 
29210000  0.021438653  -0.90120167  -0.90120167  -0.76907709 -0.0058629263  -0.90120167   0.13212459    85996 
29220000  0.021249285  -0.89911274  -0.89911274  -0.76808207 -0.0022629477  -0.89911274   0.13103066    85948 
29230000  0.021073894  -0.89769826  -0.89769826  -0.76768559 -0.0030833238  -0.89769826   0.13001267    85906 
29240000  0.021115554  -0.89379263  -0.89379263  -0.76343948 -0.0052397041  -0.89379263   0.13035315    85851 
29250000  0.021254238  -0.89297445  -0.89297445  -0.76169941 -0.0065211853  -0.89297445   0.13127504    85808 
29260000  0.020894551  -0.88946338  -0.88946338  -0.76033468 -0.0015050591  -0.88946338   0.12912871    85758 
29270000  0.020905444  -0.88728253  -0.88728253  -0.75801415 -0.0057397997  -0.88728253   0.12926838    85710 
29280000  0.020959613   -0.8863928   -0.8863928  -0.75671079 -0.0042486587   -0.8863928   0.12968201    85658 
29290000  0.021017643  -0.88404717  -0.88404717   -0.7539332 -0.0021622287  -0.88404717   0.13011397    85610 
29300000  0.020557337  -0.88226094  -0.88226094   -0.7549118 0.0024870025  -0.88226094   0.12734914    85553 
29310000  0.020577818  -0.87941751  -0.87941751   -0.7518744 -0.0077314018  -0.87941751    0.1275431    85508 
29320000  0.020659774   -0.8777353   -0.8777353   -0.7496198 -0.0037071881   -0.8777353    0.1281155    85465 
29330000  0.020330654  -0.87220328  -0.87220328  -0.74605935 -0.0048005415  -0.87220328   0.12614392    85418 
29340000  0.020309021  -0.87051941  -0.87051941   -0.7444359 -0.0026117356  -0.87051941   0.12608351    85368 
29350000  0.020421889  -0.86870677  -0.86870677  -0.74185717 -0.0060147979  -0.86870677    0.1268496    85324 
29360000  0.020253637  -0.86897237  -0.86897237  -0.74309114 0.0016813181  -0.86897237   0.12588123    85272 
29370000   0.02028937  -0.86755925  -0.86755925  -0.74138639 -0.0047951143  -0.86755925   0.12617286    85225 
29380000  0.020156293  -0.86514907  -0.86514907   -0.7397243 -0.0026796165  -0.86514907   0.12542477    85171 
29390000  0.020129668  -0.86309831  -0.86309831   -0.7377995 -0.0038044936  -0.86309831   0.12529881    85144 
29400000  0.019862219  -0.86191402  -0.86191402  -0.73821023 -0.0081217878  -0.86191402   0.12370379    85096 
29410000  0.019557604  -0.85902145  -0.85902145  -0.73714608 -0.003439369  -0.85902145   0.12187537    85048 
29420000  0.020028332   -0.8590818   -0.8590818  -0.73422018 -0.00098311631   -0.8590818   0.12486162    85012 
29430000  0.019778773  -0.85319525  -0.85319525  -0.72981253 -0.0063295477  -0.85319525   0.12338272    84959 
29440000  0.019578913  -0.85117522  -0.85117522  -0.72898029 -0.0032007885  -0.85117522   0.12219494    84918 
29450000  0.019692224  -0.84963179  -0.84963179  -0.72666594 -0.0037241426  -0.84963179   0.12296585    84874 
29460000  0.019437455  -0.84786538  -0.84786538  -0.72643891 -0.001498029  -0.84786538   0.12142647    84838 
29470000  0.019673888  -0.84586325  -0.84586325    -0.722896 -0.0045076319  -0.84586325   0.12296725    84794 
29480000  0.019201627  -0.84580502  -0.84580502  -0.72572581 -0.0020805662  -0.84580502   0.12007922    84749 
29490000  0.019408095  -0.84182877  -0.84182877  -0.72040107 -0.0020323022  -0.84182877    0.1214277    84709 
29500000  0.019143019  -0.84001282  -0.84001282  -0.72017285 -0.0021840083  -0.84001282   0.11983997    84659 
29510000  0.018901575  -0.84140275  -0.84140275  -0.72301134 -0.0051074162  -0.84140275   0.11839141    84614 
29520000   0.01904773  -0.83887035  -0.83887035  -0.71952117 -0.0043872049  -0.83887035   0.11934917    84584 
29530000   0.01904567  -0.83820695  -0.83820695  -0.71881564 -0.0054700369  -0.83820695   0.11939131    84545 
29540000  0.019008062  -0.83696306  -0.83696306   -0.7177384 -0.0046066056  -0.83696306   0.11922466    84496 
29550000  0.018918688  -0.83813475  -0.83813475  -0.71941447 -0.0047681678  -0.83813475   0.11872028    84456 
29560000  0.018669558  -0.83467639  -0.83467639  -0.71747091 -0.0039110326  -0.83467639   0.11720549    84421 
29570000  0.018809279  -0.83384029  -0.83384029  -0.71569328 -0.003572777  -0.83384029   0.11814702    84375 
29580000    0.0186288  -0.83209706  -0.83209706  -0.71503096 0.0012333158  -0.83209706   0.11706609    84337 
29590000  0.018729186    -0.830256    -0.830256  -0.71251021 3.4964828e-05    -0.830256    0.1177458    84302 
29600000  0.018676447  -0.82580906  -0.82580906  -0.70834048 -0.0062495464  -0.82580906   0.11746858    84263 
29610000  0.018548245  -0.82794738  -0.82794738  -0.71124498 -0.00046236681  -0.82794738    0.1167024    84234 
29620000  0.018393266  -0.82303347  -0.82303347  -0.70725668 -0.0025218905  -0.82303347   0.11577678    84198 
29630000  0.018326613  -0.82120562  -0.82120562  -0.70579493 -0.0050561229  -0.82120562   0.11541069    84159 
29640000  0.018204474  -0.81871331  -0.81871331  -0.70400637 -0.00041917567  -0.81871331   0.11470695    84111 
29650000  0.018379683  -0.81830668  -0.81830668  -0.70243926 -0.0023159976  -0.81830668   0.11586743    84070 
29660000  0.018324983  -0.81570418  -0.81570418  -0.70012935 -0.0019122088  -0.81570418   0.11557483    84032 
29670000  0.018110671  -0.81521882  -0.81521882  -0.70094668 -0.0020949826  -0.81521882   0.11427213    83996 
29680000  0.017993717  -0.81467246  -0.81467246    -0.701095 -0.0022832619  -0.81467246   0.11357746    83964 
29690000  0.018026097   -0.8139958   -0.8139958  -0.70017193 -0.001954168   -0.8139958   0.11382387    83933 
29700000  0.018131118   -0.8098227   -0.8098227  -0.69527973 -0.0036479635   -0.8098227   0.11454297    83892 
29710000  0.017999258  -0.80844806  -0.80844806  -0.69469201 -0.0022565322  -0.80844806   0.11375605    83858 
29720000  0.017600765  -0.80706419  -0.80706419  -0.69577753 -6.5516485e-05  -0.80706419   0.11128666    83821 
29730000  0.017848205   -0.8048684   -0.8048684  -0.69197008 -0.0040598701   -0.8048684   0.11289832    83786 
29740000  0.017818976  -0.80382382  -0.80382382  -0.69107002 -0.0037161309  -0.80382382   0.11275381    83756 
29750000  0.017737989   -0.8042772   -0.8042772  -0.69199698 -0.0023205516   -0.8042772   0.11228022    83727 
29760000  0.017757744  -0.80274636  -0.80274636  -0.69028602 -0.00093991319  -0.80274636   0.11246034    83686 
29770000  0.017525662  -0.79686567  -0.79686567  -0.68583001 -0.0046742236  -0.79686567   0.11103566    83652 
29780000  0.017608652  -0.79460091  -0.79460091   -0.6829754 -0.0037952701  -0.79460091   0.11162551    83604 
29790000  0.017592931    -0.793781    -0.793781  -0.68220711 -0.0031210512    -0.793781   0.11157389    83568 
29800000   0.01753179  -0.79456499  -0.79456499  -0.68333626 -0.0038954287  -0.79456499   0.11122873    83536 
29810000  0.017513693  -0.79189161  -0.79189161   -0.6807218 -0.0043128999  -0.79189161   0.11116981    83494 
29820000  0.017079643  -0.79202621  -0.79202621  -0.68356611 -0.003689857  -0.79202621    0.1084601    83459 
29830000  0.017364622  -0.79282691  -0.79282691  -0.68251483 -0.0045223077  -0.79282691   0.11031209    83427 
29840000  0.017133033  -0.78960585  -0.78960585  -0.68072059 -0.0038655593  -0.78960585   0.10888525    83393 
29850000  0.016968588  -0.78997279  -0.78997279  -0.68210029 -0.0027530792  -0.78997279    0.1078725    83368 
29860000  0.016779136  -0.78478154  -0.78478154  -0.67806351 -0.0031245486  -0.78478154   0.10671803    83329 
29870000  0.017197256   -0.7873564   -0.7873564  -0.67794097 -0.0031116819   -0.7873564   0.10941543    83300 
29880000  0.016914833  -0.78659045  -0.78659045  -0.67892925 0.00018475003  -0.78659045    0.1076612    83267 
29890000  0.016736607  -0.78340748  -0.78340748  -0.67684996 0.0013868754  -0.78340748   0.10655752    83243 
29900000  0.016757973  -0.78113911  -0.78113911  -0.67440581 -0.0044888114  -0.78113911    0.1067333    83212 
29910000  0.016626226  -0.78087911  -0.78087911  -0.67494674 -0.0046415956  -0.78087911   0.10593238    83182 
29920000    0.0165634  -0.77902318  -0.77902318  -0.67345683 0.00093902503  -0.77902318   0.10556635    83155 
29930000  0.016629496  -0.78005729  -0.78005729   -0.6740225 -0.0088611871  -0.78005729   0.10603479    83118 
29940000  0.016479828  -0.77658839  -0.77658839  -0.67146746 -0.0044576289  -0.77658839   0.10512094    83086 
29950000  0.016687272  -0.77399396  -0.77399396  -0.66751518 -0.0079117966  -0.77399396   0.10647877    83059 
29960000  0.016708336  -0.77224988  -0.77224988   -0.6656046 -0.0019155989  -0.77224988   0.10664528    83034 
29970000  0.016452364  -0.76911699  -0.76911699   -0.6640701 -0.00027482361  -0.76911699   0.10504689    83006 
29980000  0.016586825  -0.76843504  -0.76843504  -0.66250028 -0.0025161488  -0.76843504   0.10593477    82983 
29990000  0.016563874  -0.76606451  -0.76606451  -0.66024444 -0.0036952167  -0.76606451   0.10582007    82958 
30000000  0.016307679  -0.76652555  -0.76652555  -0.66230075  0.002451339  -0.76652555    0.1042248    82925 
Loop time of 65115.4 on 336 procs for 30000000 steps with 82925 atoms

Performance: 199031.193 tau/day, 460.720 timesteps/s
88.7% CPU use with 336 MPI tasks x 1 OpenMP threads

MPI task timing breakdown:
Section |  min time  |  avg time  |  max time  |%varavg|  %CPU | %total
-----------------------------------------------------------------------
Pair    | 583.25     | 6965.2     | 12329      |3176.5 |  92.6 | 10.70
Bond    | 18.66      | 20.242     | 23.611     |  16.0 | 100.0 |  0.03
Neigh   | 1794.1     | 10847      | 17896      |3581.2 |  98.3 | 16.66
Comm    | 19931      | 28450      | 45883      |3155.0 |  87.0 | 43.69
Output  | 3153       | 3550.3     | 4064.6     | 357.3 |  81.5 |  5.45
Modify  | 7745.4     | 14731      | 31743      |3808.6 |  86.8 | 22.62
Other   |            | 552        |            |       |       |  0.85

Nlocal:        246.801 ave        1449 max           0 min
Histogram: 74 138 107 12 2 0 1 1 0 1
Nghost:        4862.43 ave        8424 max         717 min
Histogram: 9 15 23 37 51 65 50 58 22 6
Neighs:        2723.25 ave       10481 max           0 min
Histogram: 84 64 62 46 36 23 11 5 2 3
FullNghs:      5446.51 ave       23456 max           0 min
Histogram: 95 70 70 39 35 15 5 6 0 1

Total # of neighbors = 1830026
Ave neighs/atom = 22.068447
Ave special neighs/atom = 0.0000000
Neighbor list builds = 3055440
Dangerous builds = 1588239
Total wall time: 18:05:21
