LAMMPS (29 Oct 2020)
  using 1 OpenMP thread(s) per MPI task
# Simple rigid body system
# needed variables: startTemp, temp

units		lj
atom_style	full
dimension 	3
boundary	p p f
pair_style	lj/smooth/linear 2.5


variable 	sigma		equal 1.0
variable 	epsilon 	equal 1.0


region		box block 0 40 0 40 0 80
create_box 	3 box
Created orthogonal box = (0.0000000 0.0000000 0.0000000) to (40.000000 40.000000 80.000000)
  2 by 2 by 4 MPI processor grid

lattice 	sc 0.66
Lattice spacing in x,y,z = 1.1485556 1.1485556 1.1485556
region 		fluid block EDGE EDGE EDGE EDGE 2 40
create_atoms 	1 region fluid
Created 47775 atoms
  create_atoms CPU = 0.053 seconds

lattice 	sc 0.045
Lattice spacing in x,y,z = 2.8114422 2.8114422 2.8114422
region 		gas block EDGE EDGE EDGE EDGE 41 79
create_atoms    1 region gas
Created 0 atoms
  create_atoms CPU = 0.005 seconds

mass		1 1.0
mass		2 1.0
mass		3 1.0


group		solvent type 1
47775 atoms in group solvent


velocity 	solvent create ${startTemp} 563435 loop geom
velocity 	solvent create 1.0 563435 loop geom

neighbor 	0.4 bin

pair_coeff	1 1 1.0 1.0
pair_coeff	2 2 0.0 0.0
pair_coeff	3 3 0.0 0.0
pair_coeff	2 3 0.0 0.0
pair_coeff	1 2*3 0.0 0.0

pair_modify 	shift yes


balance 	1.05 shift z 10 1.05
Balancing ...
Neighbor list info ...
  update every 1 steps, delay 10 steps, check yes
  max neighbors/atom: 2000, page size: 100000
  master list distance cutoff = 2.9
  ghost atom cutoff = 2.9
  binsize = 1.45, bins = 28 28 56
  1 neighbor lists, perpetual/occasional/extra = 1 0 0
  (1) pair lj/smooth/linear, perpetual
      attributes: half, newton on
      pair build: half/bin/newton
      stencil: half/bin/3d/newton
      bin: standard
 rebalancing time: 0.035 seconds
  iteration count = 5
  initial/final maximal load/proc = 5508.0000 3240.0000
  initial/final imbalance factor  = 1.8446468 1.0850863
  x cuts: 0.0000000 0.5 1.0000000
  y cuts: 0.0000000 0.5 1.0000000
  z cuts: 0.0000000 0.1640625 0.3046875 0.453125 1.0000000


####################### WALLS ###########################


variable       epsilonWall equal 2*${epsilon}
variable       epsilonWall equal 2*1

variable       cutoffTop   equal   0.7147*${sigma}
variable       cutoffTop   equal   0.7147*1

variable       cutoffLow   equal   3*${sigma}
variable       cutoffLow   equal   3*1


fix            topWall all wall/lj93 zhi EDGE                ${epsilonWall} ${sigma} ${cutoffTop} units box
fix            topWall all wall/lj93 zhi EDGE                2 ${sigma} ${cutoffTop} units box
fix            topWall all wall/lj93 zhi EDGE                2 1 ${cutoffTop} units box
fix            topWall all wall/lj93 zhi EDGE                2 1 0.7147 units box

fix            lowWall all wall/lj93 zlo EDGE                ${epsilonWall} ${sigma} ${cutoffLow} units box
fix            lowWall all wall/lj93 zlo EDGE                2 ${sigma} ${cutoffLow} units box
fix            lowWall all wall/lj93 zlo EDGE                2 1 ${cutoffLow} units box
fix            lowWall all wall/lj93 zlo EDGE                2 1 3 units box


###################### COMPUTES ##########################

compute        bin1 solvent chunk/atom bin/1d z upper 1.0

######################	FIXES ############################

fix 		peclet solvent ave/chunk 1000 1 1000 bin1 density/number norm 		 sample ave one file density.profile

fix 		 temp solvent ave/chunk 1000 1 1000 bin1 temp norm sample ave one file temp.profile

#fix 		2 solvent nve/limit 0.1

#run 		100000
#unfix 		2

fix 		2 solvent nve # temp ${temp} ${temp} 10


## Thermostat


region		regthermo block EDGE EDGE EDGE EDGE 0 20

group 		thermo dynamic solvent region regthermo every 1000
dynamic group thermo defined

fix 		3 thermo langevin ${startTemp} ${temp} 10 156453
fix 		3 thermo langevin 1.0 ${temp} 10 156453
fix 		3 thermo langevin 1.0 .9 10 156453



#### Load balancing

fix 		bal all balance 1000 1.05 shift z 10 1.05

############### Diagnostics and computes ###################
dump		1 all custom 100000 dump.lammpstrj id mol type x y z
dump 		2 all image 10000 image.*.png type type
dump 		3 all movie 1000 movie.avi type type

################ RUN  ##########################
thermo 		1000
thermo_style 	custom step temp epair evdwl etotal press pe ke vol

restart 	500000 restart.dat
timestep 	0.005
timer 		full
New timer settings: style=full  mode=nosync  timeout=off

run		1000000
Per MPI rank memory allocation (min/avg/max) = 8.977 | 10.63 | 15.46 Mbytes
Step Temp E_pair E_vdwl TotEng Press PotEng KinEng Volume 
       0            1   -3.6131624   -3.6131624   -2.1131938  -0.69764927   -3.6131624    1.4999686       128000 
    1000    0.9125291   -3.3213923   -3.3213923   -1.9526273   0.17481441   -3.3213923     1.368765       128000 
    2000   0.91928067   -3.2106392   -3.2106392   -1.8317471   0.16920689   -3.2106392    1.3788921       128000 
    3000   0.93024271   -3.1276242   -3.1276242   -1.7322893   0.15209333   -3.1276242    1.3953349       128000 
    4000   0.94481064   -3.0571026   -3.0571026   -1.6399163   0.14193336   -3.0571026    1.4171863       128000 
    5000   0.94679279     -2.97822     -2.97822   -1.5580605   0.14906664     -2.97822    1.4201595       128000 
    6000   0.94929647   -2.9170073   -2.9170073   -1.4930924   0.13862465   -2.9170073    1.4239149       128000 
    7000   0.95480304   -2.8656323   -2.8656323   -1.4334577   0.12297684   -2.8656323    1.4321746       128000 
    8000   0.96271489   -2.8098245   -2.8098245   -1.3657824   0.14480507   -2.8098245    1.4440421       128000 
    9000   0.97028548   -2.7599735   -2.7599735   -1.3045757   0.13310296   -2.7599735    1.4553978       128000 
   10000   0.96877449   -2.7189029   -2.7189029   -1.2657716   0.13300288   -2.7189029    1.4531313       128000 
   11000   0.97248442   -2.6711731   -2.6711731    -1.212477   0.13126127   -2.6711731    1.4586961       128000 
   12000   0.98155371    -2.643821    -2.643821   -1.1715213     0.131394    -2.643821    1.4722998       128000 
   13000   0.98333795   -2.6047757   -2.6047757   -1.1297997   0.13233022   -2.6047757     1.474976       128000 
   14000   0.98001215   -2.5681462   -2.5681462   -1.0981588   0.13418568   -2.5681462    1.4699875       128000 
   15000   0.97564681   -2.5384451   -2.5384451   -1.0750055    0.1151229   -2.5384451    1.4634396       128000 
   16000   0.98825375   -2.5104046   -2.5104046    -1.028055   0.13758988   -2.5104046    1.4823496       128000 
   17000   0.98138084    -2.483456    -2.483456   -1.0114156   0.13439392    -2.483456    1.4720404       128000 
   18000    0.9829628   -2.4674611   -2.4674611   -0.9930478   0.12874307   -2.4674611    1.4744133       128000 
   19000   0.99117157   -2.4512694   -2.4512694  -0.96454316   0.14602693   -2.4512694    1.4867262       128000 
   20000   0.99328562      -2.4341      -2.4341  -0.94420274   0.13975044      -2.4341    1.4898972       128000 
   21000   0.99763798   -2.4136545   -2.4136545  -0.91722887   0.13534185   -2.4136545    1.4964256       128000 
   22000   0.99822209   -2.3954972   -2.3954972  -0.89819543   0.14985544   -2.3954972    1.4973018       128000 
   23000   0.99846285   -2.3822685   -2.3822685  -0.88460559   0.14788921   -2.3822685    1.4976629       128000 
   24000    1.0007858   -2.3698583   -2.3698583    -0.868711   0.13833213   -2.3698583    1.5011474       128000 
   25000    1.0000466   -2.3500959   -2.3500959  -0.85005747   0.14841868   -2.3500959    1.5000384       128000 
   26000    0.9987587   -2.3332175   -2.3332175  -0.83511083   0.15517865   -2.3332175    1.4981067       128000 
   27000    1.0064732   -2.3401799   -2.3401799  -0.83050166   0.14608119   -2.3401799    1.5096782       128000 
   28000    1.0063985   -2.3302763   -2.3302763  -0.82071012   0.15377061   -2.3302763    1.5095662       128000 
   29000   0.99936437   -2.3236677   -2.3236677  -0.82465248   0.12378035   -2.3236677    1.4990152       128000 
   30000   0.99988611   -2.3189942   -2.3189942  -0.81919641   0.14186823   -2.3189942    1.4997978       128000 
   31000    1.0020759   -2.3118332   -2.3118332  -0.80875079   0.13562484   -2.3118332    1.5030824       128000 
   32000   0.99600291   -2.3029649   -2.3029649  -0.80899183   0.14511833   -2.3029649    1.4939731       128000 
   33000   0.99757935   -2.3069994   -2.3069994  -0.81066167   0.13680347   -2.3069994    1.4963377       128000 
   34000    1.0010154   -2.2995137   -2.2995137  -0.79802195   0.14804233   -2.2995137    1.5014917       128000 
   35000      1.00024   -2.3028422   -2.3028422   -0.8025136    0.1441093   -2.3028422    1.5003286       128000 
   36000   0.99504851   -2.2959557   -2.2959557  -0.80341423   0.13261952   -2.2959557    1.4925415       128000 
   37000    1.0048002   -2.2947512   -2.2947512  -0.78758247   0.13103624   -2.2947512    1.5071687       128000 
   38000    1.0026035     -2.28522     -2.28522  -0.78134626   0.14361679     -2.28522    1.5038738       128000 
   39000    1.0009603   -2.2888145   -2.2888145  -0.78740543   0.13098887   -2.2888145     1.501409       128000 
   40000   0.99895792   -2.2843952   -2.2843952  -0.78598964   0.13500893   -2.2843952    1.4984055       128000 
   41000     1.001434   -2.2768861   -2.2768861  -0.77476661   0.13235644   -2.2768861    1.5021195       128000 
   42000   0.99820767   -2.2703871   -2.2703871  -0.77310693   0.14389991   -2.2703871    1.4972802       128000 
   43000     1.001385   -2.2598188   -2.2598188  -0.75777266   0.14665363   -2.2598188    1.5020461       128000 
   44000    1.0082607   -2.2711427   -2.2711427  -0.75878325   0.13647485   -2.2711427    1.5123594       128000 
   45000    1.0018199   -2.2618013   -2.2618013  -0.75910295   0.13474792   -2.2618013    1.5026984       128000 
   46000    1.0043611   -2.2630643   -2.2630643  -0.75655422   0.14279974   -2.2630643    1.5065101       128000 
   47000     1.001528   -2.2566243   -2.2566243  -0.75436379   0.13625667   -2.2566243    1.5022605       128000 
   48000     1.001204   -2.2530473   -2.2530473  -0.75127282   0.13764856   -2.2530473    1.5017745       128000 
   49000   0.99863314   -2.2516682   -2.2516682  -0.75374981   0.13130095   -2.2516682    1.4979184       128000 
   50000    1.0007944   -2.2529101   -2.2529101  -0.75174993   0.14274552   -2.2529101    1.5011601       128000 
   51000    1.0001109   -2.2544094   -2.2544094   -0.7542745   0.12924762   -2.2544094    1.5001349       128000 
   52000    1.0020592   -2.2451788   -2.2451788  -0.74212141   0.12800258   -2.2451788    1.5030574       128000 
   53000    1.0013076   -2.2445275   -2.2445275  -0.74259761   0.15093819   -2.2445275    1.5019299       128000 
   54000    1.0022941   -2.2340458   -2.2340458  -0.73063606   0.15014183   -2.2340458    1.5034097       128000 
   55000    1.0034684   -2.2332931   -2.2332931  -0.72812196   0.13723502   -2.2332931    1.5051711       128000 
   56000   0.99825921   -2.2276067   -2.2276067  -0.73024923   0.13969873   -2.2276067    1.4973575       128000 
   57000   0.99812918   -2.2286697   -2.2286697  -0.73150731   0.13892354   -2.2286697    1.4971624       128000 
   58000    1.0028508   -2.2284934   -2.2284934  -0.72424863    0.1345364   -2.2284934    1.5042447       128000 
   59000   0.99585043   -2.2183442   -2.2183442  -0.72459984   0.13959143   -2.2183442    1.4937444       128000 
   60000    1.0004142   -2.2194841   -2.2194841  -0.71889422   0.13430211   -2.2194841    1.5005898       128000 
   61000    1.0050006   -2.2256255   -2.2256255  -0.71815617   0.13813991   -2.2256255    1.5074694       128000 
   62000    1.0042059    -2.225648    -2.225648  -0.71937072     0.140006    -2.225648    1.5062773       128000 
   63000    1.0018478   -2.2158488   -2.2158488  -0.71310849   0.13707953   -2.2158488    1.5027403       128000 
   64000   0.99997778   -2.2174391   -2.2174391  -0.71750383   0.12758791   -2.2174391    1.4999353       128000 
   65000   0.99711752   -2.2155866   -2.2155866  -0.71994164   0.13056785   -2.2155866     1.495645       128000 
   66000    0.9942523   -2.2143139   -2.2143139  -0.72296668   0.11499723   -2.2143139    1.4913472       128000 
   67000    1.0002374   -2.2199546   -2.2199546  -0.71962989   0.13526014   -2.2199546    1.5003247       128000 
   68000   0.99948323   -2.2250079   -2.2250079  -0.72581441   0.13881844   -2.2250079    1.4991935       128000 
   69000   0.99271818   -2.2216474   -2.2216474  -0.73260126   0.12675467   -2.2216474    1.4890461       128000 
   70000   0.99642534   -2.2276779   -2.2276779  -0.73307116   0.12788581   -2.2276779    1.4946067       128000 
   71000   0.99288193   -2.2213813   -2.2213813  -0.73208961      0.12672   -2.2213813    1.4892917       128000 
   72000   0.99605922   -2.2225688   -2.2225688  -0.72851126    0.1392046   -2.2225688    1.4940576       128000 
   73000    1.0024743   -2.2204676   -2.2204676  -0.71678768   0.14350734   -2.2204676    1.5036799       128000 
   74000   0.99591303   -2.2142616   -2.2142616  -0.72042329   0.13841132   -2.2142616    1.4938383       128000 
   75000   0.99051633   -2.2093656   -2.2093656  -0.72362217   0.12022805   -2.2093656    1.4857434       128000 
   76000   0.99038784   -2.2171711   -2.2171711  -0.73162043   0.12090582   -2.2171711    1.4855507       128000 
   77000   0.98981544   -2.2141045   -2.2141045  -0.72941246   0.13057296   -2.2141045    1.4846921       128000 
   78000   0.99531079   -2.2124636   -2.2124636   -0.7195287   0.13052156   -2.2124636    1.4929349       128000 
   79000   0.99239999    -2.214432    -2.214432  -0.72586322   0.11406099    -2.214432    1.4885688       128000 
   80000   0.98918157   -2.2116756   -2.2116756  -0.72793428   0.12941677   -2.2116756    1.4837413       128000 
   81000   0.99078463   -2.2141095   -2.2141095  -0.72796367   0.12658984   -2.2141095    1.4861458       128000 
   82000   0.99530947   -2.2156233   -2.2156233  -0.72269036   0.11826809   -2.2156233    1.4929329       128000 
   83000   0.99380806   -2.2145488   -2.2145488   -0.7238679   0.13946021   -2.2145488    1.4906809       128000 
   84000   0.99188338   -2.2187974   -2.2187974  -0.73100343   0.12214245   -2.2187974    1.4877939       128000 
   85000    0.9929002   -2.2068433   -2.2068433  -0.71752421    0.1264835   -2.2068433    1.4893191       128000 
   86000   0.99422673   -2.2041424   -2.2041424  -0.71283349   0.13273717   -2.2041424    1.4913089       128000 
   87000   0.99898208   -2.2088411   -2.2088411  -0.71039932   0.13155716   -2.2088411    1.4984418       128000 
   88000    0.9935489   -2.2015647   -2.2015647  -0.71127255   0.13826143   -2.2015647    1.4902922       128000 
   89000   0.99587124   -2.2046729   -2.2046729  -0.71089734   0.12582432   -2.2046729    1.4937756       128000 
   90000    1.0031934   -2.2117173   -2.2117173  -0.70695876   0.13248988   -2.2117173    1.5047585       128000 
   91000   0.99828888   -2.2069922   -2.2069922  -0.70959019   0.12562462   -2.2069922     1.497402       128000 
   92000   0.99392993   -2.2012367   -2.2012367  -0.71037298   0.12299761   -2.2012367    1.4908637       128000 
   93000   0.99341345   -2.1992302   -2.1992302  -0.70914117   0.13131547   -2.1992302     1.490089       128000 
   94000   0.99351858   -2.1990277   -2.1990277  -0.70878103   0.12809807   -2.1990277    1.4902467       128000 
   95000   0.99016182   -2.1918039   -2.1918039  -0.70659222   0.12644578   -2.1918039    1.4852116       128000 
   96000   0.99448722    -2.198216    -2.198216  -0.70651644   0.13205325    -2.198216    1.4916996       128000 
   97000   0.99199841   -2.1987402   -2.1987402  -0.71077369   0.11645125   -2.1987402    1.4879665       128000 
   98000    0.9951251   -2.1958328   -2.1958328  -0.70317644   0.12786221   -2.1958328    1.4926564       128000 
   99000   0.99389207   -2.1915658   -2.1915658   -0.7007589   0.13025943   -2.1915658    1.4908069       128000 
  100000   0.99746035    -2.194869    -2.194869  -0.69870978   0.13664002    -2.194869    1.4961592       128000 
  101000   0.99706356   -2.1979214   -2.1979214  -0.70235734   0.12626555   -2.1979214     1.495564       128000 
  102000   0.99139893   -2.1920048   -2.1920048  -0.70493756   0.10828756   -2.1920048    1.4870673       128000 
  103000   0.99676594    -2.192193    -2.192193  -0.69707542   0.13426041    -2.192193    1.4951176       128000 
  104000   0.99814461   -2.1925914   -2.1925914  -0.69540585   0.13711741   -2.1925914    1.4971856       128000 
  105000   0.99808453   -2.1919911   -2.1919911   -0.6948956   0.11875728   -2.1919911    1.4970955       128000 
  106000   0.99120138   -2.1925044   -2.1925044   -0.7057335   0.12581981   -2.1925044    1.4867709       128000 
  107000    0.9936472   -2.1932082   -2.1932082  -0.70276859   0.12872288   -2.1932082    1.4904396       128000 
  108000   0.99912177   -2.1910123   -2.1910123  -0.69236105   0.12188419   -2.1910123    1.4986513       128000 
  109000   0.99389724    -2.193289    -2.193289  -0.70247436   0.14302458    -2.193289    1.4908147       128000 
  110000    0.9935993   -2.1863784   -2.1863784  -0.69601068   0.13751937   -2.1863784    1.4903677       128000 
  111000   0.99155371   -2.1852031   -2.1852031  -0.69790365   0.14032246   -2.1852031    1.4872994       128000 
  112000   0.98590773   -2.1778251   -2.1778251  -0.69899444   0.14320461   -2.1778251    1.4788306       128000 
  113000   0.98919496   -2.1822822   -2.1822822  -0.69852081   0.12214783   -2.1822822    1.4837614       128000 
  114000    0.9908763   -2.1830419   -2.1830419  -0.69675853   0.13599652   -2.1830419    1.4862833       128000 
  115000   0.99229462   -2.1863171   -2.1863171  -0.69790632   0.13749369   -2.1863171    1.4884108       128000 
  116000   0.99581009   -2.1843827   -2.1843827  -0.69069887   0.13444146   -2.1843827    1.4936839       128000 
  117000   0.99207435   -2.1787841   -2.1787841  -0.69070373   0.13699168   -2.1787841    1.4880804       128000 
  118000   0.99319006   -2.1793764   -2.1793764  -0.68962252   0.13405088   -2.1793764    1.4897539       128000 
  119000   0.99482735   -2.1823582   -2.1823582  -0.69014843   0.12805118   -2.1823582    1.4922098       128000 
  120000    0.9951394   -2.1828899   -2.1828899  -0.69021204   0.13620623   -2.1828899    1.4926779       128000 
  121000   0.99065653   -2.1768837   -2.1768837  -0.69093004   0.11911969   -2.1768837    1.4859537       128000 
  122000   0.99722757   -2.1831524   -2.1831524  -0.68734236   0.12713753   -2.1831524      1.49581       128000 
  123000   0.99275155   -2.1774111   -2.1774111  -0.68831492    0.1342427   -2.1774111    1.4890962       128000 
  124000   0.99212493   -2.1798646   -2.1798646  -0.69170838   0.13269337   -2.1798646    1.4881562       128000 
  125000   0.98619658   -2.1870396   -2.1870396  -0.70777572   0.12907383   -2.1870396    1.4792639       128000 
  126000   0.98704583   -2.1881435   -2.1881435  -0.70760573   0.12172078   -2.1881435    1.4805378       128000 
  127000   0.98965377    -2.194908    -2.194908  -0.71045841   0.11281559    -2.194908    1.4844496       128000 
  128000   0.99207476   -2.1906938   -2.1906938  -0.70261284   0.12434461   -2.1906938     1.488081       128000 
  129000    0.9949234   -2.1834125   -2.1834125  -0.69105865    0.1347044   -2.1834125    1.4923539       128000 
  130000   0.99126202   -2.1789942   -2.1789942  -0.69213231   0.12911017   -2.1789942    1.4868619       128000 
  131000   0.98907936   -2.1817397   -2.1817397  -0.69815173   0.12366851   -2.1817397     1.483588       128000 
  132000   0.98906672   -2.1805334   -2.1805334  -0.69696436   0.13486362   -2.1805334     1.483569       128000 
  133000   0.98996959   -2.1834272   -2.1834272  -0.69850391   0.12875822   -2.1834272    1.4849233       128000 
  134000   0.98929656   -2.1809354   -2.1809354  -0.69702163   0.12643906   -2.1809354    1.4839138       128000 
  135000   0.99555533   -2.1823153   -2.1823153  -0.68901359   0.12027389   -2.1823153    1.4933017       128000 
  136000   0.98519198   -2.1729794   -2.1729794  -0.69522241   0.12728617   -2.1729794     1.477757       128000 
  137000   0.98864919   -2.1826637   -2.1826637  -0.69972099   0.12363128   -2.1826637    1.4829427       128000 
  138000    0.9922108   -2.1903562   -2.1903562  -0.70207116   0.13425985   -2.1903562     1.488285       128000 
  139000   0.98371065   -2.1835262   -2.1835262  -0.70799113   0.10992317   -2.1835262    1.4755351       128000 
  140000   0.98633671   -2.1915401   -2.1915401  -0.71206606   0.10807472   -2.1915401    1.4794741       128000 
  141000   0.98001552   -2.1802063   -2.1802063  -0.71021379   0.12248816   -2.1802063    1.4699925       128000 
  142000   0.98970677   -2.1903142   -2.1903142  -0.70578511   0.10854299   -2.1903142    1.4845291       128000 
  143000   0.98693493   -2.1820513   -2.1820513  -0.70167986   0.13300615   -2.1820513    1.4803714       128000 
  144000   0.99191701   -2.1847419   -2.1847419  -0.69689754   0.11899176   -2.1847419    1.4878444       128000 
  145000   0.98827678    -2.181083    -2.181083   -0.6986989   0.11786632    -2.181083    1.4823841       128000 
  146000   0.99346124   -2.1783159   -2.1783159  -0.68815525   0.12609475   -2.1783159    1.4901607       128000 
  147000   0.99347407   -2.1762636   -2.1762636  -0.68608366   0.12172772   -2.1762636    1.4901799       128000 
  148000    0.9985542   -2.1752839   -2.1752839   -0.6774839   0.13462622   -2.1752839       1.4978       128000 
  149000   0.98780002   -2.1728874   -2.1728874  -0.69121843   0.12066513   -2.1728874     1.481669       128000 
  150000   0.99119134    -2.179461    -2.179461  -0.69270516   0.11199585    -2.179461    1.4867559       128000 
  151000    0.9930084   -2.1805546   -2.1805546  -0.69107313   0.12060254   -2.1805546    1.4894814       128000 
  152000   0.98810954   -2.1684872   -2.1684872   -0.6863539   0.11955575   -2.1684872    1.4821333       128000 
  153000   0.99140133   -2.1813849   -2.1813849  -0.69431407   0.12148484   -2.1813849    1.4870709       128000 
  154000   0.98675737     -2.16761     -2.16761  -0.68750491   0.12749108     -2.16761    1.4801051       128000 
  155000   0.99056928   -2.1745077   -2.1745077  -0.68868491   0.13496915   -2.1745077    1.4858228       128000 
  156000    0.9937144   -2.1741414   -2.1741414  -0.68360097   0.12328139   -2.1741414    1.4905404       128000 
  157000   0.98929696   -2.1802895   -2.1802895  -0.69637509    0.1153729   -2.1802895    1.4839144       128000 
  158000   0.98807332   -2.1809301   -2.1809301  -0.69885112   0.12786032   -2.1809301     1.482079       128000 
  159000   0.99073523    -2.183527    -2.183527  -0.69745522   0.12963717    -2.183527    1.4860717       128000 
  160000   0.98591713   -2.1839544   -2.1839544   -0.7051097   0.12209041   -2.1839544    1.4788447       128000 
  161000   0.98862786   -2.1800606   -2.1800606  -0.69714989   0.12664516   -2.1800606    1.4829107       128000 
  162000   0.98828628     -2.18728     -2.18728  -0.70488163   0.11974595     -2.18728    1.4823984       128000 
  163000   0.98358794   -2.1859834   -2.1859834  -0.71063242   0.12677532   -2.1859834     1.475351       128000 
  164000   0.98743466   -2.1816783   -2.1816783  -0.70055728   0.12875047   -2.1816783     1.481121       128000 
  165000   0.98670495   -2.1819235   -2.1819235  -0.70189701   0.14153421   -2.1819235    1.4800264       128000 
  166000   0.98912167   -2.1845769   -2.1845769  -0.70092546   0.12195575   -2.1845769    1.4836514       128000 
  167000   0.98592845   -2.1824605   -2.1824605  -0.70359874    0.1253776   -2.1824605    1.4788617       128000 
  168000    0.9809157   -2.1799019   -2.1799019   -0.7085591   0.12749485   -2.1799019    1.4713428       128000 
  169000   0.99054832   -2.1820182   -2.1820182   -0.6962268   0.11542043   -2.1820182    1.4857914       128000 
  170000   0.98568342   -2.1769612   -2.1769612  -0.69846701   0.12700966   -2.1769612    1.4784942       128000 
  171000   0.98293515   -2.1773619   -2.1773619  -0.70299002   0.10968849   -2.1773619    1.4743719       128000 
  172000   0.98566379   -2.1824099   -2.1824099  -0.70394517   0.12013152   -2.1824099    1.4784647       128000 
  173000   0.98906367   -2.1823938   -2.1823938  -0.69882938   0.12909223   -2.1823938    1.4835644       128000 
  174000   0.98606387   -2.1782705   -2.1782705  -0.69920565   0.12920034   -2.1782705    1.4790648       128000 
  175000   0.98498498   -2.1742006   -2.1742006  -0.69675401   0.12808345   -2.1742006    1.4774465       128000 
  176000   0.98648972   -2.1797462   -2.1797462  -0.70004262   0.12100596   -2.1797462    1.4797036       128000 
  177000    0.9829322    -2.180113    -2.180113   -0.7057456   0.10991857    -2.180113    1.4743674       128000 
  178000   0.98495667   -2.1834187   -2.1834187  -0.70601466   0.12026418   -2.1834187    1.4774041       128000 
  179000   0.99031644   -2.1889584   -2.1889584  -0.70351487   0.12134384   -2.1889584    1.4854436       128000 
  180000   0.98449341   -2.1873324   -2.1873324  -0.71062324   0.11349562   -2.1873324    1.4767092       128000 
  181000   0.98611855   -2.1895119   -2.1895119  -0.71036504   0.12029847   -2.1895119    1.4791469       128000 
  182000   0.98132218   -2.1826279   -2.1826279  -0.71067545    0.1103318   -2.1826279    1.4719525       128000 
  183000   0.97673471   -2.1766069   -2.1766069  -0.71153554   0.12702226   -2.1766069    1.4650714       128000 
  184000   0.97953145   -2.1766043   -2.1766043  -0.70733786   0.11729125   -2.1766043    1.4692664       128000 
  185000   0.98123961   -2.1815553   -2.1815553   -0.7097267    0.1079394   -2.1815553    1.4718286       128000 
  186000   0.97698561   -2.1746943   -2.1746943  -0.70924658   0.12596706   -2.1746943    1.4654477       128000 
  187000    0.9796017   -2.1760104   -2.1760104  -0.70663858   0.10865161   -2.1760104    1.4693718       128000 
  188000    0.9832241   -2.1800548   -2.1800548  -0.70524949   0.12953676   -2.1800548    1.4748053       128000 
  189000   0.98886389   -2.1912954   -2.1912954  -0.70803062   0.12310481   -2.1912954    1.4832648       128000 
  190000   0.98097856   -2.1759929   -2.1759929  -0.70455584   0.11761283   -2.1759929     1.471437       128000 
  191000   0.98341082    -2.178817    -2.178817   -0.7037316   0.12621014    -2.178817    1.4750854       128000 
  192000   0.98293633   -2.1902105   -2.1902105  -0.71583686   0.11110401   -2.1902105    1.4743736       128000 
  193000   0.98368237   -2.1809526   -2.1809526  -0.70545994   0.12386554   -2.1809526    1.4754927       128000 
  194000   0.98047794   -2.1883686   -2.1883686   -0.7176825   0.11496705   -2.1883686    1.4706861       128000 
  195000    0.9778653   -2.1761894   -2.1761894   -0.7094221   0.12414593   -2.1761894    1.4667673       128000 
  196000    0.9848765   -2.1880172   -2.1880172  -0.71073337   0.11980264   -2.1880172    1.4772838       128000 
  197000   0.97967213   -2.1886449   -2.1886449  -0.71916751   0.10576051   -2.1886449    1.4694774       128000 
  198000   0.98049283   -2.1893553   -2.1893553  -0.71864687   0.11315467   -2.1893553    1.4707085       128000 
  199000   0.97976238   -2.1847288   -2.1847288  -0.71511598   0.11642389   -2.1847288    1.4696128       128000 
  200000     0.981912   -2.1846306   -2.1846306  -0.71179342   0.11299292   -2.1846306    1.4728372       128000 
  201000   0.98127132   -2.1815394   -2.1815394  -0.70966325   0.12615869   -2.1815394    1.4718762       128000 
  202000   0.98376556   -2.1847169   -2.1847169  -0.70909942    0.1201092   -2.1847169    1.4756174       128000 
  203000   0.98359566   -2.1865349   -2.1865349  -0.71117227   0.11657632   -2.1865349    1.4753626       128000 
  204000   0.98335441   -2.1853511   -2.1853511  -0.71035038     0.124399   -2.1853511    1.4750007       128000 
  205000   0.98487584   -2.1856286   -2.1856286  -0.70834578   0.12181442   -2.1856286    1.4772828       128000 
  206000   0.98472472   -2.1973235   -2.1973235  -0.72026739   0.11782731   -2.1973235    1.4770562       128000 
  207000   0.98182629   -2.1876694   -2.1876694   -0.7149608   0.11785235   -2.1876694    1.4727086       128000 
  208000   0.97770215   -2.1872241   -2.1872241  -0.72070154   0.11582527   -2.1872241    1.4665225       128000 
  209000   0.97674912    -2.184352    -2.184352  -0.71925894   0.11065782    -2.184352     1.465093       128000 
  210000   0.97430272   -2.1848939   -2.1848939  -0.72347046   0.11626028   -2.1848939    1.4614235       128000 
  211000   0.98023568   -2.1792083   -2.1792083  -0.70888551   0.11614926   -2.1792083    1.4703227       128000 
  212000   0.98100473   -2.1831866   -2.1831866   -0.7117103   0.11627967   -2.1831866    1.4714763       128000 
  213000   0.98182246   -2.1870584   -2.1870584  -0.71435554   0.13071426   -2.1870584    1.4727029       128000 
  214000   0.97959389   -2.1864797   -2.1864797  -0.71711962   0.11348654   -2.1864797    1.4693601       128000 
  215000    0.9756529   -2.1802271   -2.1802271  -0.71677835   0.11139391   -2.1802271    1.4634487       128000 
  216000   0.97657443   -2.1756834   -2.1756834  -0.71085246    0.1135281   -2.1756834     1.464831       128000 
  217000   0.98403581   -2.1740779   -2.1740779  -0.69805512   0.11489794   -2.1740779    1.4760228       128000 
  218000   0.97701635   -2.1664381   -2.1664381  -0.70094423   0.11254594   -2.1664381    1.4654939       128000 
  219000   0.98242782   -2.1729753   -2.1729753  -0.69936443   0.11807922   -2.1729753    1.4736109       128000 
  220000   0.97867612     -2.16944     -2.16944  -0.70145657   0.12471273     -2.16944    1.4679835       128000 
  221000   0.98610621   -2.1749739   -2.1749739  -0.69584552   0.11793964   -2.1749739    1.4791284       128000 
  222000    0.9763895   -2.1656968   -2.1656968   -0.7011432   0.12415248   -2.1656968    1.4645536       128000 
  223000   0.98278619   -2.1759477   -2.1759477  -0.70179922   0.10899817   -2.1759477    1.4741484       128000 
  224000   0.98541498   -2.1725386   -2.1725386  -0.69444705   0.13490211   -2.1725386    1.4780915       128000 
  225000   0.98367292   -2.1737612   -2.1737612  -0.69828274   0.11506082   -2.1737612    1.4754785       128000 
  226000    0.9849824   -2.1744821   -2.1744821  -0.69703941   0.12919759   -2.1744821    1.4774427       128000 
  227000   0.98244293   -2.1758756   -2.1758756   -0.7022421   0.12142897   -2.1758756    1.4736335       128000 
  228000   0.98251118   -2.1751272   -2.1751272  -0.70139127   0.11364568   -2.1751272    1.4737359       128000 
  229000   0.97747774   -2.1750796   -2.1750796  -0.70889363   0.10649213   -2.1750796    1.4661859       128000 
  230000    0.9826432   -2.1803327   -2.1803327  -0.70639874   0.11638887   -2.1803327    1.4739339       128000 
  231000   0.97906926   -2.1739352   -2.1739352  -0.70536205   0.11787856   -2.1739352    1.4685731       128000 
  232000   0.97752052   -2.1769019   -2.1769019  -0.71065179   0.12487419   -2.1769019    1.4662501       128000 
  233000   0.97710576    -2.172016    -2.172016  -0.70638804   0.11072807    -2.172016     1.465628       128000 
  234000   0.97716005   -2.1687631   -2.1687631  -0.70305371   0.12692634   -2.1687631    1.4657094       128000 
  235000   0.98390001   -2.1701662   -2.1701662   -0.6943471   0.12078957   -2.1701662    1.4758191       128000 
  236000   0.98199049    -2.172446    -2.172446   -0.6994911   0.11655545    -2.172446    1.4729549       128000 
  237000   0.97940078   -2.1755519   -2.1755519  -0.70648146   0.12952627   -2.1755519    1.4690704       128000 
  238000   0.97898454   -2.1713091   -2.1713091  -0.70286301   0.12114575   -2.1713091    1.4684461       128000 
  239000   0.97739943   -2.1726176   -2.1726176  -0.70654914   0.11586991   -2.1726176    1.4660685       128000 
  240000   0.97881212   -2.1750231   -2.1750231  -0.70683568   0.12757493   -2.1750231    1.4681874       128000 
  241000   0.97533179   -2.1759257   -2.1759257  -0.71295861   0.10176516   -2.1759257    1.4629671       128000 
  242000     0.978345   -2.1683371   -2.1683371  -0.70085035   0.13295015   -2.1683371    1.4674868       128000 
  243000   0.97632643    -2.171664    -2.171664  -0.70720498   0.11561782    -2.171664     1.464459       128000 
  244000    0.9772721   -2.1752209   -2.1752209  -0.70934347   0.11190714   -2.1752209    1.4658775       128000 
  245000   0.97510286   -2.1715451   -2.1715451  -0.70892143   0.11018472   -2.1715451    1.4626237       128000 
  246000   0.98063073   -2.1801842   -2.1801842  -0.70926885   0.11161713   -2.1801842    1.4709153       128000 
  247000    0.9852411   -2.1809116   -2.1809116  -0.70308086   0.12141323   -2.1809116    1.4778307       128000 
  248000   0.98076556   -2.1711491   -2.1711491  -0.70003151   0.11945776   -2.1711491    1.4711175       128000 
  249000    0.9770905   -2.1746411   -2.1746411  -0.70903606   0.12123819   -2.1746411    1.4656051       128000 
  250000   0.97818906   -2.1776111   -2.1776111  -0.71035817   0.12220273   -2.1776111    1.4672529       128000 
  251000   0.97720874   -2.1772198   -2.1772198   -0.7114374   0.10426425   -2.1772198    1.4657824       128000 
  252000   0.97398532   -2.1763084   -2.1763084  -0.71536099   0.11872535   -2.1763084    1.4609474       128000 
  253000   0.97888414   -2.1901842   -2.1901842  -0.72188874   0.11122628   -2.1901842    1.4682955       128000 
  254000   0.97528652   -2.1870981   -2.1870981  -0.72419897   0.11928028   -2.1870981    1.4628992       128000 
  255000   0.97520721   -2.1845564   -2.1845564  -0.72177622   0.11773091   -2.1845564    1.4627802       128000 
  256000   0.97584353   -2.1753217   -2.1753217    -0.711587   0.11842049   -2.1753217    1.4637347       128000 
  257000   0.97567151   -2.1755141   -2.1755141  -0.71203747   0.12116646   -2.1755141    1.4634766       128000 
  258000   0.97914344   -2.1766715   -2.1766715  -0.70798707   0.11654549   -2.1766715    1.4686844       128000 
  259000   0.98195349   -2.1787267   -2.1787267  -0.70582727    0.1250023   -2.1787267    1.4728994       128000 
  260000   0.98091868    -2.183502    -2.183502  -0.71215475   0.11863823    -2.183502    1.4713472       128000 
  261000   0.98265592   -2.1840396   -2.1840396   -0.7100866   0.11534017   -2.1840396     1.473953       128000 
  262000   0.97469704   -2.1839887   -2.1839887  -0.72197374   0.11940443   -2.1839887     1.462015       128000 
  263000   0.97860406   -2.1913173   -2.1913173  -0.72344191   0.10866497   -2.1913173    1.4678754       128000 
  264000   0.97059228   -2.1916574   -2.1916574   -0.7357995   0.10853548   -2.1916574     1.455858       128000 
  265000   0.97265302    -2.192157    -2.192157    -0.733208   0.11283934    -2.192157     1.458949       128000 
  266000   0.96903864   -2.1861238   -2.1861238  -0.73259624   0.10579375   -2.1861238    1.4535275       128000 
  267000   0.97402293   -2.1896774   -2.1896774   -0.7286736   0.10971678   -2.1896774    1.4610038       128000 
  268000   0.97322098   -2.1917941   -2.1917941  -0.73199323  0.099951279   -2.1917941    1.4598009       128000 
  269000   0.96802131   -2.1872403   -2.1872403  -0.73523873   0.10990591   -2.1872403    1.4520016       128000 
  270000   0.97221856   -2.1915362   -2.1915362  -0.73323894   0.10603468   -2.1915362    1.4582973       128000 
  271000    0.9693777    -2.191881    -2.191881  -0.73784494   0.10106511    -2.191881    1.4540361       128000 
  272000     0.969194   -2.1831367   -2.1831367  -0.72937614   0.13214427   -2.1831367    1.4537606       128000 
  273000   0.97118445   -2.1843833   -2.1843833  -0.72763711   0.11576861   -2.1843833    1.4567462       128000 
  274000   0.97032299   -2.1769913   -2.1769913  -0.72153725   0.12430495   -2.1769913     1.455454       128000 
  275000   0.97075398    -2.182582    -2.182582  -0.72648156   0.11083805    -2.182582    1.4561005       128000 
  276000   0.97050619   -2.1804824   -2.1804824  -0.72475356   0.11762073   -2.1804824    1.4557288       128000 
  277000   0.97085155   -2.1804172   -2.1804172  -0.72417035   0.10652626   -2.1804172    1.4562468       128000 
  278000   0.97566735   -2.1856884   -2.1856884    -0.722218   0.11493089   -2.1856884    1.4634704       128000 
  279000    0.9751794   -2.1864249   -2.1864249  -0.72368646   0.12400939   -2.1864249    1.4627385       128000 
  280000   0.96888266   -2.1827686   -2.1827686  -0.72947506    0.1138427   -2.1827686    1.4532936       128000 
  281000   0.97297378   -2.1866469   -2.1866469  -0.72721674   0.11369203   -2.1866469    1.4594301       128000 
  282000     0.973851    -2.192006    -2.192006  -0.73126013   0.10953507    -2.192006    1.4607459       128000 
  283000   0.97062449   -2.1868284   -2.1868284  -0.73092215   0.10584077   -2.1868284    1.4559063       128000 
  284000   0.96982422   -2.1848601   -2.1848601  -0.73015426    0.1195627   -2.1848601    1.4547059       128000 
  285000   0.96991246   -2.1895252   -2.1895252  -0.73468698   0.11522449   -2.1895252    1.4548382       128000 
  286000   0.96864158   -2.1863663   -2.1863663   -0.7334343   0.10121603   -2.1863663     1.452932       128000 
  287000   0.96763798   -2.1857694   -2.1857694   -0.7343428   0.12033768   -2.1857694    1.4514266       128000 
  288000   0.97480335   -2.1855856   -2.1855856  -0.72341123    0.1167516   -2.1855856    1.4621744       128000 
  289000   0.97214047   -2.1844151   -2.1844151  -0.72623488   0.12391982   -2.1844151    1.4581802       128000 
  290000   0.97247009   -2.1891821   -2.1891821  -0.73050753   0.11057275   -2.1891821    1.4586746       128000 
  291000   0.97051121   -2.1947735   -2.1947735  -0.73903718   0.10459001   -2.1947735    1.4557364       128000 
  292000   0.97135609   -2.1958706   -2.1958706  -0.73886693   0.10602741   -2.1958706    1.4570036       128000 
  293000   0.97142039   -2.1852814   -2.1852814  -0.72818135   0.11354188   -2.1852814    1.4571001       128000 
  294000   0.96727543   -2.1858011   -2.1858011  -0.73491835   0.10442158   -2.1858011    1.4508828       128000 
  295000    0.9602667   -2.1839255   -2.1839255  -0.74355561   0.11488723   -2.1839255    1.4403699       128000 
  296000   0.96634903   -2.1906609   -2.1906609   -0.7411677  0.096715856   -2.1906609    1.4494932       128000 
  297000   0.97424578   -2.1895906   -2.1895906  -0.72825252   0.11702363   -2.1895906    1.4613381       128000 
  298000   0.97498467   -2.1879635   -2.1879635  -0.72551707   0.11307288   -2.1879635    1.4624464       128000 
  299000   0.97217453   -2.1873741   -2.1873741  -0.72914287   0.10400313   -2.1873741    1.4582313       128000 
  300000   0.97755431   -2.1941074   -2.1941074  -0.72780663   0.11367995   -2.1941074    1.4663008       128000 
  301000   0.97288033    -2.194428    -2.194428  -0.73513802   0.11600625    -2.194428    1.4592899       128000 
  302000   0.96803867   -2.1874979   -2.1874979  -0.73547026   0.10042323   -2.1874979    1.4520276       128000 
  303000   0.96870845   -2.1878996   -2.1878996  -0.73486737   0.11296634   -2.1878996    1.4530323       128000 
  304000   0.96738803   -2.1886289   -2.1886289  -0.73757727  0.097711326   -2.1886289    1.4510517       128000 
  305000   0.97420749   -2.1942303   -2.1942303  -0.73294963   0.10706234   -2.1942303    1.4612806       128000 
  306000   0.96926024   -2.1840427   -2.1840427  -0.73018276   0.10869755   -2.1840427    1.4538599       128000 
  307000   0.96647373   -2.1834802   -2.1834802      -0.7338   0.11492974   -2.1834802    1.4496802       128000 
  308000   0.96912922   -2.1926542   -2.1926542   -0.7389908   0.11489862   -2.1926542    1.4536634       128000 
  309000    0.9704671   -2.1965448   -2.1965448  -0.74087461    0.1159077   -2.1965448    1.4556702       128000 
  310000   0.96856988   -2.1993775   -2.1993775  -0.74655305  0.099887765   -2.1993775    1.4528244       128000 
  311000    0.9695464   -2.1987804   -2.1987804  -0.74449129   0.10578021   -2.1987804    1.4542892       128000 
  312000   0.97039255   -2.1959369   -2.1959369  -0.74037858   0.10757364   -2.1959369    1.4555584       128000 
  313000   0.96447751   -2.1946004   -2.1946004  -0.74791439   0.09678624   -2.1946004     1.446686       128000 
  314000   0.97302616   -2.2010813   -2.2010813  -0.74157258   0.11003696   -2.2010813    1.4595087       128000 
  315000   0.97630577   -2.1896353   -2.1896353  -0.72520732   0.11324397   -2.1896353     1.464428       128000 
  316000   0.97296925   -2.1959185   -2.1959185  -0.73649519   0.11542424   -2.1959185    1.4594233       128000 
  317000     0.966327   -2.1923456   -2.1923456  -0.74288547    0.1059758   -2.1923456    1.4494602       128000 
  318000   0.97009104   -2.1917137   -2.1917137  -0.73660763   0.11280334   -2.1917137    1.4551061       128000 
  319000   0.97093839   -2.1938309   -2.1938309  -0.73745379   0.10859426   -2.1938309    1.4563771       128000 
  320000   0.97149422   -2.1917202   -2.1917202  -0.73450935   0.10496827   -2.1917202    1.4572108       128000 
  321000   0.96400745   -2.1856556   -2.1856556   -0.7396747   0.10023841   -2.1856556    1.4459809       128000 
  322000   0.96859996   -2.1955372   -2.1955372  -0.74266767   0.10379647   -2.1955372    1.4528695       128000 
  323000    0.9667761   -2.1920139   -2.1920139  -0.74188012   0.11451456   -2.1920139    1.4501338       128000 
  324000   0.96481892   -2.1890989   -2.1890989  -0.74190082   0.10595139   -2.1890989    1.4471981       128000 
  325000   0.96799341   -2.1906029   -2.1906029  -0.73864315   0.10880751   -2.1906029    1.4519597       128000 
  326000     0.971762   -2.1955482   -2.1955482   -0.7379357   0.10989381   -2.1955482    1.4576125       128000 
  327000   0.97136189   -2.2009262   -2.2009262  -0.74391386   0.11890452   -2.2009262    1.4570123       128000 
  328000   0.96452016   -2.1953772   -2.1953772  -0.74862728   0.10626667   -2.1953772      1.44675       128000 
  329000   0.96646107    -2.198584    -2.198584  -0.74892274   0.10791167    -2.198584    1.4496613       128000 
  330000   0.96545826    -2.206624    -2.206624  -0.75846692  0.097829524    -2.206624    1.4481571       128000 
  331000   0.97256079   -2.2040626   -2.2040626   -0.7452519   0.10766109   -2.2040626    1.4588106       128000 
  332000   0.96581378   -2.1941165   -2.1941165   -0.7454262   0.10879281   -2.1941165    1.4486903       128000 
  333000   0.96401899   -2.1997166   -2.1997166  -0.75371843   0.10511657   -2.1997166    1.4459982       128000 
  334000   0.96706667   -2.1985189   -2.1985189  -0.74794922   0.10312926   -2.1985189    1.4505696       128000 
  335000   0.96226922   -2.1937227   -2.1937227  -0.75034909   0.10540047   -2.1937227    1.4433736       128000 
  336000   0.96732692   -2.1900931   -2.1900931   -0.7391331   0.10872971   -2.1900931      1.45096       128000 
  337000   0.96879791   -2.1964088   -2.1964088  -0.74324233   0.11581647   -2.1964088    1.4531665       128000 
  338000   0.96875264   -2.1985419   -2.1985419  -0.74544332   0.11544804   -2.1985419    1.4530985       128000 
  339000   0.96781013   -2.2000348   -2.2000348  -0.74834994    0.1115419   -2.2000348    1.4516848       128000 
  340000   0.96224905   -2.2006092   -2.2006092  -0.75726581    0.1042041   -2.2006092    1.4433434       128000 
  341000   0.96364472   -2.2028231   -2.2028231  -0.75738627   0.10254453   -2.2028231    1.4454368       128000 
  342000   0.97111925   -2.2006391   -2.2006391  -0.74399076  0.097661558   -2.2006391    1.4566484       128000 
  343000   0.97036437   -2.2008703   -2.2008703  -0.74535419   0.11694016   -2.2008703    1.4555161       128000 
  344000   0.96682654   -2.1991169   -2.1991169  -0.74890743   0.10452242   -2.1991169    1.4502094       128000 
  345000    0.9627539    -2.205926    -2.205926  -0.76182536    0.1107761    -2.205926    1.4441006       128000 
  346000   0.96445763   -2.2011614   -2.2011614  -0.75450523   0.10956331   -2.2011614    1.4466562       128000 
  347000    0.9596377   -2.1984017   -2.1984017  -0.75897531   0.10496035   -2.1984017    1.4394264       128000 
  348000   0.96413006   -2.2023409   -2.2023409  -0.75617607  0.095092083   -2.2023409    1.4461648       128000 
  349000   0.96348815   -2.1988946   -2.1988946  -0.75369265   0.10520898   -2.1988946     1.445202       128000 
  350000   0.96710446   -2.2010235   -2.2010235  -0.75039716   0.10624958   -2.2010235    1.4506263       128000 
  351000   0.96554331   -2.1986979   -2.1986979  -0.75041321    0.1060127   -2.1986979    1.4482847       128000 
  352000   0.96396005   -2.2032481   -2.2032481  -0.75733826    0.1082623   -2.2032481    1.4459098       128000 
  353000   0.96869089   -2.2032144   -2.2032144  -0.75020845   0.10455326   -2.2032144    1.4530059       128000 
  354000   0.96361124   -2.2008792   -2.2008792  -0.75549255   0.10674555   -2.2008792    1.4453866       128000 
  355000   0.96504485   -2.2079884   -2.2079884  -0.76045142   0.10958273   -2.2079884     1.447537       128000 
  356000   0.96400289   -2.2034663   -2.2034663  -0.75749223   0.10618345   -2.2034663    1.4459741       128000 
  357000   0.96417164   -2.2079359   -2.2079359  -0.76170874  0.097608544   -2.2079359    1.4462272       128000 
  358000   0.96243075   -2.2169461   -2.2169461  -0.77333017   0.10416836   -2.2169461    1.4436159       128000 
  359000   0.96554653   -2.2188238   -2.2188238  -0.77053429  0.099901282   -2.2188238    1.4482895       128000 
  360000   0.96221538   -2.2212362   -2.2212362  -0.77794338   0.10006972   -2.2212362    1.4432929       128000 
  361000   0.95969991   -2.2129489   -2.2129489  -0.77342919   0.11179937   -2.2129489    1.4395197       128000 
  362000   0.96113596   -2.2161693   -2.2161693  -0.77449559   0.10280114   -2.2161693    1.4416738       128000 
  363000   0.95868428    -2.210981    -2.210981  -0.77298464   0.10817995    -2.210981    1.4379963       128000 
  364000   0.96528881   -2.2096531   -2.2096531  -0.76175021   0.11642505   -2.2096531    1.4479029       128000 
  365000   0.96301748   -2.2035872   -2.2035872  -0.75909123   0.11387417   -2.2035872     1.444496       128000 
  366000   0.96757523   -2.2119449   -2.2119449  -0.76061238    0.1135206   -2.2119449    1.4513325       128000 
  367000    0.9620044   -2.2120997   -2.2120997  -0.76912332   0.10098795   -2.2120997    1.4429764       128000 
  368000   0.96634062   -2.2200155   -2.2200155  -0.77053493   0.10594047   -2.2200155    1.4494806       128000 
  369000   0.96047292   -2.2137177   -2.2137177  -0.77303849   0.10786724   -2.2137177    1.4406792       128000 
  370000   0.96250691   -2.2187422   -2.2187422  -0.77501204  0.099541114   -2.2187422    1.4437301       128000 
  371000   0.96185069   -2.2133607   -2.2133607  -0.77061489  0.090438509   -2.2133607    1.4427458       128000 
  372000   0.95968942   -2.2108077   -2.2108077  -0.77130374   0.10071704   -2.2108077     1.439504       128000 
  373000   0.95970942   -2.2151392   -2.2151392  -0.77560517   0.10409834   -2.2151392     1.439534       128000 
  374000   0.95591477   -2.2144428   -2.2144428  -0.78060068  0.095395559   -2.2144428    1.4338421       128000 
  375000   0.96092784   -2.2148887   -2.2148887  -0.77352711   0.11311897   -2.2148887    1.4413616       128000 
  376000   0.96176653   -2.2136541   -2.2136541  -0.77103454   0.10428282   -2.2136541    1.4426196       128000 
  377000   0.96068236   -2.2091343   -2.2091343   -0.7681409   0.10748604   -2.2091343    1.4409934       128000 
  378000   0.96557942   -2.2153028   -2.2153028  -0.76696396  0.098734692   -2.2153028    1.4483388       128000 
  379000   0.96121638   -2.2105873   -2.2105873  -0.76879296   0.10513354   -2.2105873    1.4417944       128000 
  380000   0.96061307   -2.2082226   -2.2082226  -0.76733317  0.097250059   -2.2082226    1.4408895       128000 
  381000   0.96358653   -2.2093178   -2.2093178  -0.76396828   0.10278491   -2.2093178    1.4453495       128000 
  382000   0.96302182   -2.2137199   -2.2137199  -0.76921738   0.10858275   -2.2137199    1.4445025       128000 
  383000   0.96218181   -2.2130675   -2.2130675  -0.76982498   0.10437128   -2.2130675    1.4432425       128000 
  384000   0.95826402   -2.2154401   -2.2154401  -0.77807418   0.10069444   -2.2154401     1.437366       128000 
  385000   0.95902221   -2.2166307   -2.2166307  -0.77812754  0.098649203   -2.2166307    1.4385032       128000 
  386000   0.95930585   -2.2112296   -2.2112296  -0.77230091  0.089690926   -2.2112296    1.4389287       128000 
  387000   0.95450852   -2.2106735   -2.2106735  -0.77894066   0.10621231   -2.2106735    1.4317328       128000 
  388000   0.96638432   -2.2182984   -2.2182984  -0.76875223   0.10121117   -2.2182984    1.4495461       128000 
  389000   0.96043632   -2.2109384   -2.2109384  -0.77031404    0.1032045   -2.2109384    1.4406243       128000 
  390000   0.96302291     -2.21113     -2.21113  -0.76662583   0.09881606     -2.21113    1.4445041       128000 
  391000   0.96035145   -2.2194606   -2.2194606  -0.77896359  0.089828909   -2.2194606     1.440497       128000 
  392000   0.95503071   -2.2124915   -2.2124915   -0.7799754    0.1029155   -2.2124915    1.4325161       128000 
  393000   0.95468797   -2.2125998   -2.2125998  -0.78059781   0.10444181   -2.2125998     1.432002       128000 
  394000   0.95778642   -2.2133569   -2.2133569  -0.77670737   0.10380082   -2.2133569    1.4366496       128000 
  395000   0.96104532   -2.2162005   -2.2162005   -0.7746627  0.093959801   -2.2162005    1.4415378       128000 
  396000   0.96575511   -2.2109923   -2.2109923  -0.76238999   0.11210202   -2.2109923    1.4486023       128000 
  397000   0.96299261   -2.2155951   -2.2155951  -0.77113642  0.099817833   -2.2155951    1.4444587       128000 
  398000   0.96690218   -2.2248857   -2.2248857  -0.77456279   0.11104033   -2.2248857    1.4503229       128000 
  399000      0.95965   -2.2205309   -2.2205309  -0.78108599  0.098499784   -2.2205309    1.4394449       128000 
  400000   0.96330343     -2.22044     -2.22044  -0.77551512  0.098705776     -2.22044    1.4449249       128000 
  401000    0.9578648   -2.2185567   -2.2185567  -0.78178954  0.091712974   -2.2185567    1.4367671       128000 
  402000   0.96204735   -2.2178302   -2.2178302  -0.77478937   0.10989563   -2.2178302    1.4430408       128000 
  403000   0.95853501   -2.2121216   -2.2121216  -0.77434917   0.11288127   -2.2121216    1.4377724       128000 
  404000    0.9581412   -2.2152308   -2.2152308  -0.77804907   0.10150075   -2.2152308    1.4371817       128000 
  405000   0.96283182   -2.2212312   -2.2212312  -0.77701366   0.10961644   -2.2212312    1.4442175       128000 
  406000   0.96105571    -2.220864    -2.220864  -0.77931062   0.11311053    -2.220864    1.4415534       128000 
  407000   0.96119485   -2.2201417   -2.2201417  -0.77837956   0.10155133   -2.2201417    1.4417621       128000 
  408000   0.96049877   -2.2182227   -2.2182227  -0.77750471  0.097096234   -2.2182227     1.440718       128000 
  409000    0.9578708    -2.211633    -2.211633  -0.77485683  0.099477231    -2.211633    1.4367761       128000 
  410000   0.95543855   -2.2042757   -2.2042757  -0.77114788   0.10398728   -2.2042757    1.4331278       128000 
  411000   0.96066544   -2.2114017   -2.2114017  -0.77043368   0.10410613   -2.2114017     1.440968       128000 
  412000   0.95778574   -2.2143894   -2.2143894  -0.77774088   0.10762162   -2.2143894    1.4366485       128000 
  413000     0.958434   -2.2130651   -2.2130651  -0.77544415   0.10192813   -2.2130651    1.4376209       128000 
  414000   0.96171679   -2.2178886   -2.2178886  -0.77534362   0.10835913   -2.2178886     1.442545       128000 
  415000   0.96232334   -2.2164671   -2.2164671  -0.77301229  0.098741201   -2.2164671    1.4434548       128000 
  416000   0.96022567   -2.2124946   -2.2124946  -0.77218628   0.10433599   -2.2124946    1.4403084       128000 
  417000    0.9627413   -2.2182253   -2.2182253  -0.77414356   0.10912523   -2.2182253    1.4440817       128000 
  418000    0.9582467   -2.2130092   -2.2130092  -0.77566924    0.1023006   -2.2130092      1.43734       128000 
  419000   0.95803829   -2.2245286   -2.2245286  -0.78750129   0.11837727   -2.2245286    1.4370274       128000 
  420000   0.95346536   -2.2249378   -2.2249378  -0.79476973   0.11093686   -2.2249378    1.4301681       128000 
  421000   0.95848787   -2.2287026   -2.2287026  -0.79100091  0.096694212   -2.2287026    1.4377017       128000 
  422000   0.96097381   -2.2297969   -2.2297969  -0.78836632  0.099284398   -2.2297969    1.4414306       128000 
  423000      0.95928   -2.2331653   -2.2331653  -0.79427542  0.096388964   -2.2331653    1.4388899       128000 
  424000   0.95088903   -2.2302655   -2.2302655  -0.80396178  0.097376663   -2.2302655    1.4263037       128000 
  425000   0.95190131   -2.2278569   -2.2278569  -0.80003483  0.079704372   -2.2278569    1.4278221       128000 
  426000   0.95382918    -2.228711    -2.228711  -0.79799717   0.10321089    -2.228711    1.4307138       128000 
  427000    0.9572222   -2.2307167   -2.2307167  -0.79491348   0.10542128   -2.2307167    1.4358032       128000 
  428000    0.9554607   -2.2257124   -2.2257124  -0.79255139  0.096808388   -2.2257124    1.4331611       128000 
  429000   0.95528031   -2.2229762   -2.2229762  -0.79008577  0.098172707   -2.2229762    1.4328905       128000 
  430000   0.95350806    -2.224212    -2.224212  -0.79397988  0.094067334    -2.224212    1.4302322       128000 
  431000   0.96272734   -2.2297909   -2.2297909  -0.78573016    0.0950227   -2.2297909    1.4440608       128000 
  432000   0.95512283   -2.2216087   -2.2216087  -0.78895444   0.10002576   -2.2216087    1.4326542       128000 
  433000   0.95477781    -2.219539    -2.219539   -0.7874023   0.10043115    -2.219539    1.4321367       128000 
  434000   0.95915621    -2.226227    -2.226227  -0.78752278  0.092584499    -2.226227    1.4387042       128000 
  435000   0.96195592   -2.2286486   -2.2286486  -0.78574493  0.099128085   -2.2286486    1.4429037       128000 
  436000   0.96124201   -2.2350597   -2.2350597  -0.79322688   0.10214829   -2.2350597    1.4418328       128000 
  437000   0.96165882   -2.2275958   -2.2275958  -0.78513773  0.091003303   -2.2275958     1.442458       128000 
  438000   0.95813812   -2.2226348   -2.2226348  -0.78545767   0.11168884   -2.2226348    1.4371771       128000 
  439000   0.95711247   -2.2199535   -2.2199535  -0.78431484   0.11720941   -2.2199535    1.4356387       128000 
  440000   0.95446461   -2.2224692   -2.2224692  -0.79080225   0.10454014   -2.2224692    1.4316669       128000 
  441000   0.95843537   -2.2291456   -2.2291456  -0.79152262   0.10131786   -2.2291456     1.437623       128000 
  442000   0.96167993    -2.225104    -2.225104  -0.78261427    0.1084161    -2.225104    1.4424897       128000 
  443000    0.9577652   -2.2250837   -2.2250837  -0.78846595  0.098037398   -2.2250837    1.4366177       128000 
  444000   0.95612973   -2.2260916   -2.2260916  -0.79192699  0.086235529   -2.2260916    1.4341646       128000 
  445000   0.95608211   -2.2270851   -2.2270851  -0.79299194   0.10305918   -2.2270851    1.4340931       128000 
  446000   0.95496903   -2.2262325   -2.2262325  -0.79380891    0.1029922   -2.2262325    1.4324236       128000 
  447000   0.95843015    -2.220934    -2.220934  -0.78331885   0.10752433    -2.220934    1.4376151       128000 
  448000   0.95560634   -2.2255197   -2.2255197  -0.79214015   0.10767443   -2.2255197    1.4333795       128000 
  449000   0.95549883   -2.2326399   -2.2326399  -0.79942162   0.10309846   -2.2326399    1.4332183       128000 
  450000   0.95408043   -2.2310024   -2.2310024  -0.79991174  0.093310273   -2.2310024    1.4310907       128000 
  451000     0.952485   -2.2330898   -2.2330898  -0.80439223  0.092770746   -2.2330898    1.4286976       128000 
  452000    0.9547783   -2.2338615   -2.2338615  -0.80172401  0.098723897   -2.2338615    1.4321375       128000 
  453000   0.95329108   -2.2293197   -2.2293197  -0.79941301   0.11291204   -2.2293197    1.4299067       128000 
  454000   0.95700169   -2.2225383   -2.2225383  -0.78706578   0.10659375   -2.2225383    1.4354725       128000 
  455000    0.9491744   -2.2112522   -2.2112522  -0.78752045    0.1098004   -2.2112522    1.4237318       128000 
  456000   0.95820155   -2.2232937   -2.2232937  -0.78602143   0.10200794   -2.2232937    1.4372722       128000 
  457000   0.95566759   -2.2274818   -2.2274818  -0.79401043   0.10872145   -2.2274818    1.4334714       128000 
  458000   0.95368668   -2.2282699   -2.2282699  -0.79776984  0.091998107   -2.2282699    1.4305001       128000 
  459000    0.9566486   -2.2346439   -2.2346439  -0.79970105  0.092511928   -2.2346439    1.4349429       128000 
  460000    0.9537647    -2.225771    -2.225771   -0.7951539   0.10843291    -2.225771    1.4306171       128000 
  461000   0.95606391   -2.2265695   -2.2265695  -0.79250369   0.11412975   -2.2265695    1.4340658       128000 
  462000   0.95626961   -2.2339205   -2.2339205   -0.7995461   0.10377206   -2.2339205    1.4343744       128000 
  463000   0.95561377   -2.2320518   -2.2320518  -0.79866117   0.10479943   -2.2320518    1.4333907       128000 
  464000   0.95450176   -2.2390975   -2.2390975   -0.8073748   0.10087401   -2.2390975    1.4317227       128000 
  465000   0.95468418   -2.2372933   -2.2372933  -0.80529696   0.11366119   -2.2372933    1.4319963       128000 
  466000   0.95503637   -2.2392641   -2.2392641  -0.80673949   0.10297606   -2.2392641    1.4325246       128000 
  467000   0.95415352   -2.2404615   -2.2404615  -0.80926115   0.10889132   -2.2404615    1.4312003       128000 
  468000   0.94947262   -2.2318386   -2.2318386  -0.80765951  0.092345964   -2.2318386    1.4241791       128000 
  469000   0.95983256   -2.2390884   -2.2390884  -0.79936969   0.10358943   -2.2390884    1.4397187       128000 
  470000   0.95966563   -2.2394424   -2.2394424   -0.7999741   0.10945847   -2.2394424    1.4394683       128000 
  471000   0.95562085   -2.2340702   -2.2340702  -0.80066893  0.096422124   -2.2340702    1.4334013       128000 
  472000   0.95145677   -2.2379516   -2.2379516   -0.8107963  0.098601024   -2.2379516    1.4271553       128000 
  473000   0.95024664   -2.2393678   -2.2393678  -0.81402766  0.085325895   -2.2393678    1.4253401       128000 
  474000   0.94874546   -2.2457897   -2.2457897  -0.82270133  0.099962432   -2.2457897    1.4230884       128000 
  475000   0.95778817   -2.2603524   -2.2603524   -0.8237002  0.089668111   -2.2603524    1.4366522       128000 
  476000   0.94944293   -2.2565401   -2.2565401  -0.83240554  0.099938876   -2.2565401    1.4241346       128000 
  477000   0.95145926   -2.2576933   -2.2576933  -0.83053432  0.098469422   -2.2576933     1.427159       128000 
  478000   0.94540252   -2.2557873   -2.2557873   -0.8377132  0.097500308   -2.2557873    1.4180741       128000 
  479000   0.94709063   -2.2627417   -2.2627417  -0.84213549  0.091911831   -2.2627417    1.4206062       128000 
  480000    0.9536869   -2.2626511   -2.2626511  -0.83215072  0.099902923   -2.2626511    1.4305004       128000 
  481000    0.9504527   -2.2668683   -2.2668683  -0.84121908   0.11594358   -2.2668683    1.4256492       128000 
  482000   0.94695629   -2.2645924   -2.2645924  -0.84418769   0.09695536   -2.2645924    1.4204047       128000 
  483000   0.94857375   -2.2649765   -2.2649765  -0.84214565  0.088288635   -2.2649765    1.4228308       128000 
  484000   0.94851751   -2.2657651   -2.2657651  -0.84301859  0.095706327   -2.2657651    1.4227465       128000 
  485000   0.95157569   -2.2633082   -2.2633082  -0.83597459   0.10867742   -2.2633082    1.4273337       128000 
  486000   0.95091297   -2.2696145   -2.2696145   -0.8432749   0.10677054   -2.2696145    1.4263396       128000 
  487000    0.9492561    -2.268191    -2.268191  -0.84433664  0.089683393    -2.268191    1.4238543       128000 
  488000   0.95066655   -2.2646402   -2.2646402  -0.83867019  0.093534563   -2.2646402      1.42597       128000 
  489000   0.95088524   -2.2562935   -2.2562935  -0.82999549   0.10537871   -2.2562935     1.426298       128000 
  490000   0.95037654   -2.2569316   -2.2569316  -0.83139658    0.1063445   -2.2569316     1.425535       128000 
  491000    0.9534361   -2.2600416   -2.2600416  -0.82991734  0.093426665   -2.2600416    1.4301242       128000 
  492000   0.94792571   -2.2571314   -2.2571314  -0.83527261   0.10301237   -2.2571314    1.4218588       128000 
  493000    0.9488065   -2.2643146   -2.2643146  -0.84113462  0.083101362   -2.2643146      1.42318       128000 
  494000   0.95334883   -2.2638634   -2.2638634  -0.83387008   0.09389477   -2.2638634    1.4299933       128000 
  495000   0.95170264   -2.2551927   -2.2551927   -0.8276686   0.10056411   -2.2551927    1.4275241       128000 
  496000   0.95154389   -2.2583732   -2.2583732  -0.83108727  0.094840251   -2.2583732     1.427286       128000 
  497000   0.95162276    -2.264714    -2.264714   -0.8373097   0.10332909    -2.264714    1.4274043       128000 
  498000   0.94971084   -2.2578533   -2.2578533  -0.83331689  0.097509232   -2.2578533    1.4245364       128000 
  499000   0.95012348   -2.2600253   -2.2600253  -0.83486996     0.095877   -2.2600253    1.4251554       128000 
  500000   0.94805711   -2.2599926   -2.2599926  -0.83793669  0.099141717   -2.2599926    1.4220559       128000 
  501000   0.94516546   -2.2622262   -2.2622262   -0.8445077  0.091542293   -2.2622262    1.4177185       128000 
  502000    0.9487994   -2.2626573   -2.2626573  -0.83948802  0.093586665   -2.2626573    1.4231693       128000 
  503000   0.94429405   -2.2599249   -2.2599249  -0.84351352  0.093537348   -2.2599249    1.4164114       128000 
  504000   0.94872356   -2.2710678   -2.2710678  -0.84801223  0.097442962   -2.2710678    1.4230556       128000 
  505000   0.94808863   -2.2692603   -2.2692603  -0.84715713  0.091064022   -2.2692603    1.4221032       128000 
  506000   0.94534211   -2.2647328   -2.2647328  -0.84674928  0.097521549   -2.2647328    1.4179835       128000 
  507000   0.95431908   -2.2728338   -2.2728338  -0.84138517  0.094640232   -2.2728338    1.4314487       128000 
  508000   0.94675788   -2.2596415   -2.2596415  -0.83953443  0.096448383   -2.2596415    1.4201071       128000 
  509000   0.95074657   -2.2630591   -2.2630591  -0.83696909  0.098498201   -2.2630591      1.42609       128000 
  510000   0.94608707   -2.2558434   -2.2558434  -0.83674253  0.099035829   -2.2558434    1.4191009       128000 
  511000     0.956399   -2.2604278   -2.2604278  -0.82585929  0.087618889   -2.2604278    1.4345685       128000 
  512000   0.95492723   -2.2659252   -2.2659252  -0.83356435   0.10296949   -2.2659252    1.4323609       128000 
  513000   0.94944413   -2.2637153   -2.2637153   -0.8395789   0.10257047   -2.2637153    1.4241364       128000 
  514000   0.95012657   -2.2603299   -2.2603299  -0.83516982   0.10235454   -2.2603299      1.42516       128000 
  515000   0.94530989   -2.2639297   -2.2639297  -0.84599449  0.098848164   -2.2639297    1.4179352       128000 
  516000   0.94414533   -2.2657829   -2.2657829  -0.84959454   0.10716998   -2.2657829    1.4161884       128000 
  517000   0.94467865   -2.2737235   -2.2737235   -0.8567352  0.097143205   -2.2737235    1.4169883       128000 
  518000   0.94463684   -2.2696084   -2.2696084  -0.85268277   0.10149618   -2.2696084    1.4169256       128000 
  519000   0.94240947   -2.2738303   -2.2738303  -0.86024568   0.10042597   -2.2738303    1.4135846       128000 
  520000   0.94617141   -2.2745654   -2.2745654  -0.85533795  0.099556893   -2.2745654    1.4192274       128000 
  521000   0.94950076   -2.2695379   -2.2695379  -0.84531658   0.10471939   -2.2695379    1.4242213       128000 
  522000   0.94702908   -2.2674413   -2.2674413   -0.8469274  0.097211977   -2.2674413    1.4205139       128000 
  523000   0.94767383   -2.2703702   -2.2703702  -0.84888917   0.08717727   -2.2703702     1.421481       128000 
  524000   0.94382638   -2.2659338   -2.2659338  -0.85022385  0.090147357   -2.2659338    1.4157099       128000 
  525000   0.94509903   -2.2690081   -2.2690081  -0.85138921   0.10519287   -2.2690081    1.4176189       128000 
  526000   0.94908744    -2.265659    -2.265659  -0.84205769  0.097405306    -2.265659    1.4236014       128000 
  527000   0.95011102   -2.2670174   -2.2670174  -0.84188073  0.096388378   -2.2670174    1.4251367       128000 
  528000   0.94485582     -2.27096     -2.27096  -0.85370596   0.09681432     -2.27096    1.4172541       128000 
  529000    0.9524757   -2.2729475   -2.2729475  -0.84426384   0.10664044   -2.2729475    1.4286836       128000 
  530000   0.94443092   -2.2636171   -2.2636171  -0.84700039  0.096470001   -2.2636171    1.4166167       128000 
  531000   0.94343623   -2.2702573   -2.2702573  -0.85513261  0.083960908   -2.2702573    1.4151247       128000 
  532000   0.94931191   -2.2729436   -2.2729436   -0.8490055  0.089857868   -2.2729436    1.4239381       128000 
  533000   0.94946886    -2.278872    -2.278872   -0.8546985  0.090505667    -2.278872    1.4241735       128000 
  534000   0.94382732   -2.2708615   -2.2708615  -0.85515019   0.08295278   -2.2708615    1.4157114       128000 
  535000   0.94393718   -2.2776377   -2.2776377  -0.86176156  0.096784765   -2.2776377    1.4158761       128000 
  536000    0.9422526     -2.27543     -2.27543  -0.86208072  0.096028465     -2.27543    1.4133493       128000 
  537000   0.95037584   -2.2800177   -2.2800177  -0.85448376     0.103427   -2.2800177    1.4255339       128000 
  538000   0.94447504   -2.2700545   -2.2700545  -0.85337163   0.08854174   -2.2700545    1.4166829       128000 
  539000   0.94918368   -2.2685892   -2.2685892  -0.84484349  0.092308327   -2.2685892    1.4237457       128000 
  540000    0.9510166   -2.2693163   -2.2693163  -0.84282128  0.081276406   -2.2693163     1.426495       128000 
  541000   0.94876431    -2.273566    -2.273566  -0.85044936   0.09766897    -2.273566    1.4231167       128000 
  542000   0.94976062    -2.279022    -2.279022  -0.85441093   0.10007743    -2.279022    1.4246111       128000 
  543000   0.94446058    -2.270136    -2.270136  -0.85347484  0.093425445    -2.270136    1.4166612       128000 
  544000   0.94157388   -2.2616464   -2.2616464  -0.84931512  0.086223779   -2.2616464    1.4123313       128000 
  545000    0.9434431   -2.2639934   -2.2639934  -0.84885836   0.10059798   -2.2639934     1.415135       128000 
  546000   0.94372015   -2.2565619   -2.2565619  -0.84101132  0.089187345   -2.2565619    1.4155506       128000 
  547000   0.94712526   -2.2635934   -2.2635934  -0.84293522  0.097799591   -2.2635934    1.4206582       128000 
  548000   0.94363638   -2.2704178   -2.2704178  -0.85499283  0.080055826   -2.2704178    1.4154249       128000 
  549000   0.94048469   -2.2582325   -2.2582325    -0.847535   0.10718707   -2.2582325    1.4106975       128000 
  550000   0.94483564   -2.2694863   -2.2694863  -0.85226251  0.085308711   -2.2694863    1.4172238       128000 
  551000   0.95096321   -2.2684397   -2.2684397   -0.8420247  0.094066536   -2.2684397     1.426415       128000 
  552000   0.94586385   -2.2662435   -2.2662435  -0.84747738  0.085666518   -2.2662435    1.4187661       128000 
  553000   0.94623106   -2.2681102   -2.2681102  -0.84879333  0.086082833   -2.2681102    1.4193169       128000 
  554000    0.9439012   -2.2633202   -2.2633202  -0.84749804  0.093563057   -2.2633202    1.4158222       128000 
  555000   0.94790885    -2.271458    -2.271458  -0.84962445  0.094236159    -2.271458    1.4218335       128000 
  556000    0.9462413   -2.2797407   -2.2797407  -0.86040849  0.079419777   -2.2797407    1.4193322       128000 
  557000   0.94244563   -2.2681396   -2.2681396   -0.8545008   0.10281718   -2.2681396    1.4136388       128000 
  558000   0.94569926    -2.272927    -2.272927  -0.85440779  0.094979302    -2.272927    1.4185192       128000 
  559000    0.9408521   -2.2711831   -2.2711831  -0.85993448  0.082466941   -2.2711831    1.4112486       128000 
  560000   0.94725884   -2.2776609   -2.2776609  -0.85680239  0.077920405   -2.2776609    1.4208585       128000 
  561000   0.94264001   -2.2728779   -2.2728779  -0.85894752   0.10097471   -2.2728779    1.4139304       128000 
  562000   0.94437283   -2.2729577   -2.2729577  -0.85642815  0.091742881   -2.2729577    1.4165296       128000 
  563000   0.94106004   -2.2711855   -2.2711855  -0.85962502    0.1130063   -2.2711855    1.4115605       128000 
  564000   0.94207118   -2.2759538   -2.2759538  -0.86287666  0.090541064   -2.2759538    1.4130772       128000 
  565000   0.94568592   -2.2811282   -2.2811282  -0.86262901  0.086156999   -2.2811282    1.4184992       128000 
  566000   0.94291002   -2.2760433   -2.2760433  -0.86170783  0.093290238   -2.2760433    1.4143354       128000 
  567000   0.94385249   -2.2841409   -2.2841409  -0.86839176   0.10144991   -2.2841409    1.4157491       128000 
  568000   0.94100396   -2.2741706   -2.2741706  -0.86269416  0.092456704   -2.2741706    1.4114764       128000 
  569000    0.9392144   -2.2678788   -2.2678788  -0.85908665  0.097802143   -2.2678788    1.4087921       128000 
  570000   0.94206225   -2.2746705   -2.2746705  -0.86160674  0.088738067   -2.2746705    1.4130638       128000 
  571000   0.94299571   -2.2836917   -2.2836917  -0.86922773  0.089247066   -2.2836917     1.414464       128000 
  572000   0.93397577    -2.277946    -2.277946  -0.87701172  0.082277529    -2.277946    1.4009343       128000 
  573000   0.93962987   -2.2890698   -2.2890698  -0.87965454  0.083608454   -2.2890698    1.4094153       128000 
  574000   0.93601792   -2.2839145   -2.2839145  -0.87991704  0.081269291   -2.2839145    1.4039975       128000 
  575000   0.93931327   -2.2914622   -2.2914622  -0.88252177  0.096863592   -2.2914622    1.4089404       128000 
  576000   0.94033016    -2.293566    -2.293566  -0.88310033  0.097258523    -2.293566    1.4104657       128000 
  577000    0.9352861   -2.2822169   -2.2822169  -0.87931712  0.087037322   -2.2822169    1.4028998       128000 
  578000   0.94064758   -2.2942078   -2.2942078  -0.88326592  0.098055511   -2.2942078    1.4109418       128000 
  579000   0.93641291   -2.2944921   -2.2944921  -0.88990209  0.078002182   -2.2944921      1.40459       128000 
  580000   0.93983181   -2.2937035   -2.2937035  -0.88398527  0.091574948   -2.2937035    1.4097182       128000 
  581000   0.93888674   -2.2911757   -2.2911757  -0.88287502  0.079767056   -2.2911757    1.4083006       128000 
  582000   0.93853563   -2.2868622   -2.2868622  -0.87908825  0.086025355   -2.2868622     1.407774       128000 
  583000    0.9449706   -2.2909252   -2.2909252  -0.87349897  0.095660772   -2.2909252    1.4174262       128000 
  584000   0.93824716   -2.2842318   -2.2842318  -0.87689053  0.074825216   -2.2842318    1.4073413       128000 
  585000   0.94053593   -2.2876453   -2.2876453   -0.8768709  0.090358327   -2.2876453    1.4107744       128000 
  586000   0.94431175   -2.2913123   -2.2913123  -0.87487437  0.081733317   -2.2913123     1.416438       128000 
  587000   0.94794763   -2.2934395   -2.2934395  -0.87154782  0.095952642   -2.2934395    1.4218917       128000 
  588000    0.9376134   -2.2842581   -2.2842581  -0.87786745   0.10079873   -2.2842581    1.4063907       128000 
  589000   0.94464909   -2.2792558   -2.2792558   -0.8623118    0.1023824   -2.2792558     1.416944       128000 
  590000   0.94275262   -2.2866161   -2.2866161  -0.87251672  0.084280781   -2.2866161    1.4140993       128000 
  591000    0.9402408   -2.2766139   -2.2766139   -0.8662822  0.095847928   -2.2766139    1.4103317       128000 
  592000   0.94601686   -2.2822435   -2.2822435  -0.86324787  0.083683872   -2.2822435    1.4189956       128000 
  593000    0.9447519   -2.2773934   -2.2773934  -0.86029517  0.095981259   -2.2773934    1.4170982       128000 
  594000    0.9374694   -2.2757038   -2.2757038  -0.86952913  0.084081874   -2.2757038    1.4061747       128000 
  595000   0.93880319   -2.2775146   -2.2775146  -0.86933926   0.10395594   -2.2775146    1.4081753       128000 
  596000   0.94202624   -2.2786899   -2.2786899  -0.86568009  0.086479722   -2.2786899    1.4130098       128000 
  597000   0.94270527   -2.2802783   -2.2802783  -0.86625004  0.086935756   -2.2802783    1.4140283       128000 
  598000   0.94190417   -2.2793811   -2.2793811  -0.86655439   0.10012269   -2.2793811    1.4128267       128000 
  599000   0.93651323   -2.2787618   -2.2787618  -0.87402139  0.089858674   -2.2787618    1.4047404       128000 
  600000   0.93874281   -2.2869477   -2.2869477  -0.87886292  0.081243841   -2.2869477    1.4080847       128000 
  601000   0.94570529   -2.2877985   -2.2877985  -0.86927022  0.091209251   -2.2877985    1.4185282       128000 
  602000    0.9438466   -2.2882964   -2.2882964  -0.87255617  0.078619359   -2.2882964    1.4157403       128000 
  603000   0.94522547   -2.2861245   -2.2861245  -0.86831597    0.0794875   -2.2861245    1.4178085       128000 
  604000    0.9393823   -2.2832164   -2.2832164  -0.87417242   0.08879473   -2.2832164     1.409044       128000 
  605000   0.94261212   -2.2849253   -2.2849253  -0.87103674  0.095068707   -2.2849253    1.4138886       128000 
  606000   0.93684784   -2.2833066   -2.2833066  -0.87806427  0.089471327   -2.2833066    1.4052423       128000 
  607000   0.93911763   -2.2905779   -2.2905779  -0.88193093  0.086719889   -2.2905779     1.408647       128000 
  608000   0.94440475   -2.2892119   -2.2892119  -0.87263445   0.09120274   -2.2892119    1.4165775       128000 
  609000   0.94075933     -2.29272     -2.29272  -0.88161058  0.087096706     -2.29272    1.4111095       128000 
  610000   0.93601559   -2.2869942   -2.2869942   -0.8830002  0.086852998   -2.2869942     1.403994       128000 
  611000   0.94546484   -2.2927603   -2.2927603  -0.87459274  0.097664945   -2.2927603    1.4181676       128000 
  612000   0.93976703   -2.2884419   -2.2884419  -0.87882087  0.088451805   -2.2884419     1.409621       128000 
  613000   0.93639035   -2.2907156   -2.2907156  -0.88615949  0.086348898   -2.2907156    1.4045561       128000 
  614000   0.93996843   -2.2938265   -2.2938265   -0.8839034  0.073526297   -2.2938265    1.4099231       128000 
  615000   0.93795886   -2.2847027   -2.2847027  -0.87779383   0.10044521   -2.2847027    1.4069088       128000 
  616000   0.93554256   -2.2871954   -2.2871954  -0.88391098  0.087678594   -2.2871954    1.4032845       128000 
  617000   0.93596523   -2.2875269   -2.2875269  -0.88360839  0.079889018   -2.2875269    1.4039185       128000 
  618000   0.93572201   -2.2806538   -2.2806538  -0.87710016  0.096418709   -2.2806538    1.4035536       128000 
  619000   0.93287723   -2.2785227   -2.2785227  -0.87923616  0.087419314   -2.2785227    1.3992865       128000 
  620000   0.93654116   -2.2904571   -2.2904571  -0.88567472  0.084708523   -2.2904571    1.4047823       128000 
  621000   0.94235283   -2.2917003   -2.2917003  -0.87820063  0.088828089   -2.2917003    1.4134997       128000 
  622000   0.93463791    -2.286386    -2.286386  -0.88445853  0.076775748    -2.286386    1.4019275       128000 
  623000   0.93759614   -2.2840093   -2.2840093  -0.87764452  0.091590353   -2.2840093    1.4063648       128000 
  624000   0.93822124    -2.287411    -2.287411  -0.88010864  0.086948287    -2.287411    1.4073024       128000 
  625000   0.93829744   -2.2935579   -2.2935579  -0.88614119  0.092047291   -2.2935579    1.4074167       128000 
  626000   0.93858349   -2.2919569   -2.2919569  -0.88411111  0.080652945   -2.2919569    1.4078458       128000 
  627000   0.93581919   -2.2910864   -2.2910864  -0.88738705  0.081415918   -2.2910864    1.4036994       128000 
  628000   0.93985676   -2.2958216   -2.2958216  -0.88606597  0.075192273   -2.2958216    1.4097556       128000 
  629000   0.94020042   -2.2988619   -2.2988619  -0.88859077  0.082795918   -2.2988619    1.4102711       128000 
  630000   0.94109959   -2.3007828   -2.3007828  -0.88916295  0.083684875   -2.3007828    1.4116198       128000 
  631000   0.93473546   -2.2907668   -2.2907668  -0.88869295  0.085748797   -2.2907668    1.4020738       128000 
  632000   0.93853369   -2.2957004   -2.2957004  -0.88792937   0.08608387   -2.2957004    1.4077711       128000 
  633000   0.93652829   -2.2948109   -2.2948109  -0.89004788  0.098939904   -2.2948109     1.404763       128000 
  634000    0.9425151   -2.3025015   -2.3025015  -0.88875847  0.085314573   -2.3025015    1.4137431       128000 
  635000   0.94878598    -2.304602    -2.304602  -0.88145285  0.090860374    -2.304602    1.4231492       128000 
  636000   0.94154181    -2.304572    -2.304572  -0.89228882  0.089721969    -2.304572    1.4122832       128000 
  637000   0.93653111   -2.3039636   -2.3039636  -0.89919633  0.077607679   -2.3039636    1.4047673       128000 
  638000   0.93207186   -2.2984057   -2.2984057  -0.90032717  0.087359137   -2.2984057    1.3980785       128000 
  639000   0.93256946   -2.3019398   -2.3019398  -0.90311484   0.08096434   -2.3019398    1.3988249       128000 
  640000   0.94000378    -2.318824    -2.318824  -0.90884787  0.061845804    -2.318824    1.4099762       128000 
  641000   0.93435254   -2.3066417   -2.3066417   -0.9051422  0.075679908   -2.3066417    1.4014995       128000 
  642000   0.93276734   -2.3063987   -2.3063987  -0.90727693  0.094794779   -2.3063987    1.3991217       128000 
  643000   0.93544842   -2.3019345   -2.3019345  -0.89879128   0.08260443   -2.3019345    1.4031433       128000 
  644000   0.93790604   -2.3065939   -2.3065939  -0.89976425  0.089463088   -2.3065939    1.4068296       128000 
  645000   0.93656554   -2.3034463   -2.3034463  -0.89862742   0.10097465   -2.3034463    1.4048189       128000 
  646000   0.93510231   -2.3062969   -2.3062969  -0.90367275  0.073130217   -2.3062969    1.4026241       128000 
  647000   0.93956912   -2.3049863   -2.3049863  -0.89566208  0.092557337   -2.3049863    1.4093242       128000 
  648000   0.93521215   -2.3045295   -2.3045295  -0.90174059  0.085079755   -2.3045295    1.4027889       128000 
  649000   0.93361458   -2.3014132   -2.3014132  -0.90102065  0.089034516   -2.3014132    1.4003926       128000 
  650000   0.93381256     -2.30496     -2.30496  -0.90427048  0.092866858     -2.30496    1.4006895       128000 
  651000   0.93184848   -2.3052916   -2.3052916  -0.90754818  0.083243819   -2.3052916    1.3977435       128000 
  652000   0.93377025   -2.3058413   -2.3058413  -0.90521527  0.089388542   -2.3058413    1.4006261       128000 
  653000   0.93056357    -2.302866    -2.302866  -0.90704983   0.08222006    -2.302866    1.3958161       128000 
  654000   0.93412836   -2.3064478   -2.3064478  -0.90528459  0.085979143   -2.3064478    1.4011632       128000 
  655000   0.92886874   -2.3080768   -2.3080768  -0.91480283  0.092059285   -2.3080768    1.3932739       128000 
  656000   0.93746723   -2.3153795   -2.3153795  -0.90920806  0.080060006   -2.3153795    1.4061714       128000 
  657000   0.93387302   -2.3032936   -2.3032936  -0.90251342  0.092391592   -2.3032936    1.4007802       128000 
  658000   0.94081268   -2.3121826   -2.3121826  -0.90099309  0.092469077   -2.3121826    1.4111895       128000 
  659000   0.93296539   -2.2996245   -2.2996245  -0.90020574  0.082307763   -2.2996245    1.3994188       128000 
  660000    0.9389237   -2.3087443   -2.3087443  -0.90038825  0.088518696   -2.3087443    1.4083561       128000 
  661000   0.93819302    -2.310434    -2.310434  -0.90317395  0.086462471    -2.310434    1.4072601       128000 
  662000   0.93045051   -2.3153871   -2.3153871  -0.91974053  0.081833034   -2.3153871    1.3956465       128000 
  663000   0.92829625   -2.3143132   -2.3143132  -0.92189795  0.094125452   -2.3143132    1.3924152       128000 
  664000   0.92945515   -2.3105863   -2.3105863  -0.91643275  0.084316387   -2.3105863    1.3941535       128000 
  665000   0.93094174   -2.3100419   -2.3100419  -0.91365849  0.088155608   -2.3100419    1.3963834       128000 
  666000    0.9281105   -2.3137744   -2.3137744   -0.9216378  0.073707698   -2.3137744    1.3921366       128000 
  667000   0.93567678   -2.3208528   -2.3208528  -0.91736704  0.074983964   -2.3208528    1.4034858       128000 
  668000   0.93063118   -2.3132103   -2.3132103  -0.91729275  0.087909162   -2.3132103    1.3959176       128000 
  669000   0.93087931   -2.3074238   -2.3074238  -0.91113411  0.083195149   -2.3074238    1.3962897       128000 
  670000    0.9352135   -2.3139454   -2.3139454  -0.91115452  0.089638739   -2.3139454    1.4027909       128000 
  671000   0.93411646   -2.3182871   -2.3182871  -0.91714173  0.087469706   -2.3182871    1.4011454       128000 
  672000   0.93909445    -2.324196    -2.324196   -0.9155838   0.09270059    -2.324196    1.4086122       128000 
  673000   0.93558603   -2.3323265   -2.3323265  -0.92897686  0.080925551   -2.3323265    1.4033497       128000 
  674000   0.92902117   -2.3171904   -2.3171904  -0.92368782   0.08607483   -2.3171904    1.3935026       128000 
  675000   0.93491896   -2.3242822   -2.3242822  -0.92193311  0.083224396   -2.3242822    1.4023491       128000 
  676000    0.9286006   -2.3180969   -2.3180969  -0.92522514  0.092829413   -2.3180969    1.3928717       128000 
  677000   0.93790122   -2.3293657   -2.3293657  -0.92254334  0.091803649   -2.3293657    1.4068224       128000 
  678000   0.93814273   -2.3288848   -2.3288848  -0.92170012  0.090083808   -2.3288848    1.4071846       128000 
  679000   0.93177918   -2.3258871   -2.3258871  -0.92824762  0.085326175   -2.3258871    1.3976395       128000 
  680000    0.9281492   -2.3280548   -2.3280548  -0.93586011  0.080344926   -2.3280548    1.3921947       128000 
  681000    0.9284824    -2.325782    -2.325782  -0.93308753  0.079054954    -2.325782    1.3926944       128000 
  682000    0.9319541   -2.3289399   -2.3289399  -0.93103801  0.085965738   -2.3289399    1.3979019       128000 
  683000   0.93419895   -2.3298542   -2.3298542   -0.9285851  0.087785629   -2.3298542    1.4012691       128000 
  684000   0.93081358   -2.3344073   -2.3344073  -0.93821619    0.0807573   -2.3344073    1.3961912       128000 
  685000   0.92502846   -2.3395572   -2.3395572  -0.95204352   0.08329065   -2.3395572    1.3875137       128000 
  686000   0.92929736   -2.3418958   -2.3418958  -0.94797898   0.08065481   -2.3418958    1.3939169       128000 
  687000   0.93033301   -2.3409406   -2.3409406  -0.94547028  0.073844995   -2.3409406    1.3954703       128000 
  688000    0.9269956   -2.3348864   -2.3348864  -0.94442208  0.084284761   -2.3348864    1.3904643       128000 
  689000   0.93158558   -2.3392216   -2.3392216  -0.94187253  0.078151614   -2.3392216    1.3973491       128000 
  690000    0.9307853   -2.3350628   -2.3350628  -0.93891413  0.094057415   -2.3350628    1.3961487       128000 
  691000   0.92620971   -2.3332729   -2.3332729  -0.94398739  0.088807137   -2.3332729    1.3892855       128000 
  692000   0.92677213   -2.3439961   -2.3439961  -0.95386704  0.085404011   -2.3439961    1.3901291       128000 
  693000   0.92625909   -2.3423039   -2.3423039  -0.95294433  0.085567844   -2.3423039    1.3893595       128000 
  694000   0.92676225   -2.3382565   -2.3382565  -0.94814224  0.077310692   -2.3382565    1.3901143       128000 
  695000    0.9221149   -2.3392839   -2.3392839  -0.95614048  0.092211974   -2.3392839    1.3831434       128000 
  696000   0.93004143   -2.3446794   -2.3446794  -0.94964646  0.082279003   -2.3446794    1.3950329       128000 
  697000   0.92657568   -2.3403279   -2.3403279  -0.95049344  0.080975461   -2.3403279    1.3898344       128000 
  698000   0.92498974   -2.3468204   -2.3468204  -0.95936486  0.084719074   -2.3468204    1.3874556       128000 
  699000   0.92398224   -2.3474089   -2.3474089  -0.96146454  0.083407495   -2.3474089    1.3859443       128000 
  700000   0.92819204   -2.3514915   -2.3514915  -0.95923258  0.084645239   -2.3514915    1.3922589       128000 
  701000   0.93317585   -2.3548892   -2.3548892  -0.95515473  0.091019655   -2.3548892    1.3997345       128000 
  702000   0.93156836   -2.3585492   -2.3585492  -0.96122595  0.075811328   -2.3585492    1.3973233       128000 
  703000   0.93325462   -2.3587644   -2.3587644  -0.95891178  0.073883078   -2.3587644    1.3998526       128000 
  704000   0.92898389   -2.3575305   -2.3575305  -0.96408388  0.084165865   -2.3575305    1.3934467       128000 
  705000   0.93331248   -2.3602386   -2.3602386  -0.96029919  0.083748661   -2.3602386    1.3999394       128000 
  706000   0.92364493   -2.3516715   -2.3516715  -0.96623312  0.083036404   -2.3516715    1.3854384       128000 
  707000   0.92486888   -2.3467663   -2.3467663    -0.959492  0.079046817   -2.3467663    1.3872743       128000 
  708000   0.92642691   -2.3611425   -2.3611425  -0.97153123  0.068248721   -2.3611425    1.3896113       128000 
  709000   0.92700729   -2.3510252   -2.3510252  -0.96054342  0.070103376   -2.3510252    1.3904818       128000 
  710000    0.9276605   -2.3518704   -2.3518704  -0.96040878  0.082086825   -2.3518704    1.3914616       128000 
  711000   0.93051713   -2.3564163   -2.3564163  -0.96066981  0.078267011   -2.3564163    1.3957465       128000 
  712000   0.93184512    -2.353431    -2.353431  -0.95569258  0.080269072    -2.353431    1.3977384       128000 
  713000   0.92781661   -2.3504053   -2.3504053  -0.95870948  0.093191332   -2.3504053    1.3916958       128000 
  714000   0.92584057   -2.3557658   -2.3557658  -0.96703405   0.08288883   -2.3557658    1.3887318       128000 
  715000   0.92652992   -2.3572691   -2.3572691  -0.96750336  0.075597068   -2.3572691    1.3897658       128000 
  716000   0.92909234   -2.3589194   -2.3589194  -0.96531004  0.082551844   -2.3589194    1.3936093       128000 
  717000   0.92705814   -2.3559224   -2.3559224   -0.9653643  0.080803725   -2.3559224    1.3905581       128000 
  718000   0.92896783   -2.3533789   -2.3533789  -0.95995627  0.082055355   -2.3533789    1.3934226       128000 
  719000   0.93202006   -2.3521845   -2.3521845  -0.95418365   0.09105542   -2.3521845    1.3980008       128000 
  720000   0.93108368   -2.3595998   -2.3595998  -0.96300346  0.068968354   -2.3595998    1.3965963       128000 
  721000   0.92913958   -2.3624025   -2.3624025  -0.96872227  0.087238817   -2.3624025    1.3936802       128000 
  722000   0.92777754   -2.3606894   -2.3606894  -0.96905224  0.095101595   -2.3606894    1.3916372       128000 
  723000    0.9318266    -2.368579    -2.368579  -0.97086837  0.089634036    -2.368579    1.3977106       128000 
  724000   0.93026824   -2.3695098   -2.3695098  -0.97413665  0.084455741   -2.3695098    1.3953732       128000 
  725000   0.92536926   -2.3705852   -2.3705852   -0.9825604  0.075171079   -2.3705852    1.3880248       128000 
  726000   0.92972888   -2.3750083   -2.3750083  -0.98044412  0.080772439   -2.3750083    1.3945641       128000 
  727000   0.93156201       -2.371       -2.371  -0.97368621  0.097419329       -2.371    1.3973138       128000 
  728000   0.92844565    -2.367123    -2.367123  -0.97448368   0.08571191    -2.367123    1.3926393       128000 
  729000   0.93313636   -2.3707307   -2.3707307  -0.97105543  0.081019686   -2.3707307    1.3996752       128000 
  730000   0.93026489   -2.3648998   -2.3648998  -0.96953172  0.092954228   -2.3648998    1.3953681       128000 
  731000   0.92782017   -2.3588706   -2.3588706  -0.96716945  0.085136719   -2.3588706    1.3917011       128000 
  732000   0.92933485   -2.3653628   -2.3653628   -0.9713897  0.073056523   -2.3653628    1.3939731       128000 
  733000   0.92713655   -2.3580755   -2.3580755  -0.96739979  0.093464518   -2.3580755    1.3906757       128000 
  734000   0.92916938   -2.3761331   -2.3761331  -0.98240824  0.081808162   -2.3761331    1.3937249       128000 
  735000   0.92279544   -2.3661529   -2.3661529  -0.98198875   0.07242378   -2.3661529    1.3841642       128000 
  736000   0.92214995    -2.367574    -2.367574  -0.98437802  0.081574852    -2.367574     1.383196       128000 
  737000   0.92289389   -2.3621268   -2.3621268   -0.9778149  0.079902367   -2.3621268    1.3843119       128000 
  738000   0.92433927   -2.3612771   -2.3612771  -0.97479717  0.086598659   -2.3612771    1.3864799       128000 
  739000   0.92846695   -2.3679379   -2.3679379  -0.97526665  0.081731347   -2.3679379    1.3926713       128000 
  740000   0.92755261   -2.3661973   -2.3661973  -0.97489756  0.087326809   -2.3661973    1.3912998       128000 
  741000   0.92221676   -2.3713256   -2.3713256  -0.98802947  0.078860486   -2.3713256    1.3832962       128000 
  742000   0.92332668   -2.3747532   -2.3747532   -0.9897922  0.065226335   -2.3747532     1.384961       128000 
  743000    0.9187887   -2.3703949   -2.3703949  -0.99224073  0.069875797   -2.3703949    1.3781542       128000 
  744000   0.92703204    -2.372295    -2.372295  -0.98177601  0.092994185    -2.372295     1.390519       128000 
  745000   0.92648739   -2.3639198   -2.3639198  -0.97421783  0.088934469   -2.3639198     1.389702       128000 
  746000   0.92093693   -2.3603481   -2.3603481  -0.97897158  0.087244864   -2.3603481    1.3813765       128000 
  747000   0.92242179   -2.3701122   -2.3701122  -0.98650843  0.075606603   -2.3701122    1.3836037       128000 
  748000   0.92259589    -2.375359    -2.375359  -0.99149416  0.086599728    -2.375359    1.3838649       128000 
  749000   0.92139944   -2.3756175   -2.3756175  -0.99354732  0.079759689   -2.3756175    1.3820702       128000 
  750000   0.92181984    -2.377541    -2.377541  -0.99484015   0.08020151    -2.377541    1.3827008       128000 
  751000   0.92444831   -2.3719545   -2.3719545  -0.98531108  0.087087153   -2.3719545    1.3866434       128000 
  752000   0.92498358   -2.3753726   -2.3753726  -0.98792624  0.094938665   -2.3753726    1.3874463       128000 
  753000   0.92120557   -2.3776364   -2.3776364  -0.99585696   0.07522983   -2.3776364    1.3817794       128000 
  754000   0.92224927   -2.3690715   -2.3690715  -0.98572656  0.076500818   -2.3690715    1.3833449       128000 
  755000   0.91745962   -2.3657831   -2.3657831  -0.98962242  0.071671589   -2.3657831    1.3761606       128000 
  756000   0.92454984   -2.3714092   -2.3714092  -0.98461344  0.073673737   -2.3714092    1.3867957       128000 
  757000   0.92167237   -2.3682682   -2.3682682  -0.98578857  0.082471041   -2.3682682    1.3824796       128000 
  758000   0.91827871   -2.3651507   -2.3651507  -0.98776147  0.088730744   -2.3651507    1.3773892       128000 
  759000   0.92338671   -2.3741767   -2.3741767  -0.98912564  0.084702092   -2.3741767    1.3850511       128000 
  760000   0.92660889   -2.3787474   -2.3787474  -0.98886317  0.069323871   -2.3787474    1.3898842       128000 
  761000   0.92685713   -2.3811823   -2.3811823  -0.99092571  0.089292149   -2.3811823    1.3902566       128000 
  762000   0.92360465   -2.3760143   -2.3760143  -0.99063633  0.077382027   -2.3760143     1.385378       128000 
  763000   0.92261801   -2.3785277   -2.3785277  -0.99462967  0.094360001   -2.3785277     1.383898       128000 
  764000   0.92146119   -2.3870219   -2.3870219   -1.0048591  0.069991925   -2.3870219    1.3821628       128000 
  765000    0.9252797   -2.3950745   -2.3950745    -1.007184  0.075447252   -2.3950745    1.3878905       128000 
  766000   0.92089755   -2.3915621   -2.3915621   -1.0102447  0.076561597   -2.3915621    1.3813174       128000 
  767000    0.9191145   -2.3892159   -2.3892159    -1.010573  0.073105569   -2.3892159    1.3786429       128000 
  768000   0.92230752   -2.3906018   -2.3906018   -1.0071694  0.076313522   -2.3906018    1.3834323       128000 
  769000   0.92190056   -2.3846046   -2.3846046   -1.0017827  0.091243686   -2.3846046    1.3828219       128000 
  770000   0.92419126   -2.3877277   -2.3877277   -1.0014698  0.073951866   -2.3877277    1.3862579       128000 
  771000   0.92689472    -2.381648    -2.381648  -0.99133498  0.080823522    -2.381648     1.390313       128000 
  772000   0.92375225   -2.3797695   -2.3797695  -0.99417015  0.092036732   -2.3797695    1.3855994       128000 
  773000   0.91651132   -2.3807718   -2.3807718   -1.0060336  0.084698795   -2.3807718    1.3747382       128000 
  774000   0.92332705   -2.3924308   -2.3924308   -1.0074693  0.084902788   -2.3924308    1.3849616       128000 
  775000   0.91538204   -2.3911504   -2.3911504   -1.0181061  0.074884843   -2.3911504    1.3730443       128000 
  776000   0.92224114   -2.3933326   -2.3933326   -1.0099999  0.080833028   -2.3933326    1.3833328       128000 
  777000   0.92543923   -2.4001618   -2.4001618    -1.012032  0.073986846   -2.4001618    1.3881298       128000 
  778000   0.92961447    -2.403856    -2.403856   -1.0094634  0.075522136    -2.403856    1.3943925       128000 
  779000   0.92069196   -2.4006284   -2.4006284   -1.0196193  0.080171225   -2.4006284     1.381009       128000 
  780000   0.91959964   -2.3982086   -2.3982086    -1.018838  0.089268272   -2.3982086    1.3793706       128000 
  781000   0.92047687   -2.3990227   -2.3990227   -1.0183363  0.072670904   -2.3990227    1.3806864       128000 
  782000   0.91626627   -2.3981298   -2.3981298   -1.0237591  0.070029491   -2.3981298    1.3743706       128000 
  783000   0.92252787   -2.3941115   -2.3941115   -1.0103486  0.066929699   -2.3941115    1.3837628       128000 
  784000   0.92463209   -2.3982876   -2.3982876   -1.0113685  0.069828596   -2.3982876    1.3869191       128000 
  785000   0.92718218   -2.4002116   -2.4002116   -1.0094674  0.080879356   -2.4002116    1.3907442       128000 
  786000   0.92175059   -2.4003453   -2.4003453   -1.0177483  0.078576621   -2.4003453    1.3825969       128000 
  787000   0.92119973    -2.395872    -2.395872   -1.0141013  0.093733002    -2.395872    1.3817707       128000 
  788000   0.91969256   -2.4002931   -2.4002931   -1.0207832   0.07485295   -2.4002931      1.37951       128000 
  789000   0.91599723    -2.398348    -2.398348   -1.0243809  0.079952812    -2.398348    1.3739671       128000 
  790000   0.91529338   -2.3992865   -2.3992865   -1.0263752  0.076908017   -2.3992865    1.3729113       128000 
  791000   0.92307716   -2.4085894   -2.4085894   -1.0240027  0.076982853   -2.4085894    1.3845868       128000 
  792000    0.9271824   -2.4052214   -2.4052214   -1.0144769   0.08398899   -2.4052214    1.3907445       128000 
  793000   0.92707164   -2.4091666   -2.4091666   -1.0185882  0.090445067   -2.4091666    1.3905784       128000 
  794000   0.93131239    -2.411063    -2.411063   -1.0141236  0.066877007    -2.411063    1.3969393       128000 
  795000   0.91746505   -2.4066261   -2.4066261   -1.0304573  0.066271326   -2.4066261    1.3761688       128000 
  796000   0.91709505   -2.4048861   -2.4048861   -1.0292724  0.079332209   -2.4048861    1.3756138       128000 
  797000   0.92255961   -2.4114754   -2.4114754   -1.0276649  0.079802913   -2.4114754    1.3838104       128000 
  798000   0.92052484   -2.4140079   -2.4140079   -1.0332495  0.075782972   -2.4140079    1.3807584       128000 
  799000   0.92463381   -2.4245107   -2.4245107    -1.037589  0.068712989   -2.4245107    1.3869217       128000 
  800000   0.92207553   -2.4210563   -2.4210563   -1.0379719  0.071615184   -2.4210563    1.3830844       128000 
  801000   0.91964654   -2.4208394   -2.4208394   -1.0413984  0.077189053   -2.4208394    1.3794409       128000 
  802000   0.92429537   -2.4212655   -2.4212655   -1.0348515  0.077938585   -2.4212655     1.386414       128000 
  803000      0.91767   -2.4106034   -2.4106034   -1.0341272  0.077744722   -2.4106034    1.3764762       128000 
  804000   0.91718419   -2.4113349   -2.4113349   -1.0355874  0.078715251   -2.4113349    1.3757475       128000 
  805000   0.92280197      -2.4206      -2.4206    -1.036426  0.076838625      -2.4206     1.384174       128000 
  806000   0.91679992   -2.4164461   -2.4164461    -1.041275   0.08068852   -2.4164461    1.3751711       128000 
  807000   0.91284708   -2.4148472   -2.4148472   -1.0456053  0.066688368   -2.4148472     1.369242       128000 
  808000   0.91324761   -2.4225865   -2.4225865   -1.0527438  0.067812875   -2.4225865    1.3698427       128000 
  809000   0.91386649   -2.4280658   -2.4280658   -1.0572948  0.071664856   -2.4280658     1.370771       128000 
  810000   0.91311504   -2.4170247   -2.4170247   -1.0473808  0.077967208   -2.4170247    1.3696439       128000 
  811000   0.91356893   -2.4229934   -2.4229934   -1.0526687  0.072392649   -2.4229934    1.3703247       128000 
  812000   0.91291761   -2.4130336   -2.4130336   -1.0436858  0.078449047   -2.4130336    1.3693477       128000 
  813000   0.91870876   -2.4159802   -2.4159802   -1.0379459  0.074181969   -2.4159802    1.3780343       128000 
  814000   0.91697803   -2.4200716   -2.4200716   -1.0446333  0.075013898   -2.4200716    1.3754383       128000 
  815000    0.9150427   -2.4234348   -2.4234348   -1.0508994  0.074429518   -2.4234348    1.3725353       128000 
  816000   0.92282264   -2.4250161   -2.4250161   -1.0408111  0.079752763   -2.4250161     1.384205       128000 
  817000   0.91443699    -2.419212    -2.419212   -1.0475852  0.069578338    -2.419212    1.3716268       128000 
  818000   0.91556713   -2.4180267   -2.4180267   -1.0447048  0.073564465   -2.4180267    1.3733219       128000 
  819000   0.91662578    -2.419799    -2.419799   -1.0448892  0.075246495    -2.419799    1.3749099       128000 
  820000   0.91573432   -2.4163423   -2.4163423   -1.0427696  0.072207031   -2.4163423    1.3735727       128000 
  821000   0.91517129   -2.4246913   -2.4246913   -1.0519631  0.075059398   -2.4246913    1.3727282       128000 
  822000   0.91095785   -2.4160939   -2.4160939   -1.0496857  0.084018383   -2.4160939    1.3664082       128000 
  823000   0.91737874   -2.4202333   -2.4202333    -1.044194  0.075303446   -2.4202333    1.3760393       128000 
  824000   0.91769142   -2.4192187   -2.4192187   -1.0427104  0.072136613   -2.4192187    1.3765083       128000 
  825000   0.91691477   -2.4222127   -2.4222127   -1.0468694  0.071015637   -2.4222127    1.3753434       128000 
  826000   0.91736609   -2.4260642   -2.4260642   -1.0500439  0.070391658   -2.4260642    1.3760203       128000 
  827000    0.9179584   -2.4258283   -2.4258283   -1.0489195  0.071594897   -2.4258283    1.3769088       128000 
  828000   0.91814556   -2.4173081   -2.4173081   -1.0401186  0.080880241   -2.4173081    1.3771895       128000 
  829000   0.91349798   -2.4187506   -2.4187506   -1.0485323  0.081200474   -2.4187506    1.3702183       128000 
  830000   0.91817764   -2.4193804   -2.4193804   -1.0421428  0.073790616   -2.4193804    1.3772376       128000 
  831000   0.91797474   -2.4277591   -2.4277591   -1.0508258  0.072323047   -2.4277591    1.3769333       128000 
  832000   0.91669558   -2.4262177   -2.4262177   -1.0512031  0.070280379   -2.4262177    1.3750146       128000 
  833000   0.91030105   -2.4280911   -2.4280911   -1.0626681  0.074276285   -2.4280911     1.365423       128000 
  834000   0.91300161   -2.4268175   -2.4268175   -1.0573437  0.071268312   -2.4268175    1.3694738       128000 
  835000   0.91142229    -2.426471    -2.426471   -1.0593662   0.08269209    -2.426471    1.3671048       128000 
  836000      0.91156   -2.4280484   -2.4280484    -1.060737  0.061136017   -2.4280484    1.3673114       128000 
  837000      0.91566   -2.4359402   -2.4359402   -1.0624789  0.073714441   -2.4359402    1.3734612       128000 
  838000   0.91634035   -2.4370499   -2.4370499   -1.0625681  0.077797234   -2.4370499    1.3744817       128000 
  839000   0.90925483   -2.4207502   -2.4207502   -1.0568965  0.065332109   -2.4207502    1.3638537       128000 
  840000   0.91460331   -2.4360474   -2.4360474   -1.0641711  0.072867416   -2.4360474    1.3718762       128000 
  841000   0.91332413   -2.4348071   -2.4348071   -1.0648496  0.071474342   -2.4348071    1.3699575       128000 
  842000   0.91939993   -2.4381132   -2.4381132   -1.0590422   0.06818987   -2.4381132     1.379071       128000 
  843000   0.91190261   -2.4380506   -2.4380506   -1.0702253  0.069563329   -2.4380506    1.3678253       128000 
  844000    0.9155276   -2.4404048   -2.4404048   -1.0671422  0.065830321   -2.4404048    1.3732626       128000 
  845000   0.91362378   -2.4324775   -2.4324775   -1.0620705   0.06550076   -2.4324775     1.370407       128000 
  846000   0.91655933   -2.4420562   -2.4420562    -1.067246    0.0740348   -2.4420562    1.3748102       128000 
  847000    0.9193255   -2.4485973   -2.4485973   -1.0696379  0.065413091   -2.4485973    1.3789594       128000 
  848000   0.91086206   -2.4436732   -2.4436732   -1.0774087  0.080827706   -2.4436732    1.3662645       128000 
  849000    0.9166769   -2.4468093   -2.4468093   -1.0718227  0.084800207   -2.4468093    1.3749866       128000 
  850000   0.91470827   -2.4488609   -2.4488609   -1.0768272  0.075271547   -2.4488609    1.3720337       128000 
  851000   0.91884225   -2.4546955   -2.4546955    -1.076461  0.084539428   -2.4546955    1.3782345       128000 
  852000   0.91315241   -2.4512457   -2.4512457   -1.0815457  0.070771712   -2.4512457    1.3696999       128000 
  853000   0.91259427   -2.4506793   -2.4506793   -1.0818166  0.073742453   -2.4506793    1.3688628       128000 
  854000   0.90700667   -2.4561245   -2.4561245    -1.095643  0.061812949   -2.4561245    1.3604815       128000 
  855000     0.910594   -2.4577312   -2.4577312   -1.0918688  0.088772412   -2.4577312    1.3658624       128000 
  856000   0.91221789   -2.4605431   -2.4605431    -1.092245  0.068628955   -2.4605431    1.3682982       128000 
  857000   0.90757672   -2.4571994   -2.4571994   -1.0958628  0.074588851   -2.4571994    1.3613366       128000 
  858000   0.90967935   -2.4613619   -2.4613619   -1.0968715  0.080325824   -2.4613619    1.3644905       128000 
  859000   0.91055674   -2.4586285   -2.4586285   -1.0928219  0.079343511   -2.4586285    1.3658065       128000 
  860000   0.91159286   -2.4557528   -2.4557528   -1.0883921  0.065989152   -2.4557528    1.3673607       128000 
  861000   0.91319055   -2.4585245   -2.4585245   -1.0887674  0.067954969   -2.4585245    1.3697571       128000 
  862000   0.91054802   -2.4625241   -2.4625241   -1.0967306  0.063175091   -2.4625241    1.3657934       128000 
  863000   0.90920538   -2.4641251   -2.4641251   -1.1003456  0.075069083   -2.4641251    1.3637795       128000 
  864000   0.91214114   -2.4653149   -2.4653149   -1.0971318  0.064491548   -2.4653149    1.3681831       128000 
  865000   0.90785086   -2.4660964   -2.4660964   -1.1043487  0.064226787   -2.4660964    1.3617478       128000 
  866000   0.91072834   -2.4642425   -2.4642425   -1.0981786  0.072031677   -2.4642425    1.3660639       128000 
  867000   0.90873629   -2.4694627   -2.4694627   -1.1063868  0.074761539   -2.4694627    1.3630759       128000 
  868000   0.90739961   -2.4668304   -2.4668304   -1.1057595  0.068107218   -2.4668304    1.3610709       128000 
  869000   0.91248928   -2.4654344   -2.4654344   -1.0967291  0.065073008   -2.4654344    1.3687053       128000 
  870000   0.90852438   -2.4628898   -2.4628898   -1.1001318  0.072334726   -2.4628898     1.362758       128000 
  871000   0.90690731   -2.4603573   -2.4603573   -1.1000248  0.065493664   -2.4603573    1.3603325       128000 
  872000   0.91168864   -2.4612099   -2.4612099   -1.0937056  0.077596368   -2.4612099    1.3675043       128000 
  873000   0.91188833   -2.4632798   -2.4632798    -1.095476  0.073268513   -2.4632798    1.3678039       128000 
  874000   0.90987054   -2.4499738   -2.4499738   -1.0851965  0.074957404   -2.4499738    1.3647772       128000 
  875000   0.91316084   -2.4573409   -2.4573409   -1.0876283  0.077376281   -2.4573409    1.3697126       128000 
  876000   0.91371976   -2.4589575   -2.4589575   -1.0884065  0.079144083   -2.4589575    1.3705509       128000 
  877000   0.91014865   -2.4657823   -2.4657823   -1.1005879  0.063801009   -2.4657823    1.3651944       128000 
  878000   0.90755473   -2.4569186   -2.4569186    -1.095615  0.068240701   -2.4569186    1.3613036       128000 
  879000   0.90813379   -2.4695049   -2.4695049   -1.1073328  0.060825662   -2.4695049    1.3621722       128000 
  880000   0.90718295   -2.4660765   -2.4660765   -1.1053306  0.072288884   -2.4660765    1.3607459       128000 
  881000   0.90728551   -2.4648171   -2.4648171   -1.1039174  0.071805059   -2.4648171    1.3608998       128000 
  882000   0.90462448   -2.4637648   -2.4637648   -1.1068565  0.073732841   -2.4637648    1.3569083       128000 
  883000   0.91386251   -2.4711523   -2.4711523   -1.1003872  0.067768891   -2.4711523    1.3707651       128000 
  884000   0.90964264   -2.4699145   -2.4699145   -1.1054791  0.074926971   -2.4699145    1.3644354       128000 
  885000   0.91395989   -2.4744492   -2.4744492   -1.1035381  0.064716072   -2.4744492    1.3709111       128000 
  886000   0.90942221   -2.4638639   -2.4638639   -1.0997591  0.071627913   -2.4638639    1.3641048       128000 
  887000   0.91551734   -2.4678365   -2.4678365   -1.0945893  0.074070919   -2.4678365    1.3732473       128000 
  888000   0.90792728   -2.4739686   -2.4739686   -1.1121062   0.07166193   -2.4739686    1.3618624       128000 
  889000   0.90544855   -2.4753644   -2.4753644     -1.11722  0.066450075   -2.4753644    1.3581444       128000 
  890000   0.90888412   -2.4744496   -2.4744496    -1.111152  0.075763418   -2.4744496    1.3632976       128000 
  891000   0.90713751   -2.4700955   -2.4700955   -1.1094177  0.079497314   -2.4700955    1.3606778       128000 
  892000   0.90961333    -2.469792    -2.469792   -1.1054006  0.075818398    -2.469792    1.3643914       128000 
  893000   0.91343063   -2.4744342   -2.4744342    -1.104317  0.074403902   -2.4744342    1.3701173       128000 
  894000   0.91125564   -2.4718599   -2.4718599    -1.105005  0.073091883   -2.4718599    1.3668549       128000 
  895000   0.91129421   -2.4794796   -2.4794796   -1.1125669  0.077682126   -2.4794796    1.3669127       128000 
  896000   0.90870924   -2.4818252   -2.4818252   -1.1187899  0.071323907   -2.4818252    1.3630353       128000 
  897000   0.90338651   -2.4789764   -2.4789764    -1.123925  0.074483938   -2.4789764    1.3550514       128000 
  898000   0.90082432   -2.4792335   -2.4792335   -1.1280253  0.069453405   -2.4792335    1.3512082       128000 
  899000   0.90564078   -2.4840606   -2.4840606   -1.1256279  0.062221646   -2.4840606    1.3584327       128000 
  900000   0.90574185   -2.4864151   -2.4864151   -1.1278307  0.058379553   -2.4864151    1.3585843       128000 
  901000   0.90977854   -2.4778248   -2.4778248   -1.1131856  0.071789271   -2.4778248    1.3646392       128000 
  902000   0.90801816   -2.4707508   -2.4707508   -1.1087521  0.077325507   -2.4707508    1.3619987       128000 
  903000   0.90990885   -2.4709108   -2.4709108   -1.1060761  0.064908408   -2.4709108    1.3648347       128000 
  904000   0.90604202   -2.4749231   -2.4749231   -1.1158885   0.08457439   -2.4749231    1.3590346       128000 
  905000   0.90493711   -2.4796625   -2.4796625   -1.1222852  0.058906218   -2.4796625    1.3573772       128000 
  906000    0.9013342   -2.4748634   -2.4748634   -1.1228904   0.06827031   -2.4748634     1.351973       128000 
  907000   0.90521823   -2.4806904   -2.4806904   -1.1228915  0.065524369   -2.4806904    1.3577989       128000 
  908000   0.91422749   -2.4795025   -2.4795025   -1.1081899   0.07482523   -2.4795025    1.3713125       128000 
  909000   0.90848571   -2.4809255   -2.4809255   -1.1182255  0.073516023   -2.4809255       1.3627       128000 
  910000   0.90095919   -2.4791356   -2.4791356   -1.1277251  0.072480446   -2.4791356    1.3514105       128000 
  911000   0.91121251    -2.481184    -2.481184   -1.1143938  0.059957916    -2.481184    1.3667902       128000 
  912000   0.90546016   -2.4834103   -2.4834103   -1.1252485   0.06987512   -2.4834103    1.3581618       128000 
  913000   0.90725477   -2.4828123   -2.4828123   -1.1219586   0.06829705   -2.4828123    1.3608537       128000 
  914000   0.90851408   -2.4829245   -2.4829245   -1.1201819  0.071348485   -2.4829245    1.3627426       128000 
  915000   0.91159653   -2.4949706   -2.4949706   -1.1276044  0.068192725   -2.4949706    1.3673662       128000 
  916000    0.9075813   -2.4914199   -2.4914199   -1.1300764  0.080883637   -2.4914199    1.3613435       128000 
  917000   0.90303764   -2.4844828   -2.4844828   -1.1299547  0.072991332   -2.4844828    1.3545281       128000 
  918000   0.90608166   -2.4930597   -2.4930597   -1.1339657  0.067656184   -2.4930597     1.359094       128000 
  919000   0.90311352   -2.4933526   -2.4933526   -1.1387106   0.06858033   -2.4933526    1.3546419       128000 
  920000    0.9064142   -2.4915526   -2.4915526   -1.1319598  0.066697799   -2.4915526    1.3595928       128000 
  921000   0.90642154   -2.4954655   -2.4954655   -1.1358616  0.074692228   -2.4954655    1.3596039       128000 
  922000   0.90923301   -2.4966591   -2.4966591   -1.1328381  0.075763602   -2.4966591     1.363821       128000 
  923000   0.90348652    -2.490924    -2.490924   -1.1357226  0.067356901    -2.490924    1.3552014       128000 
  924000   0.90877899    -2.489973    -2.489973    -1.126833  0.072890361    -2.489973      1.36314       128000 
  925000   0.90467397   -2.4900416   -2.4900416   -1.1330591  0.070702826   -2.4900416    1.3569826       128000 
  926000   0.90651246   -2.4963825   -2.4963825   -1.1366423  0.069426975   -2.4963825    1.3597402       128000 
  927000   0.89913079   -2.4933077   -2.4933077   -1.1446397   0.06743252   -2.4933077     1.348668       128000 
  928000   0.90473934   -2.5023591   -2.5023591   -1.1452785  0.051897785   -2.5023591    1.3570806       128000 
  929000   0.90571665   -2.5049756   -2.5049756    -1.146429   0.06402833   -2.5049756    1.3585465       128000 
  930000   0.90368036     -2.50534     -2.50534   -1.1498478  0.068786327     -2.50534    1.3554922       128000 
  931000    0.9049703   -2.5033762   -2.5033762   -1.1459491  0.082724169   -2.5033762     1.357427       128000 
  932000    0.9024429   -2.5067935   -2.5067935   -1.1531575  0.070997461   -2.5067935     1.353636       128000 
  933000   0.90637706   -2.5136996   -2.5136996   -1.1541624  0.074474166   -2.5136996    1.3595371       128000 
  934000   0.90719306   -2.5149411   -2.5149411     -1.15418  0.075716546   -2.5149411    1.3607611       128000 
  935000    0.9058066   -2.5123889   -2.5123889   -1.1537074  0.080485181   -2.5123889    1.3586815       128000 
  936000   0.89894882   -2.5119569   -2.5119569   -1.1635619  0.064581639   -2.5119569     1.348395       128000 
  937000   0.90083818    -2.508484    -2.508484    -1.157255  0.059306002    -2.508484     1.351229       128000 
  938000   0.90422194   -2.5094956   -2.5094956    -1.153191  0.071405845   -2.5094956    1.3563045       128000 
  939000   0.90051755   -2.5102728   -2.5102728   -1.1595247  0.075404533   -2.5102728    1.3507481       128000 
  940000   0.90596858   -2.5222055   -2.5222055   -1.1632811  0.063897772   -2.5222055    1.3589244       128000 
  941000   0.89967438   -2.5124595   -2.5124595   -1.1629761  0.065862901   -2.5124595    1.3494833       128000 
  942000   0.90192098   -2.5094421   -2.5094421    -1.156589  0.059530235   -2.5094421    1.3528531       128000 
  943000   0.90524485   -2.5105419   -2.5105419    -1.152703  0.054529649   -2.5105419    1.3578389       128000 
  944000   0.90745703    -2.506319    -2.506319   -1.1451619  0.076349696    -2.506319    1.3611571       128000 
  945000   0.90311553   -2.5050426   -2.5050426   -1.1503977  0.074862411   -2.5050426    1.3546449       128000 
  946000   0.90927452    -2.502642    -2.502642   -1.1387587  0.063886035    -2.502642    1.3638832       128000 
  947000   0.90472771   -2.5053511   -2.5053511    -1.148288  0.066448911   -2.5053511    1.3570632       128000 
  948000   0.90805123   -2.5056135   -2.5056135   -1.1435652  0.065548929   -2.5056135    1.3620483       128000 
  949000   0.90507505   -2.5038163   -2.5038163   -1.1462321  0.054535715   -2.5038163    1.3575842       128000 
  950000   0.90177784   -2.5018872   -2.5018872   -1.1492488  0.074279202   -2.5018872    1.3526384       128000 
  951000   0.90967263   -2.5068614   -2.5068614    -1.142381  0.064226502   -2.5068614    1.3644804       128000 
  952000   0.90610971   -2.5080587   -2.5080587   -1.1489226  0.069173795   -2.5080587    1.3591361       128000 
  953000   0.90256457   -2.5171949   -2.5171949   -1.1633764  0.067722317   -2.5171949    1.3538185       128000 
  954000   0.90141717   -2.5240763   -2.5240763   -1.1719788  0.047681251   -2.5240763    1.3520975       128000 
  955000   0.90221797   -2.5201497   -2.5201497   -1.1668511  0.061716704   -2.5201497    1.3532986       128000 
  956000   0.90237617   -2.5190867   -2.5190867   -1.1655508  0.072856773   -2.5190867    1.3535359       128000 
  957000   0.90457041   -2.5251262   -2.5251262    -1.168299  0.065812819   -2.5251262    1.3568272       128000 
  958000    0.9051416   -2.5296118   -2.5296118   -1.1719278   0.06183992   -2.5296118     1.357684       128000 
  959000   0.90592247   -2.5264986   -2.5264986   -1.1676433  0.081785181   -2.5264986    1.3588553       128000 
  960000   0.89962278   -2.5283204   -2.5283204   -1.1789145  0.065593478   -2.5283204    1.3494059       128000 
  961000   0.90568735   -2.5371705   -2.5371705    -1.178668  0.062177951   -2.5371705    1.3585026       128000 
  962000   0.90085141   -2.5348877   -2.5348877   -1.1836388  0.071256635   -2.5348877    1.3512488       128000 
  963000   0.89728118   -2.5341336   -2.5341336     -1.18824  0.062127604   -2.5341336    1.3458936       128000 
  964000   0.90100516   -2.5306208   -2.5306208   -1.1791413  0.075274482   -2.5306208    1.3514794       128000 
  965000   0.90604052   -2.5239137   -2.5239137   -1.1648813   0.08137362   -2.5239137    1.3590323       128000 
  966000   0.90460942   -2.5342377   -2.5342377    -1.177352  0.077082297   -2.5342377    1.3568857       128000 
  967000    0.9042219   -2.5356246   -2.5356246   -1.1793202  0.072119531   -2.5356246    1.3563045       128000 
  968000   0.90446396   -2.5404004   -2.5404004   -1.1837329  0.066981087   -2.5404004    1.3566675       128000 
  969000   0.90771077   -2.5401629   -2.5401629   -1.1786253  0.076851878   -2.5401629    1.3615377       128000 
  970000   0.90530788   -2.5369343   -2.5369343   -1.1790009  0.073615178   -2.5369343    1.3579334       128000 
  971000   0.90668638   -2.5461431   -2.5461431    -1.186142  0.072647461   -2.5461431    1.3600011       128000 
  972000   0.89881011   -2.5376987   -2.5376987   -1.1895118  0.052685498   -2.5376987    1.3481869       128000 
  973000   0.89589048   -2.5450698   -2.5450698   -1.2012622  0.065270934   -2.5450698    1.3438076       128000 
  974000    0.9008305   -2.5477747   -2.5477747   -1.1965572  0.066627259   -2.5477747    1.3512175       128000 
  975000   0.89880372   -2.5411489   -2.5411489   -1.1929715  0.066531586   -2.5411489    1.3481774       128000 
  976000   0.89511561   -2.5350757   -2.5350757   -1.1924304  0.074464295   -2.5350757    1.3426453       128000 
  977000   0.89913715    -2.540468    -2.540468   -1.1917905  0.065728328    -2.540468    1.3486775       128000 
  978000   0.90434991   -2.5424783   -2.5424783   -1.1859818   0.05838605   -2.5424783    1.3564965       128000 
  979000   0.89963496   -2.5395662   -2.5395662    -1.190142  0.057034987   -2.5395662    1.3494242       128000 
  980000   0.90231621   -2.5420178   -2.5420178   -1.1885718  0.071748805   -2.5420178     1.353446       128000 
  981000   0.90700889   -2.5393986   -2.5393986   -1.1789138  0.061265939   -2.5393986    1.3604849       128000 
  982000   0.90267227   -2.5362956   -2.5362956   -1.1823156    0.0590117   -2.5362956    1.3539801       128000 
  983000   0.89973187   -2.5291363   -2.5291363   -1.1795667  0.079949654   -2.5291363    1.3495696       128000 
  984000   0.90204978   -2.5308736   -2.5308736   -1.1778272  0.065034245   -2.5308736    1.3530464       128000 
  985000    0.8994026   -2.5376866   -2.5376866   -1.1886109  0.055358587   -2.5376866    1.3490757       128000 
  986000   0.90231589   -2.5342977   -2.5342977   -1.1808521  0.074282626   -2.5342977    1.3534455       128000 
  987000   0.90123521   -2.5417355   -2.5417355    -1.189911   0.06431215   -2.5417355    1.3518245       128000 
  988000   0.90103952   -2.5373825   -2.5373825   -1.1858515  0.062907573   -2.5373825     1.351531       128000 
  989000   0.90650388   -2.5448614   -2.5448614   -1.1851341  0.074150958   -2.5448614    1.3597274       128000 
  990000   0.90039486   -2.5433316   -2.5433316   -1.1927675  0.071128926   -2.5433316     1.350564       128000 
  991000    0.8997094   -2.5441757   -2.5441757   -1.1946398  0.069993367   -2.5441757    1.3495358       128000 
  992000   0.89955552   -2.5473085   -2.5473085   -1.1980035  0.080947364   -2.5473085     1.349305       128000 
  993000   0.90188454    -2.548053    -2.548053   -1.1952545  0.055875054    -2.548053    1.3527985       128000 
  994000   0.90221489   -2.5515384   -2.5515384   -1.1982444  0.068107747   -2.5515384     1.353294       128000 
  995000   0.89943502   -2.5499577   -2.5499577   -1.2008334  0.067490963   -2.5499577    1.3491243       128000 
  996000    0.9075911   -2.5600639   -2.5600639   -1.1987057  0.071861509   -2.5600639    1.3613582       128000 
  997000   0.90080829   -2.5552697   -2.5552697   -1.2040855  0.080894156   -2.5552697    1.3511841       128000 
  998000   0.89769631   -2.5650263   -2.5650263     -1.21851  0.049763923   -2.5650263    1.3465163       128000 
  999000   0.89490706    -2.558001    -2.558001   -1.2156685  0.053341384    -2.558001    1.3423325       128000 
 1000000   0.89523616    -2.552464    -2.552464   -1.2096379  0.072615318    -2.552464    1.3428261       128000 
Loop time of 2450.61 on 16 procs for 1000000 steps with 47775 atoms

Performance: 176282.656 tau/day, 408.062 timesteps/s
99.1% CPU use with 16 MPI tasks x 1 OpenMP threads

MPI task timing breakdown:
Section |  min time  |  avg time  |  max time  |%varavg|  %CPU | %total
-----------------------------------------------------------------------
Pair    | 745.21     | 1128.2     | 1368.4     | 598.7 |  99.0 | 46.04
Bond    | 0.319      | 0.38012    | 0.46174    |   5.5 | 100.0 |  0.02
Neigh   | 266.66     | 353.42     | 411.93     | 238.2 |  99.1 | 14.42
Comm    | 463.18     | 757.96     | 1301.8     |1018.7 |  98.9 | 30.93
Output  | 22.487     | 22.517     | 22.522     |   0.2 |  98.6 |  0.92
Modify  | 84.13      | 165.14     | 206.36     | 337.6 |  99.2 |  6.74
Other   |            | 22.99      |            |       |       |  0.94

Nlocal:        2985.94 ave        3339 max        2659 min
Histogram: 1 0 0 4 2 7 1 0 0 1
Nghost:        3459.62 ave        4095 max        2806 min
Histogram: 3 4 1 0 0 0 0 0 5 3
Neighs:        70844.8 ave       82690 max       35465 min
Histogram: 1 0 2 0 1 0 0 1 3 8

Total # of neighbors = 1133517
Ave neighs/atom = 23.726154
Ave special neighs/atom = 0.0000000
Neighbor list builds = 100000
Dangerous builds = 98998
write_restart   restart_write.dat
System init for write_restart ...
write_data	data.write
System init for write_data ...

Total wall time: 0:40:51
