LAMMPS (24 Dec 2020)
OMP_NUM_THREADS environment is not set. Defaulting to 1 thread. (src/comm.cpp:94)
  using 1 OpenMP thread(s) per MPI task
# Simple rigid body system
# needed variables:

units		lj
atom_style	full
dimension 	3
boundary	p p f
pair_style	lj/cut/opt 2.5


variable 	sigma		equal 1.0
variable 	epsilon 	equal 1.0


region		box block 0 80 0 80 0 80
create_box 	3 box
Created orthogonal box = (0.0000000 0.0000000 0.0000000) to (80.000000 80.000000 80.000000)
  2 by 4 by 4 MPI processor grid
lattice 	sc 1.0
Lattice spacing in x,y,z = 1.0000000 1.0000000 1.0000000

create_atoms 	1 region box
Created 512000 atoms
  create_atoms CPU = 0.006 seconds

mass		1 1.0
mass		2 1.0
mass		3 1.0


group		solvent type 1
512000 atoms in group solvent


velocity 	solvent create ${startTemp} 563435 loop geom
velocity 	solvent create 0.5 563435 loop geom

read_data	data.vac add append
Reading data file ...
  orthogonal box = (0.0000000 0.0000000 0.0000000) to (80.000000 80.000000 160.00000)
  2 by 2 by 8 MPI processor grid
Finding 1-2 1-3 1-4 neighbors ...
  special bond factors lj:    0        0        0       
  special bond factors coul:  0        0        0       
     0 = max # of 1-2 neighbors
     0 = max # of 1-3 neighbors
     0 = max # of 1-4 neighbors
     1 = max # of special neighbors
  special bonds CPU = 0.082 seconds
  read_data CPU = 0.091 seconds

neighbor 	0.4 bin

pair_coeff	1 1 1.0 1.0
pair_coeff	2 2 0.0 0.0
pair_coeff	3 3 0.0 0.0
pair_coeff	2 3 0.0 0.0
pair_coeff	1 2*3 0.0 0.0

pair_modify 	shift yes


balance 	1.05 shift z 10 1.05
Balancing ...
Neighbor list info ...
  update every 1 steps, delay 10 steps, check yes
  max neighbors/atom: 2000, page size: 100000
  master list distance cutoff = 2.9
  ghost atom cutoff = 2.9
  binsize = 1.45, bins = 56 56 111
  1 neighbor lists, perpetual/occasional/extra = 1 0 0
  (1) pair lj/cut/opt, perpetual
      attributes: half, newton on
      pair build: half/bin/newton
      stencil: half/bin/3d/newton
      bin: standard
 rebalancing time: 0.018 seconds
  iteration count = 5
  initial/final maximal load/proc = 32000.000 19200.000
  initial/final imbalance factor  = 2.0000000 1.2000000
  x cuts: 0.0000000 0.50000000 1.0000000
  y cuts: 0.0000000 0.50000000 1.0000000
  z cuts: 0.0000000 0.062500000 0.12890625 0.18750000 0.25781250 0.30859375 0.38671875 0.43750000 1.0000000


####################### WALLS ###########################


region	       low block  EDGE EDGE EDGE EDGE 0 2

region 	       top block  EDGE EDGE EDGE EDGE 159 160


delete_atoms   region low
WARNING: Ignoring 'compress yes' for molecular system (src/delete_atoms.cpp:125)
Deleted 19200 atoms, new total = 492800

delete_atoms   region top
WARNING: Ignoring 'compress yes' for molecular system (src/delete_atoms.cpp:125)
Deleted 0 atoms, new total = 492800


variable       epsilonWall equal 2*${epsilon}
variable       epsilonWall equal 2*1

variable       cutoffTop   equal   0.7147*${sigma}
variable       cutoffTop   equal   0.7147*1

variable       cutoffLow   equal   3*${sigma}
variable       cutoffLow   equal   3*1


fix            topWall all wall/lj93 zhi EDGE                ${epsilonWall} ${sigma} ${cutoffTop} units box
fix            topWall all wall/lj93 zhi EDGE                2 ${sigma} ${cutoffTop} units box
fix            topWall all wall/lj93 zhi EDGE                2 1 ${cutoffTop} units box
fix            topWall all wall/lj93 zhi EDGE                2 1 0.7147 units box

fix            lowWall all wall/lj93 zlo EDGE                ${epsilonWall} ${sigma} ${cutoffLow} units box
fix            lowWall all wall/lj93 zlo EDGE                2 ${sigma} ${cutoffLow} units box
fix            lowWall all wall/lj93 zlo EDGE                2 1 ${cutoffLow} units box
fix            lowWall all wall/lj93 zlo EDGE                2 1 3 units box


###################### COMPUTES ##########################

compute        bin1 solvent chunk/atom bin/1d z upper 1.0



######################	FIXES ############################


fix 		peclet solvent ave/chunk 1000 1 1000 bin1 density/number norm 		 none ave one file density.profile

fix 		2 solvent nve

## Thermostat


region		regthermo block EDGE EDGE EDGE EDGE 0 20

group 		thermo dynamic solvent region regthermo every 1000
dynamic group thermo defined

fix 		3 thermo langevin ${startTemp} ${temp} 10 156453
fix 		3 thermo langevin 0.5 ${temp} 10 156453
fix 		3 thermo langevin 0.5 .6 10 156453



#### Load balancing


fix 		bal all balance 1000 1.05 shift z 10 1.05


############### Diagnostics and computes ###################
#compute 	com cube	  rigid/local	1 mol x y z
#compute 	quat cube	  rigid/local	1 mol quatw quati quatj quatk

thermo 		1000
thermo_style 	custom step temp epair evdwl etotal press pe ke vol

dump		1 all custom 100000 dump.lammpstrj id mol type x y z
dump 		2 all image 10000 image.*.png type type
dump 		3 all movie 1000 movie.avi type type
#dump 		com cube local 1000 dump.*.xyz c_com[*]
#dump		quat cube      local 1000 dump.*.quat c_quat[*]


restart 	500000 restart.dat
timestep 	0.0025
timer 		full
New timer settings: style=full  mode=nosync  timeout=off


run		1000000
Per MPI rank memory allocation (min/avg/max) = 21.45 | 22.19 | 22.73 Mbytes
Step Temp E_pair E_vdwl TotEng Press PotEng KinEng Volume 
       0   0.49998514   -3.2974116   -3.2974116   -2.5474355    8.3319627   -3.2974116   0.74997619      1024000 
    1000    1.4275823   -4.8132423   -4.8132423   -2.6718732    3.6877322   -4.8132423    2.1413691      1024000 
    2000    1.3666413   -4.8619696   -4.8619696   -2.8120118    2.4704185   -4.8619696    2.0499578      1024000 
    3000    1.2647939   -4.8383806   -4.8383806   -2.9411937    1.6279411   -4.8383806    1.8971869      1024000 
    4000    1.2121124   -4.8480337   -4.8480337   -3.0298688   0.72324853   -4.8480337    1.8181649      1024000 
    5000    1.1399474   -4.7845603   -4.7845603   -3.0746427  0.083220903   -4.7845603    1.7099176      1024000 
    6000    1.0612267   -4.6829685   -4.6829685   -3.0911317  -0.26329894   -4.6829685    1.5918368      1024000 
    7000      1.00181    -4.595398    -4.595398   -3.0926861  -0.36076673    -4.595398    1.5027119      1024000 
    8000   0.98894664   -4.5753738   -4.5753738   -3.0919569  -0.24556972   -4.5753738    1.4834169      1024000 
    9000    1.0036696   -4.6026565   -4.6026565   -3.0971551 -0.096045204   -4.6026565    1.5055014      1024000 
   10000    1.0108062   -4.6245512   -4.6245512    -3.108345 -0.0036941729   -4.6245512    1.5162062      1024000 
   11000    1.0090782   -4.6342104   -4.6342104   -3.1205961  0.019336312   -4.6342104    1.5136143      1024000 
   12000    1.0063093   -4.6395963   -4.6395963   -3.1301354  0.023719511   -4.6395963    1.5094609      1024000 
   13000     1.006746    -4.649724    -4.649724   -3.1396081  0.061333702    -4.649724    1.5101159      1024000 
   14000    1.0094288   -4.6621363   -4.6621363   -3.1479962  0.086065567   -4.6621363    1.5141401      1024000 
   15000    1.0074998   -4.6666383   -4.6666383   -3.1553917  0.093111586   -4.6666383    1.5112466      1024000 
   16000    1.0031629   -4.6669116   -4.6669116   -3.1621702  0.085397457   -4.6669116    1.5047413      1024000 
   17000    1.0011327   -4.6696779   -4.6696779   -3.1679819  0.080827922   -4.6696779     1.501696      1024000 
   18000   0.99982093   -4.6728574   -4.6728574   -3.1731291  0.092991701   -4.6728574    1.4997283      1024000 
   19000    1.0011744   -4.6797894   -4.6797894   -3.1780309     0.101523   -4.6797894    1.5017586      1024000 
   20000    1.0012866   -4.6843434   -4.6843434   -3.1824166   0.10818392   -4.6843434    1.5019268      1024000 
   21000    1.0004485   -4.6867481   -4.6867481   -3.1860784   0.11552942   -4.6867481    1.5006697      1024000 
   22000   0.99846094   -4.6872164   -4.6872164   -3.1895281   0.11525036   -4.6872164    1.4976884      1024000 
   23000    0.9989944    -4.691584    -4.691584   -3.1930954    0.1164145    -4.691584    1.4984886      1024000 
   24000    1.0025812   -4.7007056   -4.7007056   -3.1968368    0.2388999   -4.7007056    1.5038687      1024000 
   25000    1.0185525   -4.7272468   -4.7272468   -3.1994211   0.69675354   -4.7272468    1.5278257      1024000 
   26000    1.0341251   -4.7527613   -4.7527613   -3.2015768    1.0370691   -4.7527613    1.5511845      1024000 
   27000    1.0410357   -4.7652816   -4.7652816   -3.2037312    1.4573885   -4.7652816    1.5615504      1024000 
   28000    1.0461309   -4.7756826   -4.7756826   -3.2064894    1.6427236   -4.7756826    1.5691932      1024000 
   29000     1.025922   -4.7480942   -4.7480942   -3.2092143    1.2953517   -4.7480942    1.5388799      1024000 
   30000    1.0065294   -4.7208222   -4.7208222   -3.2110312   0.94394604   -4.7208222     1.509791      1024000 
   31000   0.98665938   -4.6915606   -4.6915606   -3.2115745   0.60981487   -4.6915606    1.4799861      1024000 
   32000   0.95614297   -4.6478157   -4.6478157   -3.2136042   0.38577134   -4.6478157    1.4342116      1024000 
   33000   0.92225708   -4.5987105   -4.5987105   -3.2153277   0.20867786   -4.5987105    1.3833828      1024000 
   34000   0.88222024   -4.5407217   -4.5407217    -3.217394  0.042799112   -4.5407217    1.3233277      1024000 
   35000   0.84657878   -4.4887951   -4.4887951   -3.2189295 -0.062720154   -4.4887951    1.2698656      1024000 
   36000   0.82260891   -4.4546049   -4.4546049   -3.2206941   -0.1097825   -4.4546049    1.2339109      1024000 
   37000    0.8104777   -4.4386556   -4.4386556   -3.2229415  -0.11902149   -4.4386556    1.2157141      1024000 
   38000   0.81260429   -4.4433096   -4.4433096   -3.2244056  -0.10305151   -4.4433096     1.218904      1024000 
   39000    0.8190546   -4.4551014   -4.4551014   -3.2265219 -0.062660934   -4.4551014    1.2285794      1024000 
   40000   0.82987261   -4.4734062   -4.4734062   -3.2285999 -0.019090482   -4.4734062    1.2448064      1024000 
   41000   0.84302985   -4.4945867   -4.4945867   -3.2300445  0.017783119   -4.4945867    1.2645422      1024000 
   42000   0.85423641   -4.5131351   -4.5131351   -3.2317831  0.075732212   -4.5131351     1.281352      1024000 
   43000   0.86297935    -4.527782    -4.527782   -3.2333156   0.11774169    -4.527782    1.2944664      1024000 
   44000     0.868185   -4.5376121   -4.5376121   -3.2353373   0.13919957   -4.5376121    1.3022749      1024000 
   45000   0.86930498       -4.541       -4.541   -3.2370452   0.14196903       -4.541    1.3039548      1024000 
   46000   0.86488881   -4.5364697   -4.5364697   -3.2391391   0.13801583   -4.5364697    1.2973306      1024000 
   47000   0.85937688   -4.5296887   -4.5296887    -3.240626   0.10767702   -4.5296887    1.2890627      1024000 
   48000   0.85235002   -4.5205084   -4.5205084    -3.241986  0.079570474   -4.5205084    1.2785224      1024000 
   49000   0.84400346    -4.509625    -4.509625   -3.2436223  0.050998692    -4.509625    1.2660026      1024000 
   50000   0.83811544   -4.5024923   -4.5024923   -3.2453217  0.016773709   -4.5024923    1.2571706      1024000 
   51000   0.83047126   -4.4932514   -4.4932514    -3.247547 0.0010158562   -4.4932514    1.2457044      1024000 
   52000   0.82894249   -4.4931902   -4.4931902    -3.249779 -0.004602625   -4.4931902    1.2434112      1024000 
   53000   0.82928337   -4.4962036   -4.4962036   -3.2522811 0.0035690996   -4.4962036    1.2439225      1024000 
   54000   0.83313144   -4.5048148   -4.5048148   -3.2551201   0.01754551   -4.5048148    1.2496946      1024000 
   55000   0.83861757   -4.5155518   -4.5155518    -3.257628  0.037226483   -4.5155518    1.2579238      1024000 
   56000   0.84421415    -4.527016    -4.527016   -3.2606973  0.068303669    -4.527016    1.2663186      1024000 
   57000   0.84942156   -4.5375469   -4.5375469   -3.2634171  0.097608147   -4.5375469    1.2741297      1024000 
   58000   0.85365989    -4.547405    -4.547405   -3.2669178   0.11376527    -4.547405    1.2804872      1024000 
   59000   0.85555251   -4.5533104   -4.5533104   -3.2699842   0.12049779   -4.5533104    1.2833262      1024000 
   60000    0.8524702   -4.5522391   -4.5522391   -3.2735364   0.11641553   -4.5522391    1.2787027      1024000 
   61000   0.84711853   -4.5487512   -4.5487512    -3.278076    0.1012522   -4.5487512    1.2706752      1024000 
   62000   0.84236726   -4.5456103   -4.5456103    -3.282062  0.079756057   -4.5456103    1.2635483      1024000 
   63000   0.83709472   -4.5419504   -4.5419504   -3.2863109  0.073098101   -4.5419504    1.2556395      1024000 
   64000    0.8350594   -4.5433753   -4.5433753   -3.2907888  0.066141954   -4.5433753    1.2525866      1024000 
   65000   0.83495912   -4.5486235   -4.5486235   -3.2961874  0.070957625   -4.5486235    1.2524361      1024000 
   66000   0.83648843   -4.5561802   -4.5561802   -3.3014501  0.093118269   -4.5561802    1.2547301      1024000 
   67000   0.84195939   -4.5700085   -4.5700085    -3.307072   0.11093482   -4.5700085    1.2629365      1024000 
   68000   0.84974041    -4.587859    -4.587859    -3.313251    0.1545615    -4.587859     1.274608      1024000 
   69000    0.8595748   -4.6094432   -4.6094432   -3.3200836   0.21863034   -4.6094432    1.2893596      1024000 
   70000   0.86951099    -4.632597    -4.632597   -3.3283331   0.29148268    -4.632597    1.3042638      1024000 
   71000    0.8746396    -4.649803    -4.649803   -3.3378463   0.35472133    -4.649803    1.3119567      1024000 
   72000   0.87390574   -4.6587719   -4.6587719   -3.3479159   0.37673215   -4.6587719     1.310856      1024000 
   73000   0.86936309   -4.6611792   -4.6611792   -3.3571373   0.35677678   -4.6611792     1.304042      1024000 
   74000   0.85980082   -4.6578025   -4.6578025   -3.3681038    0.3616675   -4.6578025    1.2896986      1024000 
   75000   0.84857949   -4.6613557   -4.6613557   -3.3884891   0.44785054   -4.6613557    1.2728666      1024000 
   76000   0.83998509   -4.6754003   -4.6754003   -3.4154252   0.49459891   -4.6754003    1.2599751      1024000 
   77000   0.83362956   -4.6914984   -4.6914984   -3.4410566   0.48897488   -4.6914984    1.2504418      1024000 
   78000   0.82969957   -4.7076271   -4.7076271   -3.4630803   0.47362326   -4.7076271    1.2445468      1024000 
   79000   0.82946577   -4.7237207   -4.7237207   -3.4795246   0.45436981   -4.7237207    1.2441961      1024000 
   80000   0.83075703   -4.7394314   -4.7394314   -3.4932984   0.44808964   -4.7394314     1.246133      1024000 
   81000   0.83372628   -4.7538678   -4.7538678   -3.5032809   0.45480905   -4.7538678    1.2505869      1024000 
   82000   0.82656761   -4.7510713   -4.7510713   -3.5112224   0.40834718   -4.7510713    1.2398489      1024000 
   83000   0.80913831   -4.7304478   -4.7304478   -3.5167428   0.29828726   -4.7304478     1.213705      1024000 
   84000   0.78844687   -4.7043399   -4.7043399    -3.521672   0.19653499   -4.7043399    1.1826679      1024000 
   85000   0.76903437   -4.6806417   -4.6806417   -3.5270925   0.11856773   -4.6806417    1.1535492      1024000 
   86000   0.75296406   -4.6618306   -4.6618306   -3.5323868  0.056324204   -4.6618306    1.1294438      1024000 
   87000   0.73797551   -4.6446225   -4.6446225   -3.5376615 0.0073007262   -4.6446225     1.106961      1024000 
   88000   0.72533595   -4.6313997   -4.6313997    -3.543398 -0.050127008   -4.6313997    1.0880017      1024000 
   89000   0.71342435   -4.6180137   -4.6180137   -3.5478794  -0.10274668   -4.6180137    1.0701344      1024000 
   90000   0.70404797   -4.6061186   -4.6061186   -3.5500488  -0.15677494   -4.6061186    1.0560698      1024000 
   91000   0.69587557   -4.5934249   -4.5934249   -3.5496137  -0.19494948   -4.5934249    1.0438112      1024000 
   92000   0.69093415   -4.5838046   -4.5838046   -3.5474055  -0.22503815   -4.5838046    1.0363991      1024000 
   93000   0.68768069    -4.575893    -4.575893   -3.5443741  -0.24005084    -4.575893    1.0315189      1024000 
   94000   0.68666446   -4.5716172   -4.5716172   -3.5416226  -0.23574909   -4.5716172    1.0299946      1024000 
   95000   0.68938828   -4.5727643   -4.5727643    -3.538684  -0.22534103   -4.5727643    1.0340803      1024000 
   96000   0.69338031   -4.5773917   -4.5773917   -3.5373233  -0.19768234   -4.5773917    1.0400683      1024000 
   97000   0.69950324   -4.5871255   -4.5871255   -3.5378728   -0.1630649   -4.5871255    1.0492527      1024000 
   98000   0.70622429   -4.5992109   -4.5992109   -3.5398766  -0.11348783   -4.5992109    1.0593343      1024000 
   99000   0.71303937   -4.6130084   -4.6130084   -3.5434515  -0.07310374   -4.6130084    1.0695569      1024000 
  100000   0.71966813   -4.6283784   -4.6283784   -3.5488784 -0.030866101   -4.6283784       1.0795      1024000 
  101000   0.72484618   -4.6413924   -4.6413924   -3.5541254 -0.0046124394   -4.6413924    1.0872671      1024000 
  102000   0.72759553   -4.6521546   -4.6521546   -3.5607635 0.0088842753   -4.6521546    1.0913911      1024000 
  103000   0.72675512   -4.6560657   -4.6560657   -3.5659353  0.011511138   -4.6560657    1.0901305      1024000 
  104000   0.72567022   -4.6593173   -4.6593173   -3.5708142 -0.00039269033   -4.6593173    1.0885031      1024000 
  105000   0.72288921   -4.6598594   -4.6598594   -3.5755278 -0.012278233   -4.6598594    1.0843316      1024000 
  106000   0.72011709   -4.6591794   -4.6591794    -3.579006 -0.032337856   -4.6591794    1.0801735      1024000 
  107000   0.71723901   -4.6580803   -4.6580803    -3.582224 -0.040692264   -4.6580803    1.0758563      1024000 
  108000   0.71505964   -4.6582591   -4.6582591   -3.5856719 -0.046754993   -4.6582591    1.0725873      1024000 
  109000   0.71529971   -4.6623818   -4.6623818   -3.5894344 -0.043734044   -4.6623818    1.0729474      1024000 
  110000   0.71549157   -4.6656317   -4.6656317   -3.5923965 -0.033975189   -4.6656317    1.0732352      1024000 
  111000   0.71798254    -4.672585    -4.672585   -3.5956134 -0.027840469    -4.672585    1.0769716      1024000 
  112000   0.71818421   -4.6774964   -4.6774964   -3.6002223 -0.012829155   -4.6774964    1.0772741      1024000 
  113000   0.71911866   -4.6830092   -4.6830092   -3.6043334 -0.0060487452   -4.6830092    1.0786758      1024000 
  114000   0.72187409    -4.691078    -4.691078    -3.608269 0.00081160778    -4.691078    1.0828089      1024000 
  115000   0.72110959   -4.6938633   -4.6938633   -3.6122011  0.001064714   -4.6938633    1.0816622      1024000 
  116000   0.72120165   -4.6978907   -4.6978907   -3.6160904 0.0023915996   -4.6978907    1.0818003      1024000 
  117000   0.72005288   -4.6989647   -4.6989647   -3.6188876 -0.0047764914   -4.6989647    1.0800771      1024000 
  118000   0.71787293   -4.6992504   -4.6992504   -3.6224432 -0.0072441023   -4.6992504    1.0768072      1024000 
  119000   0.71597491   -4.7002906   -4.7002906   -3.6263304 -0.015489884   -4.7002906    1.0739602      1024000 
  120000   0.71518622   -4.7020082   -4.7020082    -3.629231 -0.017405846   -4.7020082    1.0727772      1024000 
  121000   0.71450221   -4.7048546   -4.7048546   -3.6331035 -0.015639338   -4.7048546    1.0717511      1024000 
  122000   0.71597635   -4.7106959   -4.7106959   -3.6367335 -0.015342902   -4.7106959    1.0739623      1024000 
  123000   0.71674906   -4.7148449   -4.7148449   -3.6397235 -0.012614878   -4.7148449    1.0751214      1024000 
  124000     0.717132   -4.7192527   -4.7192527   -3.6435569 -0.011056687   -4.7192527    1.0756958      1024000 
  125000    0.7172072   -4.7226173   -4.7226173   -3.6468086 -0.0039322176   -4.7226173    1.0758086      1024000 
  126000   0.71812467   -4.7267202   -4.7267202   -3.6495354 0.0012486126   -4.7267202    1.0771848      1024000 
  127000   0.71715458   -4.7294074   -4.7294074   -3.6536777 0.0014677516   -4.7294074    1.0757297      1024000 
  128000   0.71788184   -4.7344685   -4.7344685   -3.6576479 0.00029959716   -4.7344685    1.0768206      1024000 
  129000   0.71811367   -4.7385676   -4.7385676   -3.6613993 -0.00016535329   -4.7385676    1.0771683      1024000 
  130000   0.71860185    -4.743504    -4.743504   -3.6656034 -0.0043205545    -4.743504    1.0779006      1024000 
  131000   0.71632071   -4.7441626   -4.7441626   -3.6696838 0.00025315241   -4.7441626    1.0744789      1024000 
  132000   0.71662615   -4.7491319   -4.7491319   -3.6741949 0.0010527301   -4.7491319     1.074937      1024000 
  133000   0.71515485   -4.7507889   -4.7507889   -3.6780588 0.0038297595   -4.7507889    1.0727301      1024000 
  134000    0.7150485   -4.7551961   -4.7551961   -3.6826255 -0.0019106238   -4.7551961    1.0725706      1024000 
  135000    0.7157334   -4.7603062   -4.7603062   -3.6867083 0.00012640844   -4.7603062    1.0735979      1024000 
  136000   0.71606293   -4.7645335   -4.7645335   -3.6904413 0.0033402878   -4.7645335    1.0740922      1024000 
  137000   0.71679228   -4.7691993   -4.7691993    -3.694013 0.0065695308   -4.7691993    1.0751862      1024000 
  138000   0.71569587   -4.7718477   -4.7718477   -3.6983061 0.0082359689   -4.7718477    1.0735416      1024000 
  139000   0.71537391   -4.7749685   -4.7749685   -3.7019098 0.0071391678   -4.7749685    1.0730587      1024000 
  140000   0.71395018   -4.7773382   -4.7773382   -3.7064151  0.006471584   -4.7773382    1.0709231      1024000 
  141000   0.71443829   -4.7819318   -4.7819318   -3.7102765 0.0029642113   -4.7819318    1.0716553      1024000 
  142000   0.71393021   -4.7849732   -4.7849732   -3.7140801 0.0047377296   -4.7849732    1.0708931      1024000 
  143000    0.7149822   -4.7904283   -4.7904283   -3.7179572 0.0025738252   -4.7904283    1.0724711      1024000 
  144000   0.71450042   -4.7941708   -4.7941708   -3.7224224 0.0030342232   -4.7941708    1.0717485      1024000 
  145000   0.71379804   -4.7969149   -4.7969149     -3.72622 0.0071609179   -4.7969149    1.0706949      1024000 
  146000   0.71391801   -4.8015497   -4.8015497   -3.7306748  0.011521974   -4.8015497    1.0708748      1024000 
  147000   0.71409659   -4.8068164   -4.8068164   -3.7356737  0.010627413   -4.8068164    1.0711427      1024000 
  148000    0.7143786    -4.810911    -4.810911   -3.7393453  0.013507042    -4.810911    1.0715657      1024000 
  149000   0.71535937   -4.8171996   -4.8171996   -3.7441627  0.013925144   -4.8171996    1.0730369      1024000 
  150000   0.71556398   -4.8213235   -4.8213235   -3.7479797  0.023184799   -4.8213235    1.0733438      1024000 
  151000    0.7153171   -4.8261862   -4.8261862   -3.7532127  0.024346158   -4.8261862    1.0729735      1024000 
  152000   0.71612977   -4.8317368   -4.8317368   -3.7575443  0.024874067   -4.8317368    1.0741925      1024000 
  153000   0.71696577   -4.8378301   -4.8378301   -3.7623836  0.019971872   -4.8378301    1.0754465      1024000 
  154000   0.71605088   -4.8405221   -4.8405221    -3.766448  0.031740312   -4.8405221    1.0740741      1024000 
  155000   0.71659766   -4.8461891   -4.8461891   -3.7712948  0.032055671   -4.8461891    1.0748943      1024000 
  156000   0.71704737   -4.8513648   -4.8513648    -3.775796  0.035194699   -4.8513648    1.0755689      1024000 
  157000    0.7175803   -4.8569183   -4.8569183     -3.78055  0.038169989   -4.8569183    1.0763683      1024000 
  158000   0.71667315   -4.8611155   -4.8611155   -3.7861079  0.041807313   -4.8611155    1.0750075      1024000 
  159000   0.71555056   -4.8643812   -4.8643812   -3.7910575  0.049396317   -4.8643812    1.0733237      1024000 
  160000   0.71716165   -4.8722407   -4.8722407   -3.7965005  0.047621196   -4.8722407    1.0757403      1024000 
  161000   0.71555805   -4.8749686   -4.8749686   -3.8016337  0.051031921   -4.8749686    1.0733349      1024000 
  162000   0.71575491   -4.8797017   -4.8797017   -3.8060715  0.046556375   -4.8797017    1.0736302      1024000 
  163000    0.7149321   -4.8832756   -4.8832756   -3.8108796  0.042436479   -4.8832756     1.072396      1024000 
  164000   0.71282413   -4.8852908   -4.8852908   -3.8160568   0.04151038   -4.8852908     1.069234      1024000 
  165000   0.71165095   -4.8880876   -4.8880876   -3.8206133  0.033104635   -4.8880876    1.0674743      1024000 
  166000   0.71016915   -4.8904479   -4.8904479   -3.8251964  0.024531585   -4.8904479    1.0652516      1024000 
  167000   0.70917265    -4.893574    -4.893574   -3.8298172  0.017834245    -4.893574    1.0637568      1024000 
  168000   0.70666907   -4.8938508   -4.8938508   -3.8338493 0.0097122083   -4.8938508    1.0600015      1024000 
  169000   0.70542865   -4.8958977   -4.8958977   -3.8377569 0.00061037846   -4.8958977    1.0581408      1024000 
  170000   0.70417496   -4.8974865   -4.8974865   -3.8412262 -0.0081859294   -4.8974865    1.0562603      1024000 
  171000    0.7020905   -4.8978993   -4.8978993   -3.8447657 -0.015220334   -4.8978993    1.0531336      1024000 
  172000   0.69990073   -4.8986561   -4.8986561   -3.8488071  -0.02387208   -4.8986561     1.049849      1024000 
  173000   0.69920864   -4.9014789   -4.9014789    -3.852668 -0.031083101   -4.9014789    1.0488108      1024000 
  174000   0.69789271   -4.9026011   -4.9026011   -3.8557641 -0.031568481   -4.9026011    1.0468369      1024000 
  175000   0.69745171   -4.9050974   -4.9050974    -3.858922   -0.0333451   -4.9050974    1.0461754      1024000 
  176000   0.69778057   -4.9088612   -4.9088612   -3.8621924 -0.038562174   -4.9088612    1.0466687      1024000 
  177000   0.69659113   -4.9101447   -4.9101447   -3.8652602 -0.034036647   -4.9101447    1.0448846      1024000 
  178000   0.69711783   -4.9143962   -4.9143962   -3.8687216 -0.036360353   -4.9143962    1.0456746      1024000 
  179000   0.69778186   -4.9192734   -4.9192734   -3.8726027 -0.035859002   -4.9192734    1.0466707      1024000 
  180000   0.69766993   -4.9218229   -4.9218229   -3.8753202 -0.024957995   -4.9218229    1.0465028      1024000 
  181000   0.69897191   -4.9272557   -4.9272557      -3.8788 -0.024007968   -4.9272557    1.0484557      1024000 
  182000   0.69982942   -4.9316961   -4.9316961   -3.8819541 -0.019017262   -4.9316961     1.049742      1024000 
  183000   0.70094015   -4.9365177   -4.9365177   -3.8851096 -0.016122483   -4.9365177    1.0514081      1024000 
  184000   0.70173457   -4.9415041   -4.9415041   -3.8889044 -0.0077077078   -4.9415041    1.0525997      1024000 
  185000   0.70223305   -4.9464601   -4.9464601   -3.8931127 -0.0018565504   -4.9464601    1.0533474      1024000 
  186000   0.70236279   -4.9507315   -4.9507315   -3.8971895  0.002854545   -4.9507315     1.053542      1024000 
  187000   0.70157779   -4.9538658   -4.9538658   -3.9015013  0.014697704   -4.9538658    1.0523646      1024000 
  188000   0.70363938   -4.9600754   -4.9600754   -3.9046184  0.015086415   -4.9600754    1.0554569      1024000 
  189000   0.70331382   -4.9642127   -4.9642127   -3.9092441  0.015767528   -4.9642127    1.0549686      1024000 
  190000   0.70350811   -4.9682691   -4.9682691    -3.913009  0.015961301   -4.9682691      1.05526      1024000 
  191000   0.70321731    -4.971158    -4.971158   -3.9163341  0.020848913    -4.971158    1.0548238      1024000 
  192000     0.702661   -4.9740106   -4.9740106   -3.9200212  0.015345789   -4.9740106    1.0539894      1024000 
  193000    0.7018625   -4.9766028   -4.9766028   -3.9238111  0.018245264   -4.9766028    1.0527916      1024000 
  194000   0.70089116   -4.9789289   -4.9789289   -3.9275943  0.013432425   -4.9789289    1.0513346      1024000 
  195000    0.6997862   -4.9803085   -4.9803085   -3.9306313 0.0045539953   -4.9803085    1.0496772      1024000 
  196000   0.69940524   -4.9831701   -4.9831701   -3.9340644 -0.0035107638   -4.9831701    1.0491057      1024000 
  197000    0.6967801   -4.9822533   -4.9822533   -3.9370853 -0.0030720876   -4.9822533     1.045168      1024000 
  198000   0.69535528   -4.9835275   -4.9835275   -3.9404967 -0.011718034   -4.9835275    1.0430308      1024000 
  199000   0.69382322   -4.9841937   -4.9841937    -3.943461 -0.019026362   -4.9841937    1.0407327      1024000 
  200000    0.6919813   -4.9832854   -4.9832854   -3.9453156  -0.01788289   -4.9832854    1.0379698      1024000 
  201000   0.69170948   -4.9849895   -4.9849895   -3.9474274 -0.029031634   -4.9849895    1.0375621      1024000 
  202000   0.69114562   -4.9869424   -4.9869424    -3.950226  -0.03257185   -4.9869424    1.0367163      1024000 
  203000   0.68949569   -4.9874279   -4.9874279   -3.9531865 -0.037205612   -4.9874279    1.0342414      1024000 
  204000   0.68887659   -4.9896509   -4.9896509   -3.9563381 -0.036592448   -4.9896509    1.0333128      1024000 
  205000   0.68920831   -4.9928236   -4.9928236   -3.9590133 -0.041138283   -4.9928236    1.0338104      1024000 
  206000   0.68835751   -4.9942548   -4.9942548   -3.9617206 -0.037595584   -4.9942548    1.0325342      1024000 
  207000   0.68874391   -4.9972198   -4.9972198   -3.9641061 -0.038628102   -4.9972198    1.0331138      1024000 
  208000   0.68805172   -4.9987712   -4.9987712   -3.9666957 -0.034358676   -4.9987712    1.0320755      1024000 
  209000    0.6893605   -5.0032232   -5.0032232   -3.9691845  -0.02970809   -5.0032232    1.0340387      1024000 
  210000   0.68929267   -5.0054666   -5.0054666   -3.9715297 -0.021800886   -5.0054666    1.0339369      1024000 
  211000   0.68972628   -5.0080816   -5.0080816   -3.9734942 -0.020278004   -5.0080816    1.0345873      1024000 
  212000   0.69022629   -5.0121136   -5.0121136   -3.9767763 -0.015176023   -5.0121136    1.0353373      1024000 
  213000    0.6924118    -5.017731    -5.017731   -3.9791154 -0.010189043    -5.017731    1.0386156      1024000 
  214000   0.69155914   -5.0191269   -5.0191269   -3.9817903 -0.0013307055   -5.0191269    1.0373366      1024000 
  215000   0.69181977   -5.0225662   -5.0225662   -3.9848387 -0.00082683792   -5.0225662    1.0377276      1024000 
  216000   0.69210993   -5.0254467   -5.0254467   -3.9872839 0.0041981486   -5.0254467    1.0381628      1024000 
  217000   0.69171511   -5.0275064   -5.0275064   -3.9899359 0.0086989184   -5.0275064    1.0375706      1024000 
  218000   0.69091021   -5.0284372   -5.0284372    -3.992074   0.01026943   -5.0284372    1.0363632      1024000 
  219000   0.69245422    -5.033399    -5.033399   -3.9947198 0.0067109608    -5.033399    1.0386792      1024000 
  220000   0.69196114   -5.0350074   -5.0350074   -3.9970678 0.0044816307   -5.0350074    1.0379396      1024000 
  221000   0.69104899    -5.036449    -5.036449   -3.9998776 0.0060063934    -5.036449    1.0365714      1024000 
  222000   0.69011567   -5.0377478   -5.0377478   -4.0025764 0.0051091153   -5.0377478    1.0351714      1024000 
  223000   0.68840042   -5.0378927   -5.0378927   -4.0052942 -6.1936995e-05   -5.0378927    1.0325985      1024000 
  224000   0.68819822   -5.0396887   -5.0396887   -4.0073934 -0.0085348958   -5.0396887    1.0322952      1024000 
  225000   0.68729303   -5.0405417   -5.0405417   -4.0096043 -0.012533978   -5.0405417    1.0309375      1024000 
  226000   0.68549684   -5.0400098   -5.0400098   -4.0117666   -0.0184041   -5.0400098    1.0282432      1024000 
  227000    0.6848323   -5.0410946   -5.0410946   -4.0138482 -0.020332509   -5.0410946    1.0272464      1024000 
  228000   0.68371872   -5.0418959   -5.0418959   -4.0163199 -0.027027077   -5.0418959     1.025576      1024000 
  229000   0.68214121   -5.0418276   -5.0418276   -4.0186178 -0.031915003   -5.0418276    1.0232097      1024000 
  230000   0.68139535    -5.042709    -5.042709    -4.020618 -0.036172579    -5.042709     1.022091      1024000 
  231000   0.68147895   -5.0449697   -5.0449697   -4.0227533 -0.038857359   -5.0449697    1.0222164      1024000 
  232000   0.68088464   -5.0461036   -5.0461036   -4.0247787 -0.039345697   -5.0461036    1.0213249      1024000 
  233000   0.68107047   -5.0486912   -5.0486912   -4.0270876 -0.037053584   -5.0486912    1.0216036      1024000 
  234000   0.68094662   -5.0503423   -5.0503423   -4.0289244  -0.03458076   -5.0503423    1.0214179      1024000 
  235000   0.68112278   -5.0527502   -5.0527502   -4.0310681 -0.034602636   -5.0527502    1.0216821      1024000 
  236000   0.68127339   -5.0556322   -5.0556322   -4.0337242 -0.030847058   -5.0556322     1.021908      1024000 
  237000   0.68163407   -5.0576572   -5.0576572   -4.0352082  -0.02460771   -5.0576572     1.022449      1024000 
  238000   0.68288671   -5.0619321   -5.0619321   -4.0376041 -0.025033603   -5.0619321     1.024328      1024000 
  239000   0.68173515   -5.0629097   -5.0629097    -4.040309 -0.013988176   -5.0629097    1.0226007      1024000 
  240000   0.68317902   -5.0659228   -5.0659228   -4.0411564 -0.012135447   -5.0659228    1.0247664      1024000 
  241000   0.68434918   -5.0697611   -5.0697611   -4.0432394 -0.0084561769   -5.0697611    1.0265217      1024000 
  242000   0.68438996   -5.0727621   -5.0727621   -4.0461792 -0.0039108879   -5.0727621    1.0265829      1024000 
  243000   0.68372617   -5.0741068   -5.0741068   -4.0485197  0.003974865   -5.0741068    1.0255872      1024000 
  244000   0.68426093   -5.0776912   -5.0776912   -4.0513019 0.0018237018   -5.0776912    1.0263893      1024000 
  245000   0.68383774   -5.0789419   -5.0789419   -4.0531874 0.0042353146   -5.0789419    1.0257545      1024000 
  246000   0.68389217    -5.081087    -5.081087   -4.0552509 0.00018009916    -5.081087    1.0258362      1024000 
  247000   0.68329931   -5.0824608   -5.0824608   -4.0575139 0.00010935249   -5.0824608    1.0249469      1024000 
  248000   0.68229972   -5.0831518   -5.0831518   -4.0597043 -0.0012335449   -5.0831518    1.0234475      1024000 
  249000   0.68130893   -5.0835211   -5.0835211   -4.0615598 -0.0023972669   -5.0835211    1.0219613      1024000 
  250000   0.68273116    -5.086552    -5.086552   -4.0624573 -0.0087730461    -5.086552    1.0240947      1024000 
  251000   0.68180414   -5.0869716   -5.0869716   -4.0642674 -0.0095870326   -5.0869716    1.0227041      1024000 
  252000   0.67985106   -5.0857009   -5.0857009   -4.0659264  -0.01535516   -5.0857009    1.0197745      1024000 
  253000   0.67905078   -5.0860885   -5.0860885   -4.0675144 -0.022035601   -5.0860885    1.0185741      1024000 
  254000     0.677963   -5.0864245   -5.0864245   -4.0694821 -0.027790094   -5.0864245    1.0169424      1024000 
  255000   0.67671527   -5.0865024   -5.0865024   -4.0714315 -0.026500717   -5.0865024    1.0150708      1024000 
  256000   0.67626784    -5.088059    -5.088059   -4.0736593 -0.031307571    -5.088059    1.0143997      1024000 
  257000   0.67497526   -5.0883268   -5.0883268   -4.0758659 -0.039214232   -5.0883268    1.0124608      1024000 
  258000   0.67464464   -5.0901615   -5.0901615   -4.0781966  -0.03971807   -5.0901615    1.0119649      1024000 
  259000   0.67406011   -5.0903897   -5.0903897   -4.0793016 -0.036607783   -5.0903897    1.0110881      1024000 
  260000   0.67469095   -5.0922762   -5.0922762   -4.0802419 -0.034749818   -5.0922762    1.0120344      1024000 
  261000   0.67495086   -5.0948745   -5.0948745   -4.0824502 -0.029987009   -5.0948745    1.0124242      1024000 
  262000   0.67517521   -5.0969916   -5.0969916   -4.0842309 -0.028774708   -5.0969916    1.0127608      1024000 
  263000   0.67538845   -5.1001059   -5.1001059   -4.0870253 -0.028873429   -5.1001059    1.0130806      1024000 
  264000   0.67576202   -5.1021826   -5.1021826   -4.0885416 -0.023862876   -5.1021826     1.013641      1024000 
  265000   0.67603497   -5.1038168   -5.1038168   -4.0897663 -0.015300229   -5.1038168    1.0140504      1024000 
  266000   0.67738419   -5.1081625   -5.1081625   -4.0920883 -0.016825336   -5.1081625    1.0160742      1024000 
  267000   0.67830713   -5.1113718   -5.1113718   -4.0939132 -0.013134204   -5.1113718    1.0174586      1024000 
  268000   0.67834004   -5.1134442   -5.1134442   -4.0959362 -0.004412867   -5.1134442     1.017508      1024000 
  269000   0.67750891   -5.1140411   -5.1140411   -4.0977798 -0.0026134757   -5.1140411    1.0162613      1024000 
  270000   0.67682606   -5.1150276   -5.1150276   -4.0997906 0.0025132736   -5.1150276     1.015237      1024000 
  271000   0.67831428   -5.1191487   -5.1191487   -4.1016794 0.00030875425   -5.1191487    1.0174694      1024000 
  272000   0.67753369   -5.1193974   -5.1193974    -4.103099 0.0043414364   -5.1193974    1.0162985      1024000 
  273000   0.67682297   -5.1206128   -5.1206128   -4.1053804 0.0034118534   -5.1206128    1.0152324      1024000 
  274000   0.67600336   -5.1206701   -5.1206701   -4.1066671 0.0033480297   -5.1206701     1.014003      1024000 
  275000   0.67679052   -5.1240418   -5.1240418   -4.1088581 -0.0086396687   -5.1240418    1.0151837      1024000 
  276000   0.67545273   -5.1234588   -5.1234588   -4.1102818 -0.010292959   -5.1234588     1.013177      1024000 
  277000   0.67418139   -5.1232907   -5.1232907   -4.1120206 -0.014570036   -5.1232907      1.01127      1024000 
  278000   0.67271899   -5.1228314   -5.1228314   -4.1137549 -0.014403446   -5.1228314    1.0090764      1024000 
  279000   0.67181112   -5.1223603   -5.1223603   -4.1146457 -0.022460122   -5.1223603    1.0077146      1024000 
  280000   0.67169956    -5.123626    -5.123626   -4.1160787 -0.025644674    -5.123626    1.0075473      1024000 
  281000   0.67019061   -5.1224438   -5.1224438     -4.11716  -0.02788794   -5.1224438    1.0052839      1024000 
  282000   0.67093249   -5.1255052   -5.1255052   -4.1191086 -0.032812353   -5.1255052    1.0063967      1024000 
  283000   0.67004087   -5.1254424   -5.1254424   -4.1203831 -0.032653504   -5.1254424    1.0050593      1024000 
  284000   0.66901037   -5.1254409   -5.1254409   -4.1219274 -0.031600041   -5.1254409    1.0035135      1024000 
  285000   0.67008442   -5.1286651   -5.1286651   -4.1235405 -0.035824346   -5.1286651    1.0051246      1024000 
  286000   0.66987198   -5.1292908   -5.1292908   -4.1244849 -0.033995531   -5.1292908    1.0048059      1024000 
  287000   0.66919125   -5.1298376   -5.1298376   -4.1260527 -0.030028296   -5.1298376    1.0037848      1024000 
  288000   0.67020304   -5.1329024   -5.1329024   -4.1275998 -0.027803301   -5.1329024    1.0053025      1024000 
  289000   0.67019006   -5.1342528   -5.1342528   -4.1289697 -0.018278728   -5.1342528     1.005283      1024000 
  290000   0.67074902   -5.1375712   -5.1375712   -4.1314497 -0.021976747   -5.1375712    1.0061215      1024000 
  291000   0.67159665   -5.1403654   -5.1403654   -4.1329724 -0.018500579   -5.1403654    1.0073929      1024000 
  292000    0.6716587   -5.1423302   -5.1423302   -4.1348442 -0.014259219   -5.1423302     1.007486      1024000 
  293000   0.67089171   -5.1429986   -5.1429986    -4.136663 -0.0038104135   -5.1429986    1.0063355      1024000 
  294000   0.67227267   -5.1466736   -5.1466736   -4.1382666 -0.0057859622   -5.1466736     1.008407      1024000 
  295000   0.67177192   -5.1471927   -5.1471927   -4.1395368 0.00073589134   -5.1471927    1.0076558      1024000 
  296000   0.67169556     -5.14917     -5.14917   -4.1416287 0.0018581198     -5.14917    1.0075413      1024000 
  297000   0.67192127   -5.1510592   -5.1510592   -4.1431793 -0.00048214527   -5.1510592    1.0078799      1024000 
  298000   0.67042399   -5.1514998   -5.1514998   -4.1458658 -0.0024434762   -5.1514998    1.0056339      1024000 
  299000   0.66967309   -5.1524362   -5.1524362   -4.1479286 -0.0020870149   -5.1524362    1.0045076      1024000 
  300000   0.66885745   -5.1530106   -5.1530106   -4.1497264 -0.0068735796   -5.1530106    1.0032841      1024000 
  301000    0.6687563   -5.1544574   -5.1544574    -4.151325 -0.0065417619   -5.1544574    1.0031324      1024000 
  302000   0.66804019   -5.1547411   -5.1547411   -4.1526829 -0.013802129   -5.1547411    1.0020582      1024000 
  303000   0.66746872   -5.1560284   -5.1560284   -4.1548274 -0.019296778   -5.1560284     1.001201      1024000 
  304000   0.66677903   -5.1566024   -5.1566024   -4.1564359 -0.020386744   -5.1566024    1.0001665      1024000 
  305000   0.66646739   -5.1577562   -5.1577562   -4.1580572  -0.02529903   -5.1577562   0.99969906      1024000 
  306000   0.66656833   -5.1597701   -5.1597701   -4.1599196 -0.028197761   -5.1597701   0.99985046      1024000 
  307000   0.66447158   -5.1578142   -5.1578142   -4.1611088 -0.028701107   -5.1578142   0.99670535      1024000 
  308000   0.66429444   -5.1587115   -5.1587115   -4.1622718 -0.030107547   -5.1587115   0.99643964      1024000 
  309000   0.66359013   -5.1585069   -5.1585069   -4.1631237  -0.02995145   -5.1585069   0.99538318      1024000 
  310000   0.66493509   -5.1615233   -5.1615233   -4.1641226 -0.032390415   -5.1615233   0.99740061      1024000 
  311000   0.66382965   -5.1617755   -5.1617755    -4.166033 -0.027722661   -5.1617755   0.99574245      1024000 
  312000   0.66442633   -5.1640839   -5.1640839   -4.1674464 -0.025122027   -5.1640839   0.99663747      1024000 
  313000   0.66394609   -5.1654326   -5.1654326   -4.1695155  -0.02245548   -5.1654326   0.99591711      1024000 
  314000   0.66495726   -5.1675954   -5.1675954   -4.1701615 -0.022434749   -5.1675954   0.99743387      1024000 
  315000   0.66577538   -5.1702177   -5.1702177   -4.1715567 -0.019745601   -5.1702177   0.99866104      1024000 
  316000   0.66541294    -5.170704    -5.170704   -4.1725866 -0.012230769    -5.170704   0.99811738      1024000 
  317000    0.6660823   -5.1739175   -5.1739175    -4.174796 -0.011141635   -5.1739175   0.99912143      1024000 
  318000   0.66584664   -5.1740677   -5.1740677   -4.1752998 -0.0060350998   -5.1740677   0.99876793      1024000 
  319000   0.66670679   -5.1771624   -5.1771624   -4.1771042 -0.006628481   -5.1771624    1.0000582      1024000 
  320000   0.66630993   -5.1775403   -5.1775403   -4.1780774 -0.0038746623   -5.1775403   0.99946287      1024000 
  321000   0.66693884   -5.1801251   -5.1801251   -4.1797189 -0.0048739176   -5.1801251    1.0004062      1024000 
  322000   0.66589539   -5.1800828   -5.1800828   -4.1812417 -0.003619241   -5.1800828   0.99884106      1024000 
  323000   0.66485014     -5.18006     -5.18006   -4.1827868 -0.0010379374     -5.18006   0.99727319      1024000 
  324000   0.66436358   -5.1812759   -5.1812759   -4.1847326 -0.0077495525   -5.1812759   0.99654334      1024000 
  325000   0.66482481   -5.1835768   -5.1835768   -4.1863417 -0.012945764   -5.1835768   0.99723519      1024000 
  326000   0.66265726   -5.1823915   -5.1823915   -4.1884077 -0.013880655   -5.1823915   0.99398387      1024000 
  327000   0.66294094   -5.1841888   -5.1841888   -4.1897794 -0.020133802   -5.1841888   0.99440939      1024000 
  328000   0.66219351   -5.1842822   -5.1842822    -4.190994 -0.019116325   -5.1842822   0.99328825      1024000 
  329000   0.66182183    -5.184285    -5.184285   -4.1915543 -0.018756139    -5.184285   0.99273073      1024000 
  330000   0.66158541   -5.1853599   -5.1853599   -4.1929838 -0.024402218   -5.1853599    0.9923761      1024000 
  331000   0.66101213   -5.1859228   -5.1859228   -4.1944066 -0.024559518   -5.1859228   0.99151618      1024000 
  332000    0.6600811   -5.1861723   -5.1861723   -4.1960527 -0.023688423   -5.1861723   0.99011964      1024000 
  333000   0.66047533   -5.1874938   -5.1874938   -4.1967828 -0.026381415   -5.1874938   0.99071098      1024000 
  334000   0.65991709   -5.1877935   -5.1877935   -4.1979199 -0.025062169   -5.1877935   0.98987363      1024000 
  335000   0.66041678   -5.1899325   -5.1899325   -4.1993094 -0.025307165   -5.1899325   0.99062316      1024000 
  336000   0.66072173    -5.191479    -5.191479   -4.2003984  -0.02150074    -5.191479   0.99108058      1024000 
  337000   0.66063651   -5.1930382   -5.1930382   -4.2020854 -0.020225609   -5.1930382   0.99095276      1024000 
  338000   0.66137528   -5.1953078   -5.1953078   -4.2032469  -0.01702599   -5.1953078    0.9920609      1024000 
  339000   0.66199343   -5.1981923   -5.1981923   -4.2052041 -0.023180363   -5.1981923   0.99298813      1024000 
  340000   0.66091872    -5.198394    -5.198394    -4.207018 -0.014182519    -5.198394   0.99137607      1024000 
  341000   0.66121365   -5.1999073   -5.1999073   -4.2080889 -0.015289097   -5.1999073   0.99181847      1024000 
  342000    0.6608692   -5.2012567   -5.2012567   -4.2099549 -0.010200709   -5.2012567   0.99130179      1024000 
  343000   0.66198161   -5.2036276   -5.2036276   -4.2106572 -0.0059873066   -5.2036276    0.9929704      1024000 
  344000   0.66176257   -5.2049348   -5.2049348    -4.212293 -0.0061495763   -5.2049348   0.99264184      1024000 
  345000   0.66112104   -5.2057193   -5.2057193   -4.2140397 -0.010193602   -5.2057193   0.99167954      1024000 
  346000   0.66020561   -5.2060737   -5.2060737   -4.2157673  -0.01059448   -5.2060737    0.9903064      1024000 
  347000    0.6607585   -5.2085111   -5.2085111   -4.2173754 -0.009506179   -5.2085111   0.99113574      1024000 
  348000   0.66068482   -5.2090782   -5.2090782    -4.218053 -0.010282068   -5.2090782   0.99102521      1024000 
  349000   0.65999346   -5.2097525   -5.2097525   -4.2197643 -0.010407467   -5.2097525   0.98998818      1024000 
  350000   0.65915748   -5.2094692   -5.2094692    -4.220735 -0.012910616   -5.2094692   0.98873421      1024000 
  351000   0.65821779   -5.2098766   -5.2098766    -4.222552 -0.017029916   -5.2098766   0.98732469      1024000 
  352000   0.65729861   -5.2097017   -5.2097017   -4.2237557 -0.016691744   -5.2097017   0.98594592      1024000 
  353000    0.6580596   -5.2114754   -5.2114754    -4.224388 -0.019527773   -5.2114754    0.9870874      1024000 
  354000   0.65723099   -5.2123042   -5.2123042   -4.2264597 -0.023121668   -5.2123042   0.98584448      1024000 
  355000   0.65655827   -5.2116447   -5.2116447   -4.2268093 -0.021511103   -5.2116447   0.98483541      1024000 
  356000   0.65696979   -5.2136684   -5.2136684   -4.2282158 -0.024398254   -5.2136684   0.98545268      1024000 
  357000   0.65596662   -5.2138174   -5.2138174   -4.2298694 -0.021000797   -5.2138174   0.98394793      1024000 
  358000   0.65594299   -5.2145881   -5.2145881   -4.2306756 -0.021600034   -5.2145881   0.98391248      1024000 
  359000   0.65630697   -5.2160597   -5.2160597   -4.2316013 -0.019398178   -5.2160597   0.98445846      1024000 
  360000   0.65736511    -5.219612    -5.219612   -4.2335663 -0.025889972    -5.219612   0.98604566      1024000 
  361000   0.65676852   -5.2204772   -5.2204772   -4.2353265 -0.021954104   -5.2204772   0.98515078      1024000 
  362000   0.65633896   -5.2211454   -5.2211454   -4.2366389 -0.017293293   -5.2211454   0.98450644      1024000 
  363000   0.65698435   -5.2232349   -5.2232349   -4.2377604 -0.014203106   -5.2232349   0.98547452      1024000 
  364000   0.65716885   -5.2243665   -5.2243665   -4.2386152 -0.011661869   -5.2243665   0.98575127      1024000 
  365000   0.65605977   -5.2237715   -5.2237715   -4.2396839 -0.0098937754   -5.2237715   0.98408766      1024000 
  366000   0.65775327   -5.2275575   -5.2275575   -4.2409296 -0.011001038   -5.2275575   0.98662791      1024000 
  367000   0.65792318   -5.2289005   -5.2289005   -4.2420178 -0.0074293962   -5.2289005   0.98688277      1024000 
  368000   0.65692781    -5.228844    -5.228844   -4.2434543 -0.0047693953    -5.228844   0.98538972      1024000 
  369000   0.65818855   -5.2311921   -5.2311921   -4.2439113 -0.0070349925   -5.2311921   0.98728082      1024000 
  370000   0.65617227   -5.2302763   -5.2302763   -4.2460199 -0.0053773105   -5.2302763   0.98425642      1024000 
  371000   0.65711376   -5.2324712   -5.2324712   -4.2468025 -0.0077330286   -5.2324712   0.98566864      1024000 
  372000   0.65591782   -5.2317109   -5.2317109   -4.2478361 -0.0087327669   -5.2317109   0.98387473      1024000 
  373000    0.6555081   -5.2324177   -5.2324177   -4.2491576 -0.009095051   -5.2324177   0.98326015      1024000 
  374000   0.65537939   -5.2332193   -5.2332193   -4.2501522 -0.010639341   -5.2332193   0.98306709      1024000 
  375000    0.6552343   -5.2343591   -5.2343591   -4.2515097 -0.017295091   -5.2343591   0.98284946      1024000 
  376000   0.65483463   -5.2350814   -5.2350814   -4.2528314 -0.019163942   -5.2350814   0.98224996      1024000 
  377000   0.65445925   -5.2361677   -5.2361677   -4.2544809 -0.019920695   -5.2361677   0.98168688      1024000 
  378000    0.6544689     -5.23714     -5.23714   -4.2554387 -0.022214899     -5.23714   0.98170136      1024000 
  379000   0.65408414   -5.2367046   -5.2367046   -4.2555804  -0.02442597   -5.2367046   0.98112422      1024000 
  380000   0.65317005   -5.2369382   -5.2369382   -4.2571851 -0.022510917   -5.2369382   0.97975308      1024000 
  381000   0.65343786   -5.2389559   -5.2389559   -4.2588011 -0.026867864   -5.2389559    0.9801548      1024000 
  382000    0.6528454   -5.2394684   -5.2394684   -4.2602023 -0.021995291   -5.2394684   0.97926611      1024000 
  383000   0.65208345   -5.2389259   -5.2389259   -4.2608028 -0.013336472   -5.2389259   0.97812318      1024000 
  384000   0.65252934   -5.2412934   -5.2412934   -4.2625014 -0.014484896   -5.2412934   0.97879202      1024000 
  385000   0.65326013     -5.24328     -5.24328   -4.2633918 -0.018815535     -5.24328    0.9798882      1024000 
  386000   0.65368572   -5.2453714   -5.2453714   -4.2648448 -0.016181605   -5.2453714    0.9805266      1024000 
  387000   0.65329733   -5.2470485   -5.2470485   -4.2671045 -0.016768742   -5.2470485     0.979944      1024000 
  388000    0.6533284   -5.2476854   -5.2476854   -4.2676947 -0.015010113   -5.2476854   0.97999062      1024000 
  389000   0.65296749   -5.2481171   -5.2481171   -4.2686679 -0.0089131805   -5.2481171   0.97944925      1024000 
  390000   0.65275914   -5.2495384   -5.2495384   -4.2704017 -0.013503064   -5.2495384   0.97913673      1024000 
  391000   0.65238954    -5.250171    -5.250171   -4.2715887 -0.012595455    -5.250171   0.97858232      1024000 
  392000   0.65315033   -5.2517775   -5.2517775   -4.2720539 -0.0075329291   -5.2517775   0.97972351      1024000 
  393000   0.65368197    -5.253389    -5.253389   -4.2728681 -0.0081344409    -5.253389   0.98052097      1024000 
  394000   0.65326989    -5.253576    -5.253576   -4.2736732 -0.0072257464    -5.253576   0.97990285      1024000 
  395000   0.65269951   -5.2535608   -5.2535608   -4.2745135 -0.007419808   -5.2535608   0.97904728      1024000 
  396000   0.65267721   -5.2548727   -5.2548727   -4.2758589 -0.013465008   -5.2548727   0.97901383      1024000 
  397000   0.65242614   -5.2555978   -5.2555978   -4.2769606 -0.010038168   -5.2555978   0.97863722      1024000 
  398000   0.65139997   -5.2565048   -5.2565048   -4.2794068  -0.01335364   -5.2565048   0.97709797      1024000 
  399000   0.65178128   -5.2582229   -5.2582229    -4.280553  -0.01790683   -5.2582229   0.97766994      1024000 
  400000   0.65101918   -5.2588407   -5.2588407   -4.2823139 -0.020029138   -5.2588407   0.97652679      1024000 
  401000   0.65006921   -5.2579571   -5.2579571   -4.2828553 -0.018564238   -5.2579571   0.97510183      1024000 
  402000   0.65053558   -5.2590331   -5.2590331   -4.2832317  -0.02097752   -5.2590331   0.97580138      1024000 
  403000   0.65004832   -5.2593762   -5.2593762   -4.2843057 -0.014764743   -5.2593762    0.9750705      1024000 
  404000    0.6511806   -5.2622199   -5.2622199    -4.285451 -0.021475878   -5.2622199   0.97676892      1024000 
  405000   0.65071885   -5.2626163   -5.2626163     -4.28654 -0.017761336   -5.2626163    0.9760763      1024000 
  406000   0.65089852    -5.263645    -5.263645   -4.2872992 -0.021792868    -5.263645   0.97634579      1024000 
  407000   0.64979802    -5.263549    -5.263549   -4.2888539 -0.018994444    -5.263549   0.97469505      1024000 
  408000   0.65117259   -5.2664986   -5.2664986   -4.2897417 -0.017731501   -5.2664986    0.9767569      1024000 
  409000   0.65091583   -5.2677334   -5.2677334   -4.2913616 -0.016399516   -5.2677334   0.97637177      1024000 
  410000   0.65042528   -5.2679769   -5.2679769    -4.292341 -0.013371084   -5.2679769   0.97563594      1024000 
  411000   0.65062178   -5.2684739   -5.2684739   -4.2925432 -0.013121059   -5.2684739   0.97593069      1024000 
  412000   0.65161218   -5.2710243   -5.2710243    -4.293608 -0.011416969   -5.2710243   0.97741629      1024000 
  413000    0.6505046   -5.2701843   -5.2701843   -4.2944294 -0.0062790039   -5.2701843   0.97575492      1024000 
  414000   0.65094949     -5.27229     -5.27229   -4.2958678   -0.0107468     -5.27229   0.97642225      1024000 
  415000   0.65096481   -5.2734326   -5.2734326   -4.2969873 -0.0091605237   -5.2734326   0.97644524      1024000 
  416000   0.65006015   -5.2729772   -5.2729772   -4.2978889 -0.0093434453   -5.2729772   0.97508824      1024000 
  417000    0.6509134    -5.274782    -5.274782   -4.2984139 -0.0064249117    -5.274782   0.97636812      1024000 
  418000   0.64954094   -5.2744278   -5.2744278   -4.3001184 -0.010828486   -5.2744278   0.97430944      1024000 
  419000   0.65022299   -5.2765482   -5.2765482   -4.3012157 -0.012208484   -5.2765482   0.97533251      1024000 
  420000   0.64928296   -5.2759411   -5.2759411   -4.3020186  -0.01074551   -5.2759411   0.97392247      1024000 
  421000   0.64992572   -5.2783778   -5.2783778   -4.3034912 -0.017316587   -5.2783778   0.97488661      1024000 
  422000   0.64893641   -5.2770573   -5.2770573   -4.3036547 -0.016996928   -5.2770573   0.97340264      1024000 
  423000   0.64761751   -5.2767771   -5.2767771   -4.3053528 -0.019476737   -5.2767771   0.97142429      1024000 
  424000   0.64876188   -5.2794896   -5.2794896   -4.3063487 -0.023006433   -5.2794896   0.97314084      1024000 
  425000    0.6472452   -5.2782016   -5.2782016   -4.3073358 -0.016497074   -5.2782016   0.97086583      1024000 
  426000   0.64764289   -5.2803269   -5.2803269   -4.3088645 -0.020326844   -5.2803269   0.97146237      1024000 
  427000   0.64813909   -5.2825273   -5.2825273   -4.3103206 -0.024316716   -5.2825273   0.97220666      1024000 
  428000   0.64824936   -5.2829154   -5.2829154   -4.3105434 -0.021123918   -5.2829154   0.97237206      1024000 
  429000   0.64701812   -5.2819654   -5.2819654   -4.3114402 -0.016460588   -5.2819654   0.97052521      1024000 
  430000     0.647114   -5.2840766   -5.2840766   -4.3134075 -0.018813441   -5.2840766   0.97066904      1024000 
  431000   0.64726884   -5.2845545   -5.2845545   -4.3136532 -0.015770478   -5.2845545   0.97090129      1024000 
  432000   0.64795501   -5.2868902   -5.2868902   -4.3149597 -0.017805041   -5.2868902   0.97193054      1024000 
  433000   0.64786704   -5.2885368   -5.2885368   -4.3167382 -0.017931025   -5.2885368   0.97179859      1024000 
  434000   0.64816635   -5.2896047   -5.2896047   -4.3173571 -0.018963274   -5.2896047   0.97224755      1024000 
  435000   0.64704497    -5.289564    -5.289564   -4.3189985 -0.012629225    -5.289564   0.97056549      1024000 
  436000   0.64724371   -5.2909715   -5.2909715   -4.3201079  -0.01253728   -5.2909715   0.97086359      1024000 
  437000   0.64652881   -5.2916441   -5.2916441   -4.3218528  -0.01243691   -5.2916441   0.96979124      1024000 
  438000   0.64699542   -5.2929407   -5.2929407   -4.3224495 -0.013448696   -5.2929407   0.97049115      1024000 
  439000   0.64674921   -5.2937319   -5.2937319     -4.32361 -0.013388386   -5.2937319   0.97012185      1024000 
  440000   0.64648943   -5.2942234   -5.2942234   -4.3244912 -0.010202159   -5.2942234   0.96973218      1024000 
  441000   0.64683639   -5.2952852   -5.2952852   -4.3250326 -0.010261094   -5.2952852   0.97025262      1024000 
  442000   0.64699837   -5.2965076   -5.2965076    -4.326012 -0.015454906   -5.2965076   0.97049558      1024000 
  443000   0.64662015   -5.2969417   -5.2969417   -4.3270134 -0.014231347   -5.2969417   0.96992825      1024000 
  444000   0.64558704   -5.2960699   -5.2960699   -4.3276913 -0.011524968   -5.2960699   0.96837859      1024000 
  445000   0.64601211   -5.2974434   -5.2974434   -4.3284272 -0.012022706   -5.2974434    0.9690162      1024000 
  446000   0.64749719   -5.3002951   -5.3002951   -4.3290513 -0.018135911   -5.3002951   0.97124381      1024000 
  447000   0.64662887   -5.3007508   -5.3007508   -4.3308095 -0.018705063   -5.3007508   0.96994134      1024000 
  448000   0.64503477   -5.2999829   -5.2999829   -4.3324327 -0.018818036   -5.2999829   0.96755019      1024000 
  449000   0.64465013   -5.3005538   -5.3005538   -4.3335805 -0.020027535   -5.3005538   0.96697324      1024000 
  450000    0.6443874   -5.3007676   -5.3007676   -4.3341885 -0.021655726   -5.3007676   0.96657914      1024000 
  451000   0.64392464   -5.3015305   -5.3015305   -4.3356455 -0.020242673   -5.3015305     0.965885      1024000 
  452000   0.64442359   -5.3030947   -5.3030947   -4.3364612 -0.020387172   -5.3030947   0.96663342      1024000 
  453000   0.64518521   -5.3048992   -5.3048992   -4.3371233 -0.020406162   -5.3048992   0.96777585      1024000 
  454000   0.64491424   -5.3054855   -5.3054855   -4.3381161 -0.018290408   -5.3054855    0.9673694      1024000 
  455000   0.64486356   -5.3064072   -5.3064072   -4.3391138 -0.014359894   -5.3064072   0.96729338      1024000 
  456000   0.64538196   -5.3084629   -5.3084629   -4.3403919 -0.018824281   -5.3084629   0.96807098      1024000 
  457000   0.64441296   -5.3084381   -5.3084381   -4.3418206 -0.018774091   -5.3084381   0.96661748      1024000 
  458000   0.64313161   -5.3070609   -5.3070609   -4.3423654 -0.010542105   -5.3070609   0.96469545      1024000 
  459000   0.64429641   -5.3097985   -5.3097985   -4.3433558 -0.014075393   -5.3097985   0.96644265      1024000 
  460000   0.64415008   -5.3100147   -5.3100147   -4.3437916 -0.012218179   -5.3100147   0.96622315      1024000 
  461000   0.64424699   -5.3109681   -5.3109681   -4.3445996  -0.01054811   -5.3109681   0.96636853      1024000 
  462000   0.64452423   -5.3125886   -5.3125886   -4.3458043 -0.012533822   -5.3125886   0.96678438      1024000 
  463000   0.64387735   -5.3121882   -5.3121882   -4.3463741  -0.01211486   -5.3121882   0.96581406      1024000 
  464000   0.64418133   -5.3134954   -5.3134954   -4.3472254 -0.012989109   -5.3134954   0.96627004      1024000 
  465000   0.64418673   -5.3144982   -5.3144982   -4.3482201 -0.010881052   -5.3144982   0.96627814      1024000 
  466000   0.64472681   -5.3155823   -5.3155823    -4.348494 -0.017857702   -5.3155823   0.96708825      1024000 
  467000   0.64428208   -5.3160157   -5.3160157   -4.3495945 -0.018453964   -5.3160157   0.96642116      1024000 
  468000    0.6441732   -5.3160016   -5.3160016   -4.3497438 -0.013665317   -5.3160016   0.96625784      1024000 
  469000   0.64383554   -5.3171234   -5.3171234    -4.351372 -0.020438635   -5.3171234   0.96575134      1024000 
  470000   0.64320238   -5.3169373   -5.3169373   -4.3521357 -0.020412758   -5.3169373   0.96480161      1024000 
  471000   0.64335931   -5.3179825   -5.3179825   -4.3529455  -0.01826856   -5.3179825   0.96503701      1024000 
  472000   0.64241958   -5.3173083   -5.3173083   -4.3536809 -0.018247703   -5.3173083   0.96362742      1024000 
  473000   0.64258533   -5.3188681   -5.3188681   -4.3549921 -0.020887059   -5.3188681   0.96387604      1024000 
  474000   0.64233377   -5.3202309   -5.3202309   -4.3567322 -0.020383258   -5.3202309    0.9634987      1024000 
  475000    0.6405552    -5.318008    -5.318008   -4.3571772 -0.013739296    -5.318008   0.96083085      1024000 
  476000   0.64302265   -5.3225197   -5.3225197   -4.3579877 -0.021154088   -5.3225197   0.96453202      1024000 
  477000    0.6411361   -5.3210061   -5.3210061   -4.3593039 -0.011606578   -5.3210061    0.9617022      1024000 
  478000   0.64238027    -5.323178    -5.323178   -4.3596096 -0.012782692    -5.323178   0.96356845      1024000 
  479000   0.64255241   -5.3240751   -5.3240751   -4.3602484 -0.011724913   -5.3240751   0.96382666      1024000 
  480000   0.64201619   -5.3237752   -5.3237752   -4.3607529 -0.011472163   -5.3237752   0.96302232      1024000 
  481000   0.64162652   -5.3245116   -5.3245116   -4.3620737 -0.0094970073   -5.3245116   0.96243783      1024000 
  482000   0.64152342   -5.3255905   -5.3255905   -4.3633073 -0.012923703   -5.3255905   0.96228318      1024000 
  483000   0.64107057   -5.3260473   -5.3260473   -4.3644434 -0.013132244   -5.3260473    0.9616039      1024000 
  484000   0.64188125   -5.3280242   -5.3280242   -4.3652043 -0.015013992   -5.3280242   0.96281992      1024000 
  485000   0.64080628   -5.3274901   -5.3274901   -4.3662827 -0.013144037   -5.3274901   0.96120747      1024000 
  486000   0.64141872   -5.3295808   -5.3295808   -4.3674547 -0.016918095   -5.3295808   0.96212613      1024000 
  487000   0.64125518   -5.3305766   -5.3305766   -4.3686957 -0.016162405   -5.3305766   0.96188082      1024000 
  488000   0.64111889   -5.3304296   -5.3304296   -4.3687532 -0.017163644   -5.3304296   0.96167638      1024000 
  489000   0.64148784   -5.3312477   -5.3312477   -4.3690179 -0.015245605   -5.3312477   0.96222981      1024000 
  490000   0.64053815   -5.3311038   -5.3311038   -4.3702986 -0.015683778   -5.3311038   0.96080528      1024000 
  491000     0.640741   -5.3318712   -5.3318712   -4.3707616 -0.018414831   -5.3318712   0.96110956      1024000 
  492000   0.64114216   -5.3333635   -5.3333635   -4.3716522   -0.0194902   -5.3333635   0.96171129      1024000 
  493000   0.63990396   -5.3324385   -5.3324385   -4.3725845  -0.02133397   -5.3324385     0.959854      1024000 
  494000   0.63991833   -5.3336957   -5.3336957   -4.3738202 -0.020646713   -5.3336957   0.95987555      1024000 
  495000   0.64028243   -5.3350986   -5.3350986   -4.3746769 -0.019969085   -5.3350986    0.9604217      1024000 
  496000   0.63915206   -5.3342366   -5.3342366   -4.3755105 -0.016503969   -5.3342366   0.95872615      1024000 
  497000   0.63971244   -5.3359904   -5.3359904   -4.3764237 -0.019954539   -5.3359904   0.95956671      1024000 
  498000    0.6396628   -5.3362634   -5.3362634   -4.3767712 -0.021524587   -5.3362634   0.95949225      1024000 
  499000   0.63897093   -5.3363464   -5.3363464   -4.3778919 -0.015767095   -5.3363464   0.95845446      1024000 
  500000   0.63993235   -5.3376875   -5.3376875    -4.377791 -0.017605936   -5.3376875   0.95989657      1024000 
  501000   0.64048534   -5.3395594   -5.3395594   -4.3788334 -0.016449803   -5.3395594   0.96072606      1024000 
  502000    0.6399043   -5.3394606   -5.3394606   -4.3796061 -0.012883948   -5.3394606    0.9598545      1024000 
  503000   0.64026919   -5.3409693   -5.3409693   -4.3805675 -0.016434047   -5.3409693   0.96040184      1024000 
  504000   0.63965762   -5.3410186   -5.3410186   -4.3815341 -0.015324223   -5.3410186   0.95948449      1024000 
  505000   0.63984022   -5.3425223   -5.3425223   -4.3827639  -0.01558175   -5.3425223   0.95975838      1024000 
  506000   0.64015772   -5.3437565   -5.3437565   -4.3835219  -0.01607927   -5.3437565   0.96023463      1024000 
  507000   0.63959234   -5.3440434   -5.3440434   -4.3846568 -0.013411938   -5.3440434   0.95938656      1024000 
  508000   0.63974742   -5.3449162   -5.3449162    -4.385297 -0.013189143   -5.3449162   0.95961918      1024000 
  509000   0.63981207   -5.3450588   -5.3450588   -4.3853426 -0.014571893   -5.3450588   0.95971616      1024000 
  510000   0.63888525   -5.3448387   -5.3448387   -4.3865128 -0.012528298   -5.3448387   0.95832594      1024000 
  511000   0.63899841   -5.3458873   -5.3458873   -4.3873917 -0.013593489   -5.3458873   0.95849567      1024000 
  512000   0.64017691   -5.3481511   -5.3481511   -4.3878877 -0.018015571   -5.3481511   0.96026341      1024000 
  513000   0.63857452    -5.347059    -5.347059   -4.3891992 -0.014263668    -5.347059   0.95785983      1024000 
  514000   0.63950996   -5.3491813   -5.3491813   -4.3899183 -0.017696614   -5.3491813   0.95926299      1024000 
  515000   0.63914032   -5.3499183   -5.3499183   -4.3912098 -0.015917254   -5.3499183   0.95870853      1024000 
  516000   0.63854936   -5.3507533   -5.3507533   -4.3929312 -0.017639194   -5.3507533    0.9578221      1024000 
  517000   0.63819719   -5.3502088   -5.3502088    -4.392915 -0.014484979   -5.3502088   0.95729384      1024000 
  518000   0.63907727   -5.3520948   -5.3520948   -4.3934809 -0.017876021   -5.3520948   0.95861396      1024000 
  519000   0.63852456   -5.3518599   -5.3518599    -4.394075 -0.019344125   -5.3518599    0.9577849      1024000 
  520000   0.63727163   -5.3517112   -5.3517112   -4.3958057 -0.018170927   -5.3517112   0.95590551      1024000 
  521000   0.63794823   -5.3531284   -5.3531284    -4.396208 -0.021041525   -5.3531284    0.9569204      1024000 
  522000   0.63850832     -5.35461     -5.35461   -4.3968494 -0.025863456     -5.35461   0.95776054      1024000 
  523000   0.63712172   -5.3532954   -5.3532954   -4.3976148 -0.020630778   -5.3532954   0.95568064      1024000 
  524000   0.63738564   -5.3548984   -5.3548984   -4.3988219 -0.024410156   -5.3548984   0.95607651      1024000 
  525000   0.63685075   -5.3548305   -5.3548305   -4.3995563 -0.017425356   -5.3548305   0.95527419      1024000 
  526000   0.63806961   -5.3577965   -5.3577965   -4.4006941 -0.029197663   -5.3577965   0.95710247      1024000 
  527000   0.63825181   -5.3578914   -5.3578914   -4.4005156 -0.020555326   -5.3578914   0.95737578      1024000 
  528000   0.63818329   -5.3590934   -5.3590934   -4.4018204 -0.021795545   -5.3590934     0.957273      1024000 
  529000   0.63672098    -5.358104    -5.358104   -4.4030244 -0.017095337    -5.358104   0.95507953      1024000 
  530000   0.63803623   -5.3607856   -5.3607856   -4.4037332 -0.023074047   -5.3607856    0.9570524      1024000 
  531000   0.63777944   -5.3618341   -5.3618341   -4.4051669  -0.01738083   -5.3618341   0.95666722      1024000 
  532000   0.63666701   -5.3618241   -5.3618241   -4.4068255 -0.018761579   -5.3618241   0.95499857      1024000 
  533000   0.63675454   -5.3630988   -5.3630988   -4.4079689  -0.01873097   -5.3630988   0.95512987      1024000 
  534000   0.63725871   -5.3643833   -5.3643833   -4.4084972  -0.01791069   -5.3643833   0.95588613      1024000 
  535000   0.63689939   -5.3647974   -5.3647974   -4.4094502 -0.016555271   -5.3647974   0.95534715      1024000 
  536000   0.63701649   -5.3657278   -5.3657278    -4.410205  -0.01853422   -5.3657278    0.9555228      1024000 
  537000   0.63734239   -5.3670685   -5.3670685   -4.4110568 -0.019273234   -5.3670685   0.95601165      1024000 
  538000   0.63749333   -5.3683202   -5.3683202   -4.4120822 -0.020827396   -5.3683202   0.95623805      1024000 
  539000   0.63617455    -5.367362    -5.367362   -4.4131021 -0.017481747    -5.367362   0.95425989      1024000 
  540000   0.63526977   -5.3667696   -5.3667696   -4.4138668 -0.019802446   -5.3667696   0.95290273      1024000 
  541000   0.63610729   -5.3685402   -5.3685402   -4.4143812 -0.022866183   -5.3685402     0.954159      1024000 
  542000   0.63598873   -5.3691758   -5.3691758   -4.4151946 -0.022094487   -5.3691758   0.95398116      1024000 
  543000   0.63629602   -5.3703054   -5.3703054   -4.4158633 -0.023358338   -5.3703054    0.9544421      1024000 
  544000   0.63610979   -5.3704868   -5.3704868   -4.4163241 -0.024046392   -5.3704868   0.95416275      1024000 
  545000   0.63651392   -5.3713215   -5.3713215   -4.4165526 -0.025709332   -5.3713215   0.95476894      1024000 
  546000   0.63504201   -5.3701751   -5.3701751    -4.417614  -0.02274399   -5.3701751   0.95256108      1024000 
  547000   0.63533519   -5.3721324   -5.3721324   -4.4191315  -0.02449628   -5.3721324   0.95300085      1024000 
  548000   0.63463895   -5.3719866   -5.3719866   -4.4200301 -0.023784904   -5.3719866   0.95195649      1024000 
  549000   0.63557168   -5.3744286   -5.3744286    -4.421073 -0.027315008   -5.3744286   0.95335558      1024000 
  550000   0.63449284   -5.3728781   -5.3728781   -4.4211408 -0.022441689   -5.3728781   0.95173733      1024000 
  551000   0.63486852     -5.37423     -5.37423   -4.4219291 -0.021453583     -5.37423   0.95230084      1024000 
  552000   0.63554892   -5.3758209   -5.3758209   -4.4224995 -0.024196993   -5.3758209   0.95332145      1024000 
  553000   0.63465366   -5.3754257   -5.3754257   -4.4234471 -0.017553008   -5.3754257   0.95197856      1024000 
  554000   0.63554153   -5.3765867   -5.3765867   -4.4232764 -0.018701507   -5.3765867   0.95331036      1024000 
  555000    0.6361981   -5.3783705   -5.3783705   -4.4240753 -0.019617656   -5.3783705   0.95429521      1024000 
  556000   0.63647143   -5.3788849   -5.3788849   -4.4241797 -0.018354963   -5.3788849   0.95470521      1024000 
  557000   0.63611362    -5.380072    -5.380072   -4.4259035 -0.021775812    -5.380072   0.95416849      1024000 
  558000   0.63498122   -5.3794257   -5.3794257   -4.4269558  -0.01720573   -5.3794257   0.95246989      1024000 
  559000   0.63509886   -5.3796804   -5.3796804    -4.427034 -0.018907221   -5.3796804   0.95264636      1024000 
  560000   0.63464975    -5.380262    -5.380262   -4.4282893 -0.016889723    -5.380262   0.95197269      1024000 
  561000   0.63507575   -5.3817893   -5.3817893   -4.4291776 -0.021371931   -5.3817893   0.95261169      1024000 
  562000   0.63488025    -5.381201    -5.381201   -4.4288826 -0.019855268    -5.381201   0.95231844      1024000 
  563000     0.633957   -5.3807342   -5.3807342   -4.4298006 -0.017484836   -5.3807342   0.95093357      1024000 
  564000   0.63458932   -5.3816213   -5.3816213   -4.4297392 -0.020607019   -5.3816213   0.95188206      1024000 
  565000   0.63544618   -5.3840936   -5.3840936   -4.4309263  -0.02373507   -5.3840936   0.95316733      1024000 
  566000    0.6350737   -5.3845663   -5.3845663   -4.4319576 -0.028482497   -5.3845663   0.95260862      1024000 
  567000   0.63431282   -5.3843277   -5.3843277   -4.4328604 -0.024318156   -5.3843277    0.9514673      1024000 
  568000   0.63472235    -5.384684    -5.384684   -4.4326024 -0.023077115    -5.384684    0.9520816      1024000 
  569000    0.6346452   -5.3849698   -5.3849698   -4.4330039 -0.023546655   -5.3849698   0.95196587      1024000 
  570000   0.63306676   -5.3834581   -5.3834581   -4.4338599 -0.018429321   -5.3834581   0.94959822      1024000 
  571000    0.6351812   -5.3873664   -5.3873664   -4.4345965 -0.024757504   -5.3873664   0.95276987      1024000 
  572000   0.63405572   -5.3869255   -5.3869255   -4.4358439 -0.022229677   -5.3869255   0.95108165      1024000 
  573000   0.63493883   -5.3883168   -5.3883168   -4.4359105 -0.022024265   -5.3883168   0.95240632      1024000 
  574000   0.63499301   -5.3891156   -5.3891156   -4.4366281 -0.021787032   -5.3891156   0.95248758      1024000 
  575000   0.63333715   -5.3880605   -5.3880605   -4.4380567 -0.017811724   -5.3880605    0.9500038      1024000 
  576000   0.63310676   -5.3880424   -5.3880424   -4.4383842 -0.017489465   -5.3880424   0.94965821      1024000 
  577000   0.63423035   -5.3911935   -5.3911935   -4.4398499 -0.020749642   -5.3911935    0.9513436      1024000 
  578000   0.63364699   -5.3912467   -5.3912467   -4.4407781  -0.01909948   -5.3912467   0.95046856      1024000 
  579000   0.63389912   -5.3922834   -5.3922834   -4.4414367 -0.020146796   -5.3922834   0.95084676      1024000 
  580000   0.63406487   -5.3932187   -5.3932187   -4.4421233 -0.021137387   -5.3932187   0.95109538      1024000 
  581000   0.63408915   -5.3938713   -5.3938713   -4.4427395 -0.024910607   -5.3938713    0.9511318      1024000 
  582000   0.63360598    -5.394479    -5.394479   -4.4440719 -0.020695469    -5.394479   0.95040704      1024000 
  583000   0.63358266   -5.3948873   -5.3948873   -4.4445152 -0.021581088   -5.3948873   0.95037206      1024000 
  584000   0.63188842   -5.3940156   -5.3940156   -4.4461849 -0.023437428   -5.3940156   0.94783071      1024000 
  585000   0.63210295   -5.3950294   -5.3950294   -4.4468769 -0.024230889   -5.3950294    0.9481525      1024000 
  586000   0.63260936   -5.3960128   -5.3960128   -4.4471007 -0.025530067   -5.3960128   0.94891211      1024000 
  587000   0.63290401   -5.3972399   -5.3972399   -4.4478858 -0.025482817   -5.3972399   0.94935409      1024000 
  588000   0.63327499    -5.398061    -5.398061   -4.4481504 -0.025988389    -5.398061   0.94991056      1024000 
  589000   0.63224391   -5.3975788   -5.3975788   -4.4492148 -0.021661581   -5.3975788   0.94836395      1024000 
  590000   0.63264541   -5.3987857   -5.3987857   -4.4498195 -0.023679425   -5.3987857   0.94896618      1024000 
  591000   0.63191425   -5.3985182   -5.3985182   -4.4506487 -0.020752443   -5.3985182   0.94786945      1024000 
  592000   0.63420973   -5.4023387   -5.4023387    -4.451026 -0.028955908   -5.4023387   0.95131266      1024000 
  593000   0.63277542   -5.4005804   -5.4005804   -4.4514191 -0.024523608   -5.4005804   0.94916121      1024000 
  594000   0.63230615   -5.4009489   -5.4009489   -4.4524916 -0.019560761   -5.4009489   0.94845729      1024000 
  595000   0.63296987   -5.4027514   -5.4027514   -4.4532985 -0.020350181   -5.4027514   0.94945287      1024000 
  596000   0.63236836   -5.4024484   -5.4024484   -4.4538978 -0.017608504   -5.4024484   0.94855062      1024000 
  597000   0.63250122   -5.4036085   -5.4036085   -4.4548586 -0.022681777   -5.4036085   0.94874991      1024000 
  598000    0.6338328   -5.4062335   -5.4062335   -4.4554862 -0.024305342   -5.4062335   0.95074728      1024000 
  599000   0.63196004   -5.4043817   -5.4043817   -4.4564435 -0.021660706   -5.4043817   0.94793814      1024000 
  600000   0.63259405   -5.4054814   -5.4054814   -4.4565923 -0.020896407   -5.4054814   0.94888915      1024000 
  601000   0.63252251   -5.4058456   -5.4058456   -4.4570638 -0.019816684   -5.4058456   0.94878185      1024000 
  602000    0.6322162    -5.405861    -5.405861   -4.4575386 -0.023135561    -5.405861   0.94832237      1024000 
  603000   0.63228182   -5.4067618   -5.4067618    -4.458341 -0.024546084   -5.4067618   0.94842081      1024000 
  604000   0.63230997   -5.4071798   -5.4071798   -4.4587167 -0.027123949   -5.4071798   0.94846303      1024000 
  605000   0.63254466   -5.4077523   -5.4077523   -4.4589372 -0.023529627   -5.4077523   0.94881506      1024000 
  606000   0.63171046   -5.4081197   -5.4081197   -4.4605559 -0.023994047   -5.4081197   0.94756377      1024000 
  607000   0.63194146   -5.4095527   -5.4095527   -4.4616424 -0.027684033   -5.4095527   0.94791026      1024000 
  608000   0.63029845   -5.4073724   -5.4073724   -4.4619266 -0.021640279   -5.4073724   0.94544576      1024000 
  609000   0.63125583   -5.4090244   -5.4090244   -4.4621426 -0.026625352   -5.4090244   0.94688182      1024000 
  610000   0.63028429   -5.4088075   -5.4088075    -4.463383 -0.024605067   -5.4088075   0.94542452      1024000 
  611000   0.63090588   -5.4096179   -5.4096179    -4.463261 -0.024904388   -5.4096179    0.9463569      1024000 
  612000    0.6319105   -5.4113536   -5.4113536   -4.4634898 -0.028438425   -5.4113536   0.94786383      1024000 
  613000   0.63060826   -5.4101397   -5.4101397   -4.4642293 -0.022567014   -5.4101397   0.94591047      1024000 
  614000   0.63114661    -5.411794    -5.411794    -4.465076 -0.027769083    -5.411794     0.946718      1024000 
  615000   0.63036527   -5.4118225   -5.4118225   -4.4662765 -0.022359507   -5.4118225   0.94554598      1024000 
  616000   0.63112833   -5.4131744   -5.4131744   -4.4664838 -0.022447734   -5.4131744   0.94669057      1024000 
  617000    0.6306964    -5.413485    -5.413485   -4.4674423  -0.01966077    -5.413485   0.94604268      1024000 
  618000   0.63030473   -5.4129389   -5.4129389   -4.4674837 -0.023642991   -5.4129389   0.94545518      1024000 
  619000   0.63082362   -5.4148142   -5.4148142   -4.4685807 -0.024933472   -5.4148142   0.94623351      1024000 
  620000    0.6307033   -5.4148378   -5.4148378   -4.4687847 -0.023339985   -5.4148378   0.94605304      1024000 
  621000   0.63114866   -5.4165872   -5.4165872   -4.4698662 -0.021102266   -5.4165872   0.94672107      1024000 
  622000   0.63054558   -5.4161579   -5.4161579   -4.4703415 -0.014948835   -5.4161579   0.94581645      1024000 
  623000   0.63148964   -5.4171835   -5.4171835    -4.469951 -0.017197957   -5.4171835   0.94723254      1024000 
  624000   0.63109734   -5.4170624   -5.4170624   -4.4704183 -0.020456134   -5.4170624   0.94664409      1024000 
  625000   0.63045373   -5.4168133   -5.4168133   -4.4711346 -0.022233857   -5.4168133   0.94567867      1024000 
  626000   0.63118115    -5.418764    -5.418764   -4.4719942  -0.02347587    -5.418764   0.94676981      1024000 
  627000    0.6303982   -5.4181272   -5.4181272   -4.4725318 -0.020552066   -5.4181272   0.94559537      1024000 
  628000   0.63073954   -5.4195676   -5.4195676   -4.4734602 -0.021579422   -5.4195676   0.94610739      1024000 
  629000   0.63029509   -5.4196399   -5.4196399   -4.4741992 -0.020697196   -5.4196399   0.94544071      1024000 
  630000    0.6300356    -5.419458    -5.419458   -4.4744065 -0.024550983    -5.419458   0.94505149      1024000 
  631000   0.63122764   -5.4219125   -5.4219125   -4.4750729 -0.024886109   -5.4219125   0.94683954      1024000 
  632000   0.62975953   -5.4204005   -5.4204005   -4.4757631 -0.020302961   -5.4204005   0.94463739      1024000 
  633000   0.62940847   -5.4200436   -5.4200436   -4.4759328  -0.02141912   -5.4200436   0.94411079      1024000 
  634000   0.62929273   -5.4212197   -5.4212197   -4.4772826 -0.022212732   -5.4212197   0.94393718      1024000 
  635000   0.62986587   -5.4216656   -5.4216656   -4.4768687 -0.023114795   -5.4216656   0.94479688      1024000 
  636000   0.63029028   -5.4228041   -5.4228041   -4.4773706 -0.022059459   -5.4228041    0.9454335      1024000 
  637000   0.63059058   -5.4228016   -5.4228016   -4.4769177 -0.022933106   -5.4228016   0.94588395      1024000 
  638000   0.63082367   -5.4240094   -5.4240094   -4.4777759 -0.023467296   -5.4240094   0.94623358      1024000 
  639000   0.62950743   -5.4233016   -5.4233016   -4.4790424 -0.018374256   -5.4233016   0.94425923      1024000 
  640000   0.63001427   -5.4243654   -5.4243654   -4.4793459 -0.022466522   -5.4243654   0.94501949      1024000 
  641000   0.62984338   -5.4246725   -5.4246725   -4.4799093 -0.021755938   -5.4246725   0.94476315      1024000 
  642000    0.6301662   -5.4268243   -5.4268243   -4.4815769 -0.026071175   -5.4268243   0.94524738      1024000 
  643000   0.62955666   -5.4268152   -5.4268152   -4.4824821  -0.02368612   -5.4268152   0.94433307      1024000 
  644000   0.62929591   -5.4273916   -5.4273916   -4.4834496 -0.019274379   -5.4273916   0.94394195      1024000 
  645000   0.62957329   -5.4282507   -5.4282507   -4.4838927 -0.023435073   -5.4282507   0.94435802      1024000 
  646000   0.62968207   -5.4286156   -5.4286156   -4.4840945 -0.020001454   -5.4286156   0.94452119      1024000 
  647000   0.62997289   -5.4291495   -5.4291495   -4.4841921 -0.020677487   -5.4291495   0.94495742      1024000 
  648000    0.6302108   -5.4305736   -5.4305736   -4.4852593 -0.022102853   -5.4305736   0.94531428      1024000 
  649000   0.62933891    -5.430185    -5.430185   -4.4861785 -0.020451142    -5.430185   0.94400645      1024000 
  650000   0.62925188   -5.4300661   -5.4300661   -4.4861902 -0.017454196   -5.4300661   0.94387591      1024000 
  651000   0.62955744   -5.4313475   -5.4313475   -4.4870133 -0.020780345   -5.4313475   0.94433424      1024000 
  652000   0.63062816   -5.4332136   -5.4332136   -4.4872733 -0.026658993   -5.4332136   0.94594032      1024000 
  653000   0.62878266   -5.4316114   -5.4316114   -4.4884393 -0.021315506   -5.4316114   0.94317207      1024000 
  654000   0.62906327   -5.4321076   -5.4321076   -4.4885146 -0.021055533   -5.4321076   0.94359299      1024000 
  655000   0.62863713   -5.4318933   -5.4318933   -4.4889395 -0.021879904   -5.4318933   0.94295377      1024000 
  656000   0.62917579   -5.4332148   -5.4332148   -4.4894531 -0.023403626   -5.4332148   0.94376177      1024000 
  657000   0.62823541   -5.4326609   -5.4326609   -4.4903097  -0.01719986   -5.4326609    0.9423512      1024000 
  658000   0.62867968   -5.4338186   -5.4338186    -4.490801  -0.02188814   -5.4338186   0.94301761      1024000 
  659000   0.62842473   -5.4342403   -5.4342403   -4.4916051 -0.021031977   -5.4342403   0.94263519      1024000 
  660000   0.63002486   -5.4359591   -5.4359591   -4.4909237  -0.02165912   -5.4359591   0.94503538      1024000 
  661000   0.62921376   -5.4352274   -5.4352274   -4.4914087 -0.020336569   -5.4352274   0.94381873      1024000 
  662000   0.62911324   -5.4347127   -5.4347127   -4.4910447 -0.016216801   -5.4347127   0.94366794      1024000 
  663000   0.62917442   -5.4363497   -5.4363497     -4.49259 -0.020804791   -5.4363497   0.94375971      1024000 
  664000   0.62960795   -5.4373204   -5.4373204   -4.4929104 -0.017605529   -5.4373204   0.94441001      1024000 
  665000   0.62943895   -5.4374923   -5.4374923   -4.4933357 -0.020168817   -5.4374923   0.94415652      1024000 
  666000   0.62895368    -5.438419    -5.438419   -4.4949903 -0.017950795    -5.438419   0.94342861      1024000 
  667000   0.62818618   -5.4375059   -5.4375059   -4.4952285  -0.01795973   -5.4375059   0.94227735      1024000 
  668000   0.62832581   -5.4376654   -5.4376654   -4.4951786  -0.01587245   -5.4376654    0.9424868      1024000 
  669000   0.62901806   -5.4387541   -5.4387541   -4.4952289 -0.017236397   -5.4387541   0.94352518      1024000 
  670000   0.62805047   -5.4382361   -5.4382361   -4.4961623 -0.015278339   -5.4382361   0.94207379      1024000 
  671000   0.62824537   -5.4390985   -5.4390985   -4.4967324 -0.016401927   -5.4390985   0.94236614      1024000 
  672000    0.6290743   -5.4407925   -5.4407925    -4.497183 -0.018703837   -5.4407925   0.94360953      1024000 
  673000   0.62857265   -5.4407836   -5.4407836   -4.4979265 -0.017840343   -5.4407836   0.94285707      1024000 
  674000   0.62866477   -5.4408205   -5.4408205   -4.4978253 -0.013616066   -5.4408205   0.94299524      1024000 
  675000   0.62857214   -5.4412146   -5.4412146   -4.4983583 -0.018987336   -5.4412146   0.94285629      1024000 
  676000   0.62794348   -5.4413176   -5.4413176   -4.4994043 -0.018371188   -5.4413176    0.9419133      1024000 
  677000   0.62888059   -5.4433284   -5.4433284   -4.5000094 -0.018351051   -5.4433284   0.94331897      1024000 
  678000   0.62850937   -5.4439514   -5.4439514   -4.5011893 -0.020146189   -5.4439514   0.94276214      1024000 
  679000   0.62852412   -5.4445641   -5.4445641   -4.5017799 -0.023081216   -5.4445641   0.94278426      1024000 
  680000   0.62775042   -5.4437664   -5.4437664   -4.5021426 -0.020545007   -5.4437664   0.94162372      1024000 
  681000   0.62799338   -5.4441053   -5.4441053   -4.5021172 -0.022731954   -5.4441053   0.94198817      1024000 
  682000   0.62807176    -5.445193    -5.445193   -4.5030872  -0.01807432    -5.445193   0.94210573      1024000 
  683000    0.6274113   -5.4447178   -5.4447178   -4.5036028 -0.021021943   -5.4447178   0.94111504      1024000 
  684000   0.62774796   -5.4453361   -5.4453361   -4.5037161 -0.019102533   -5.4453361   0.94162003      1024000 
  685000   0.62827902   -5.4473423   -5.4473423   -4.5049257 -0.023300568   -5.4473423   0.94241662      1024000 
  686000   0.62818188   -5.4471414   -5.4471414   -4.5048705 -0.018142187   -5.4471414    0.9422709      1024000 
  687000    0.6281211   -5.4481365   -5.4481365   -4.5059568 -0.019444142   -5.4481365   0.94217974      1024000 
  688000    0.6280783   -5.4482125   -5.4482125   -4.5060969 -0.016110255   -5.4482125   0.94211554      1024000 
  689000   0.62798846   -5.4488473   -5.4488473   -4.5068666 -0.019543794   -5.4488473   0.94198077      1024000 
  690000   0.62761752   -5.4482059   -5.4482059   -4.5067815  -0.01645578   -5.4482059   0.94142438      1024000 
  691000   0.62817362   -5.4490562   -5.4490562   -4.5067976 -0.018442527   -5.4490562   0.94225852      1024000 
  692000   0.62882383   -5.4505763   -5.4505763   -4.5073425 -0.021372125   -5.4505763   0.94323383      1024000 
  693000   0.62847145    -5.450246    -5.450246   -4.5075407  -0.01819986    -5.450246   0.94270526      1024000 
  694000   0.62767544   -5.4504778   -5.4504778   -4.5089666 -0.017284476   -5.4504778   0.94151126      1024000 
  695000   0.62724828   -5.4494511   -5.4494511   -4.5085806 -0.017966021   -5.4494511   0.94087051      1024000 
  696000   0.62752158   -5.4501646   -5.4501646   -4.5088841 -0.014995068   -5.4501646   0.94128045      1024000 
  697000   0.62851737   -5.4525598   -5.4525598   -4.5097857 -0.020886906   -5.4525598   0.94277415      1024000 
  698000   0.62835866   -5.4524319   -5.4524319   -4.5098958 -0.023794963   -5.4524319   0.94253607      1024000 
  699000   0.62743851   -5.4518734   -5.4518734   -4.5107175 -0.018829593   -5.4518734   0.94115586      1024000 
  700000   0.62683877   -5.4513523   -5.4513523   -4.5110961  -0.01598837   -5.4513523   0.94025624      1024000 
  701000    0.6277332   -5.4530237   -5.4530237   -4.5114259 -0.018354656   -5.4530237   0.94159788      1024000 
  702000   0.62777991   -5.4529811   -5.4529811   -4.5113131 -0.019645833   -5.4529811   0.94166796      1024000 
  703000    0.6273276   -5.4539927   -5.4539927   -4.5130032 -0.018620251   -5.4539927   0.94098949      1024000 
  704000   0.62677642   -5.4542077   -5.4542077   -4.5140449 -0.015189082   -5.4542077   0.94016272      1024000 
  705000   0.62642694   -5.4541604   -5.4541604   -4.5145219  -0.01523032   -5.4541604    0.9396385      1024000 
  706000   0.62730872   -5.4557327   -5.4557327   -4.5147715 -0.018724137   -5.4557327   0.94096117      1024000 
  707000   0.62630256    -5.454649    -5.454649   -4.5151971 -0.015462302    -5.454649   0.93945194      1024000 
  708000   0.62712587   -5.4560928   -5.4560928   -4.5154059 -0.021012479   -5.4560928   0.94068689      1024000 
  709000   0.62845292   -5.4591492   -5.4591492   -4.5164717 -0.023644307   -5.4591492   0.94267747      1024000 
  710000   0.62777563   -5.4582783   -5.4582783   -4.5166168 -0.021725442   -5.4582783   0.94166153      1024000 
  711000   0.62742261   -5.4577878   -5.4577878   -4.5166558 -0.017425809   -5.4577878   0.94113201      1024000 
  712000    0.6271709   -5.4584081   -5.4584081   -4.5176537 -0.018111429   -5.4584081   0.94075445      1024000 
  713000   0.62826435   -5.4599083   -5.4599083   -4.5175137 -0.019403811   -5.4599083   0.94239461      1024000 
  714000    0.6281111   -5.4610993   -5.4610993   -4.5189345 -0.022635844   -5.4610993   0.94216474      1024000 
  715000   0.62759431   -5.4600335   -5.4600335   -4.5186439  -0.01704099   -5.4600335   0.94138956      1024000 
  716000   0.62797732   -5.4606182   -5.4606182   -4.5186541 -0.020024236   -5.4606182   0.94196406      1024000 
  717000   0.62764762   -5.4598907   -5.4598907   -4.5184211 -0.014378611   -5.4598907   0.94146952      1024000 
  718000   0.62857095   -5.4619588   -5.4619588   -4.5191043 -0.017354159   -5.4619588   0.94285452      1024000 
  719000   0.62786853   -5.4611241   -5.4611241   -4.5193232   -0.0151674   -5.4611241   0.94180089      1024000 
  720000    0.6277111   -5.4610539   -5.4610539   -4.5194892 -0.014059688   -5.4610539   0.94156474      1024000 
  721000    0.6281002   -5.4626791   -5.4626791   -4.5205308 -0.017106094   -5.4626791   0.94214839      1024000 
  722000   0.62728835   -5.4623044   -5.4623044   -4.5213738 -0.017262179   -5.4623044   0.94093061      1024000 
  723000   0.62711632   -5.4623768   -5.4623768   -4.5217043 -0.015968122   -5.4623768   0.94067257      1024000 
  724000   0.62744531   -5.4634733   -5.4634733   -4.5223072 -0.017880334   -5.4634733   0.94116605      1024000 
  725000   0.62819265   -5.4647644   -5.4647644   -4.5224773  -0.02070538   -5.4647644   0.94228706      1024000 
  726000    0.6281919    -5.465258    -5.465258   -4.5229721 -0.020767498    -5.465258   0.94228593      1024000 
  727000   0.62713643   -5.4646016   -5.4646016   -4.5238989 -0.022224235   -5.4646016   0.94070274      1024000 
  728000   0.62658052   -5.4636035   -5.4636035   -4.5237346 -0.014807279   -5.4636035   0.93986887      1024000 
  729000   0.62764568     -5.46605     -5.46605   -4.5245833 -0.016965334     -5.46605   0.94146661      1024000 
  730000   0.62593497   -5.4638913   -5.4638913   -4.5249908 -0.015946971   -5.4638913   0.93890055      1024000 
  731000   0.62621555   -5.4642657   -5.4642657   -4.5249443 -0.018102757   -5.4642657   0.93932142      1024000 
  732000    0.6267442    -5.466031    -5.466031   -4.5259166 -0.017223787    -5.466031   0.94011439      1024000 
  733000   0.62732436   -5.4671376   -5.4671376   -4.5261529 -0.022213165   -5.4671376   0.94098463      1024000 
  734000    0.6266564   -5.4671652   -5.4671652   -4.5271825  -0.02094417   -5.4671652   0.93998269      1024000 
  735000   0.62546039   -5.4655364   -5.4655364   -4.5273478 -0.016117686   -5.4655364   0.93818867      1024000 
  736000   0.62730463    -5.468442    -5.468442    -4.527487 -0.023560863    -5.468442   0.94095504      1024000 
  737000   0.62660536    -5.468283    -5.468283   -4.5283769 -0.020640159    -5.468283   0.93990613      1024000 
  738000   0.62700446   -5.4696924   -5.4696924   -4.5291876 -0.018408393   -5.4696924   0.94050478      1024000 
  739000   0.62626794   -5.4692359   -5.4692359   -4.5298359 -0.016431911   -5.4692359       0.9394      1024000 
  740000   0.62723341   -5.4704762   -5.4704762    -4.529628  -0.01710239   -5.4704762   0.94084821      1024000 
  741000   0.62673144   -5.4701383   -5.4701383    -4.530043 -0.014104643   -5.4701383   0.94009525      1024000 
  742000   0.62641467   -5.4710171   -5.4710171    -4.531397 -0.014068006   -5.4710171   0.93962009      1024000 
  743000   0.62724942   -5.4726876   -5.4726876   -4.5318154 -0.014931663   -5.4726876   0.94087223      1024000 
  744000   0.62687436   -5.4719483   -5.4719483   -4.5316386 -0.011373139   -5.4719483   0.94030964      1024000 
  745000   0.62716113   -5.4724392   -5.4724392   -4.5316994 -0.012282725   -5.4724392   0.94073979      1024000 
  746000   0.62682092   -5.4732286   -5.4732286   -4.5329992 -0.018643587   -5.4732286   0.94022947      1024000 
  747000   0.62633676   -5.4728617   -5.4728617   -4.5333585 -0.013866909   -5.4728617   0.93950323      1024000 
  748000    0.6255625    -5.472216    -5.472216   -4.5338742 -0.011206814    -5.472216   0.93834185      1024000 
  749000   0.62606497   -5.4741007   -5.4741007   -4.5350051  -0.02103127   -5.4741007   0.93909555      1024000 
  750000   0.62610315   -5.4744672   -5.4744672   -4.5353144 -0.019379062   -5.4744672   0.93915283      1024000 
  751000   0.62551717   -5.4740364   -5.4740364   -4.5357625 -0.018104221   -5.4740364   0.93827385      1024000 
  752000    0.6257859    -5.475076    -5.475076   -4.5363991  -0.01849422    -5.475076   0.93867695      1024000 
  753000   0.62549248   -5.4750193   -5.4750193   -4.5367825 -0.018807378   -5.4750193   0.93823682      1024000 
  754000   0.62508438   -5.4745181   -5.4745181   -4.5368934 -0.016163819   -5.4745181   0.93762466      1024000 
  755000   0.62613078   -5.4761165   -5.4761165   -4.5369222 -0.015578418   -5.4761165   0.93919426      1024000 
  756000   0.62655491   -5.4773229   -5.4773229   -4.5374924 -0.015256399   -5.4773229   0.93983046      1024000 
  757000   0.62669374   -5.4780014   -5.4780014   -4.5379627 -0.015011212   -5.4780014    0.9400387      1024000 
  758000   0.62582967   -5.4778813   -5.4778813   -4.5391387 -0.015694312   -5.4778813   0.93874259      1024000 
  759000   0.62623715    -5.479599    -5.479599   -4.5402452 -0.015981486    -5.479599   0.93935382      1024000 
  760000   0.62496156   -5.4784559   -5.4784559   -4.5410155 -0.012735317   -5.4784559   0.93744044      1024000 
  761000   0.62575125   -5.4804557   -5.4804557   -4.5418307 -0.018596683   -5.4804557   0.93862497      1024000 
  762000   0.62678014   -5.4828588   -5.4828588   -4.5426906 -0.019997476   -5.4828588    0.9401683      1024000 
  763000   0.62644901   -5.4821955   -5.4821955   -4.5425239 -0.018020892   -5.4821955   0.93967161      1024000 
  764000   0.62636501   -5.4822859   -5.4822859   -4.5427403 -0.013285521   -5.4822859   0.93954561      1024000 
  765000   0.62562284   -5.4813672   -5.4813672   -4.5429349 -0.013952025   -5.4813672   0.93843236      1024000 
  766000   0.62566502   -5.4818723   -5.4818723   -4.5433767 -0.015031221   -5.4818723   0.93849563      1024000 
  767000   0.62665603   -5.4841677   -5.4841677   -4.5441856 -0.019747252   -5.4841677   0.93998214      1024000 
  768000    0.6265498   -5.4836673   -5.4836673   -4.5438445 -0.016961451   -5.4836673   0.93982279      1024000 
  769000   0.62605922   -5.4835714   -5.4835714   -4.5444845 -0.016526958   -5.4835714   0.93908692      1024000 
  770000   0.62649733   -5.4846227   -5.4846227   -4.5448787 -0.017225974   -5.4846227   0.93974408      1024000 
  771000   0.62511922   -5.4832492   -5.4832492   -4.5455723 -0.017319746   -5.4832492   0.93767692      1024000 
  772000   0.62520838   -5.4834412   -5.4834412   -4.5456305 -0.016692356   -5.4834412   0.93781067      1024000 
  773000    0.6256763   -5.4841131   -5.4841131   -4.5456006 -0.015752271   -5.4841131   0.93851255      1024000 
  774000   0.62458853   -5.4824147   -5.4824147   -4.5455338 -0.014397432   -5.4824147   0.93688089      1024000 
  775000   0.62568432   -5.4851601   -5.4851601   -4.5466355 -0.020034953   -5.4851601   0.93852457      1024000 
  776000   0.62550406   -5.4851695   -5.4851695   -4.5469153 -0.015801022   -5.4851695   0.93825418      1024000 
  777000   0.62638569   -5.4868235   -5.4868235   -4.5472469 -0.020853873   -5.4868235   0.93957663      1024000 
  778000   0.62608127   -5.4866537   -5.4866537   -4.5475337 -0.015310804   -5.4866537      0.93912      1024000 
  779000   0.62579885   -5.4866606   -5.4866606   -4.5479642 -0.018342746   -5.4866606   0.93869637      1024000 
  780000    0.6258738   -5.4871341   -5.4871341   -4.5483253 -0.019991056   -5.4871341    0.9388088      1024000 
  781000   0.62610721   -5.4883009   -5.4883009    -4.549142 -0.016795671   -5.4883009   0.93915891      1024000 
  782000   0.62447191   -5.4867145   -5.4867145   -4.5500085 -0.011997228   -5.4867145   0.93670596      1024000 
  783000   0.62513489   -5.4885374   -5.4885374    -4.550837 -0.013658375   -5.4885374   0.93770043      1024000 
  784000   0.62536366   -5.4894385   -5.4894385   -4.5513949 -0.015775681   -5.4894385   0.93804359      1024000 
  785000   0.62528224    -5.488978    -5.488978   -4.5510565  -0.01165546    -5.488978   0.93792146      1024000 
  786000   0.62616313   -5.4902158   -5.4902158    -4.550973 -0.013053919   -5.4902158   0.93924279      1024000 
  787000   0.62632888   -5.4904386   -5.4904386   -4.5509472 -0.011355243   -5.4904386   0.93949142      1024000 
  788000   0.62595247   -5.4902636   -5.4902636   -4.5513368 -0.012568567   -5.4902636    0.9389268      1024000 
  789000    0.6259649   -5.4913012   -5.4913012   -4.5523558 -0.013335457   -5.4913012   0.93894544      1024000 
  790000   0.62508384   -5.4909594   -5.4909594   -4.5533356 -0.013127556   -5.4909594   0.93762386      1024000 
  791000   0.62497859   -5.4913666   -5.4913666   -4.5539006 -0.017735408   -5.4913666   0.93746599      1024000 
  792000   0.62566532   -5.4924995   -5.4924995   -4.5540034 -0.018387108   -5.4924995   0.93849607      1024000 
  793000    0.6249451   -5.4917608   -5.4917608    -4.554345 -0.018342732   -5.4917608   0.93741575      1024000 
  794000   0.62441787   -5.4915418   -5.4915418   -4.5549169 -0.018709498   -5.4915418   0.93662491      1024000 
  795000   0.62443269   -5.4926556   -5.4926556   -4.5560084 -0.018524995   -5.4926556   0.93664713      1024000 
  796000   0.62587317   -5.4950972   -5.4950972   -4.5562893 -0.020546468   -5.4950972   0.93880785      1024000 
  797000   0.62430512   -5.4924334   -5.4924334   -4.5559776 -0.016113958   -5.4924334   0.93645578      1024000 
  798000    0.6247267   -5.4928978   -5.4928978   -4.5558096 -0.014542556   -5.4928978   0.93708814      1024000 
  799000   0.62566157   -5.4938832   -5.4938832   -4.5553928 -0.013342405   -5.4938832   0.93849045      1024000 
  800000   0.62564896   -5.4941917   -5.4941917   -4.5557202 -0.011482339   -5.4941917   0.93847153      1024000 
  801000   0.62606347   -5.4944602   -5.4944602   -4.5553669 -0.016120444   -5.4944602    0.9390933      1024000 
  802000   0.62606904   -5.4950233   -5.4950233   -4.5559216 -0.015839731   -5.4950233   0.93910166      1024000 
  803000   0.62618333   -5.4950152   -5.4950152   -4.5557421 -0.012706295   -5.4950152   0.93927309      1024000 
  804000   0.62625306   -5.4959293   -5.4959293   -4.5565516 -0.013695654   -5.4959293   0.93937769      1024000 
  805000   0.62602497   -5.4958364   -5.4958364   -4.5568008 -0.014809266   -5.4958364   0.93903555      1024000 
  806000   0.62506731   -5.4952845   -5.4952845   -4.5576854 -0.015674279   -5.4952845   0.93759906      1024000 
  807000   0.62484126   -5.4960193   -5.4960193   -4.5587594 -0.015843216   -5.4960193   0.93725998      1024000 
  808000   0.62370985   -5.4948017   -5.4948017   -4.5592389 -0.016166434   -5.4948017   0.93556288      1024000 
  809000    0.6243161   -5.4965913   -5.4965913    -4.560119 -0.015603832   -5.4965913   0.93647226      1024000 
  810000   0.62496701   -5.4986179   -5.4986179   -4.5611693 -0.020453317   -5.4986179   0.93744861      1024000 
  811000    0.6240457   -5.4976608   -5.4976608   -4.5615941 -0.019576918   -5.4976608   0.93606665      1024000 
  812000   0.62480499   -5.4985594   -5.4985594   -4.5613539 -0.019074604   -5.4985594   0.93720558      1024000 
  813000   0.62500453   -5.4985136   -5.4985136   -4.5610087 -0.014326406   -5.4985136    0.9375049      1024000 
  814000   0.62434045   -5.4978099   -5.4978099   -4.5613011 -0.014807378   -5.4978099   0.93650878      1024000 
  815000    0.6258037    -5.500269    -5.500269   -4.5615654 -0.017998645    -5.500269   0.93870364      1024000 
  816000   0.62494094   -5.5003618   -5.5003618   -4.5629523 -0.018206695   -5.5003618   0.93740951      1024000 
  817000   0.62380676   -5.4994333   -5.4994333    -4.563725 -0.015192235   -5.4994333   0.93570824      1024000 
  818000   0.62454139   -5.5005942   -5.5005942    -4.563784 -0.013648268   -5.5005942   0.93681018      1024000 
  819000    0.6252001   -5.5019414   -5.5019414   -4.5641431 -0.017441228   -5.5019414   0.93779825      1024000 
  820000   0.62376735   -5.5003901   -5.5003901    -4.564741 -0.013314264   -5.5003901   0.93564912      1024000 
  821000   0.62361852   -5.5007994   -5.5007994   -4.5653736  -0.01454804   -5.5007994   0.93542588      1024000 
  822000   0.62528858   -5.5031929   -5.5031929   -4.5652619 -0.014962433   -5.5031929   0.93793097      1024000 
  823000   0.62434599   -5.5026901   -5.5026901    -4.566173  -0.01294164   -5.5026901   0.93651708      1024000 
  824000   0.62381979   -5.5025907   -5.5025907   -4.5668629 -0.011918669   -5.5025907   0.93572778      1024000 
  825000   0.62336695   -5.5027197   -5.5027197   -4.5676712  -0.01449653   -5.5027197   0.93504853      1024000 
  826000   0.62348046   -5.5027083   -5.5027083   -4.5674895 -0.013772151   -5.5027083   0.93521879      1024000 
  827000   0.62433837   -5.5043481   -5.5043481   -4.5678425 -0.018830205   -5.5043481   0.93650565      1024000 
  828000   0.62417671   -5.5043233   -5.5043233   -4.5680601 -0.017937029   -5.5043233   0.93626317      1024000 
  829000   0.62407339   -5.5044172   -5.5044172    -4.568309 -0.015960797   -5.5044172   0.93610819      1024000 
  830000   0.62381891   -5.5044878   -5.5044878   -4.5687613 -0.015846835   -5.5044878   0.93572646      1024000 
  831000   0.62384984      -5.5048      -5.5048   -4.5690271 -0.017392539      -5.5048   0.93577287      1024000 
  832000   0.62497166   -5.5062152   -5.5062152   -4.5687596 -0.017123772   -5.5062152   0.93745559      1024000 
  833000   0.62386212    -5.504915    -5.504915   -4.5691237 -0.014024385    -5.504915   0.93579128      1024000 
  834000    0.6248405   -5.5064839   -5.5064839    -4.569225  -0.02130575   -5.5064839   0.93725885      1024000 
  835000   0.62286954   -5.5043521   -5.5043521   -4.5700496 -0.016702427   -5.5043521   0.93430242      1024000 
  836000   0.62421277   -5.5064218   -5.5064218   -4.5701046   -0.0202154   -5.5064218   0.93631726      1024000 
  837000   0.62365498    -5.505633    -5.505633   -4.5701524 -0.017154227    -5.505633   0.93548057      1024000 
  838000   0.62389412    -5.506012    -5.506012   -4.5701727  -0.01543557    -5.506012   0.93583929      1024000 
  839000   0.62380635   -5.5063706   -5.5063706    -4.570663 -0.017390887   -5.5063706   0.93570763      1024000 
  840000   0.62407326   -5.5070548   -5.5070548   -4.5709469 -0.015041405   -5.5070548   0.93610798      1024000 
  841000   0.62409826   -5.5071134   -5.5071134   -4.5709679 -0.016251651   -5.5071134   0.93614549      1024000 
  842000   0.62401386   -5.5066107   -5.5066107   -4.5705918 -0.013088063   -5.5066107   0.93601889      1024000 
  843000    0.6239321   -5.5077407   -5.5077407   -4.5718445 -0.016007234   -5.5077407   0.93589625      1024000 
  844000   0.62376935   -5.5073221   -5.5073221   -4.5716699  -0.01416079   -5.5073221   0.93565212      1024000 
  845000   0.62286294   -5.5055454   -5.5055454   -4.5712529 -0.010938726   -5.5055454   0.93429251      1024000 
  846000   0.62352849   -5.5078158   -5.5078158    -4.572525 -0.010245172   -5.5078158   0.93529084      1024000 
  847000    0.6241913   -5.5082882   -5.5082882   -4.5720031 -0.014914716   -5.5082882   0.93628506      1024000 
  848000   0.62423048   -5.5084352   -5.5084352   -4.5720914 -0.012910211   -5.5084352   0.93634383      1024000 
  849000   0.62391421   -5.5087859   -5.5087859   -4.5729165 -0.013611931   -5.5087859   0.93586942      1024000 
  850000   0.62378911   -5.5078277   -5.5078277   -4.5721459 -0.012085462   -5.5078277   0.93568177      1024000 
  851000   0.62398617   -5.5085658   -5.5085658   -4.5725885  -0.01200337   -5.5085658   0.93597736      1024000 
  852000   0.62472493   -5.5092661   -5.5092661   -4.5721806 -0.014526814   -5.5092661    0.9370855      1024000 
  853000   0.62374105   -5.5084565   -5.5084565   -4.5728468 -0.015861017   -5.5084565   0.93560968      1024000 
  854000   0.62402199   -5.5091032   -5.5091032   -4.5730721 -0.016309844   -5.5091032   0.93603109      1024000 
  855000   0.62459142   -5.5104137   -5.5104137   -4.5735284 -0.017448624   -5.5104137   0.93688523      1024000 
  856000   0.62275108   -5.5084775   -5.5084775   -4.5743528  -0.01299748   -5.5084775   0.93412472      1024000 
  857000   0.62321128   -5.5099291   -5.5099291    -4.575114 -0.019548581   -5.5099291   0.93481502      1024000 
  858000   0.62240521    -5.509536    -5.509536   -4.5759301 -0.016426967    -5.509536   0.93360592      1024000 
  859000   0.62256242   -5.5095011   -5.5095011   -4.5756594 -0.014379998   -5.5095011   0.93384173      1024000 
  860000   0.62273838   -5.5099746   -5.5099746   -4.5758689 -0.013490032   -5.5099746   0.93410568      1024000 
  861000   0.62385143    -5.511301    -5.511301   -4.5755257 -0.013180652    -5.511301   0.93577524      1024000 
  862000   0.62341059   -5.5111123   -5.5111123   -4.5759984 -0.011067213   -5.5111123   0.93511398      1024000 
  863000   0.62342006   -5.5112462   -5.5112462    -4.576118  -0.01021694   -5.5112462   0.93512819      1024000 
  864000   0.62390019   -5.5123858   -5.5123858   -4.5765374 -0.0097022251   -5.5123858   0.93584838      1024000 
  865000   0.62429127   -5.5131156   -5.5131156   -4.5766806 -0.003324854   -5.5131156     0.936435      1024000 
  866000    0.6243824   -5.5139409   -5.5139409   -4.5773692 -0.007439965   -5.5139409    0.9365717      1024000 
  867000   0.62389364   -5.5136485   -5.5136485     -4.57781 -0.0066710534   -5.5136485   0.93583856      1024000 
  868000   0.62384693   -5.5140365   -5.5140365    -4.578268 -0.0096361489   -5.5140365    0.9357685      1024000 
  869000   0.62361378    -5.514027    -5.514027   -4.5786083 -0.009410222    -5.514027   0.93541877      1024000 
  870000   0.62323465   -5.5147985   -5.5147985   -4.5799484 -0.011483132   -5.5147985   0.93485008      1024000 
  871000   0.62321052   -5.5139851   -5.5139851   -4.5791712 -0.0081875168   -5.5139851   0.93481388      1024000 
  872000   0.62324191    -5.514015    -5.514015   -4.5791541 -0.013781603    -5.514015   0.93486097      1024000 
  873000   0.62339345   -5.5139831   -5.5139831   -4.5788948 -0.014695423   -5.5139831   0.93508828      1024000 
  874000   0.62333909   -5.5141958   -5.5141958   -4.5791891 -0.014690826   -5.5141958   0.93500674      1024000 
  875000   0.62313474   -5.5140245   -5.5140245   -4.5793243 -0.012502966   -5.5140245   0.93470021      1024000 
  876000    0.6236913    -5.515104    -5.515104    -4.579569 -0.016038111    -5.515104   0.93553505      1024000 
  877000   0.62286115   -5.5138366   -5.5138366   -4.5795468 -0.014474173   -5.5138366   0.93428982      1024000 
  878000    0.6228902   -5.5141894   -5.5141894    -4.579856 -0.014868424   -5.5141894    0.9343334      1024000 
  879000   0.62269584   -5.5141565   -5.5141565   -4.5801146 -0.011617304   -5.5141565   0.93404187      1024000 
  880000   0.62392682   -5.5160495   -5.5160495   -4.5801612 -0.011684905   -5.5160495   0.93588833      1024000 
  881000   0.62304137   -5.5157937   -5.5157937   -4.5812336 -0.011973202   -5.5157937   0.93456017      1024000 
  882000   0.62346695   -5.5169806   -5.5169806   -4.5817821 -0.015369579   -5.5169806   0.93519853      1024000 
  883000   0.62276177   -5.5164749   -5.5164749   -4.5823342 -0.011062271   -5.5164749   0.93414075      1024000 
  884000   0.62356265   -5.5175439   -5.5175439   -4.5822019 -0.013878139   -5.5175439   0.93534208      1024000 
  885000   0.62286495   -5.5165362   -5.5165362   -4.5822407 -0.0084047245   -5.5165362   0.93429554      1024000 
  886000   0.62258236     -5.51633     -5.51633   -4.5824584 -0.0062566859     -5.51633   0.93387164      1024000 
  887000   0.62268773   -5.5172267   -5.5172267    -4.583197 -0.0086457053   -5.5172267   0.93402969      1024000 
  888000   0.62362737   -5.5188696   -5.5188696   -4.5834304 -0.012414624   -5.5188696   0.93543915      1024000 
  889000   0.62385281   -5.5181644   -5.5181644   -4.5823871 -0.010317224   -5.5181644   0.93577731      1024000 
  890000   0.62347013   -5.5186801   -5.5186801   -4.5834768 -0.010478305   -5.5186801   0.93520329      1024000 
  891000   0.62333822   -5.5190076   -5.5190076   -4.5840022   -0.0104255   -5.5190076   0.93500544      1024000 
  892000   0.62260207   -5.5186812   -5.5186812     -4.58478 -0.012883125   -5.5186812   0.93390121      1024000 
  893000   0.62245264   -5.5181024   -5.5181024   -4.5844253 -0.0099146513   -5.5181024   0.93367706      1024000 
  894000   0.62369102   -5.5209098   -5.5209098   -4.5853751 -0.014943733   -5.5209098   0.93553464      1024000 
  895000   0.62316317   -5.5199721   -5.5199721   -4.5852293 -0.011611345   -5.5199721   0.93474285      1024000 
  896000   0.62221136   -5.5188025   -5.5188025   -4.5854874 -0.0076746339   -5.5188025   0.93331515      1024000 
  897000   0.62256376   -5.5197171   -5.5197171   -4.5858734 -0.010256231   -5.5197171   0.93384374      1024000 
  898000   0.62403677   -5.5213943   -5.5213943    -4.585341 -0.011984134   -5.5213943   0.93605325      1024000 
  899000   0.62354351   -5.5202923   -5.5202923   -4.5849789 -0.010450109   -5.5202923   0.93531336      1024000 
  900000   0.62288333   -5.5192678   -5.5192678   -4.5849447 -0.011667764   -5.5192678   0.93432311      1024000 
  901000   0.62414141   -5.5215421   -5.5215421   -4.5853319 -0.012880293   -5.5215421   0.93621022      1024000 
  902000   0.62381787   -5.5203564   -5.5203564   -4.5846315 -0.0086563437   -5.5203564   0.93572491      1024000 
  903000   0.62346529   -5.5209077   -5.5209077   -4.5857116 -0.0093359277   -5.5209077   0.93519604      1024000 
  904000   0.62332571   -5.5214009   -5.5214009   -4.5864142 -0.013184775   -5.5214009   0.93498667      1024000 
  905000   0.62366711   -5.5214548   -5.5214548   -4.5859561 -0.013077205   -5.5214548   0.93549877      1024000 
  906000   0.62372248   -5.5211408   -5.5211408    -4.585559 -0.008453024   -5.5211408   0.93558183      1024000 
  907000   0.62397852   -5.5224998   -5.5224998   -4.5865339 -0.014077625   -5.5224998   0.93596589      1024000 
  908000   0.62342492   -5.5221025   -5.5221025    -4.586967 -0.012804584   -5.5221025   0.93513548      1024000 
  909000   0.62301976   -5.5218736   -5.5218736   -4.5873458 -0.012947481   -5.5218736   0.93452774      1024000 
  910000   0.62226616    -5.521965    -5.521965   -4.5885677 -0.013344818    -5.521965   0.93339735      1024000 
  911000   0.62303407     -5.52302     -5.52302   -4.5884707 -0.015417985     -5.52302   0.93454921      1024000 
  912000   0.62315334   -5.5238382   -5.5238382   -4.5891101 -0.012814183   -5.5238382   0.93472811      1024000 
  913000   0.62332965   -5.5246597   -5.5246597   -4.5896671 -0.012080875   -5.5246597   0.93499258      1024000 
  914000   0.62222806   -5.5236087   -5.5236087   -4.5902685 -0.010850444   -5.5236087   0.93334019      1024000 
  915000   0.62314335   -5.5253138   -5.5253138   -4.5906007  -0.01357897   -5.5253138   0.93471313      1024000 
  916000   0.62290592   -5.5253876   -5.5253876   -4.5910306  -0.01272949   -5.5253876   0.93435699      1024000 
  917000   0.62279854   -5.5245304   -5.5245304   -4.5903344 -0.011120348   -5.5245304   0.93419592      1024000 
  918000   0.62375819   -5.5258659   -5.5258659   -4.5902305 -0.010281983   -5.5258659   0.93563539      1024000 
  919000   0.62343519   -5.5250634   -5.5250634   -4.5899125 -0.0050516474   -5.5250634   0.93515089      1024000 
  920000   0.62413278   -5.5266355   -5.5266355   -4.5904383 -0.0068392721   -5.5266355   0.93619727      1024000 
  921000   0.62337038   -5.5254145   -5.5254145   -4.5903609 -0.0063176269   -5.5254145   0.93505367      1024000 
  922000   0.62311198   -5.5261864   -5.5261864   -4.5915203 -0.008307792   -5.5261864   0.93466608      1024000 
  923000   0.62278956   -5.5254936   -5.5254936   -4.5913112 -0.0064872139   -5.5254936   0.93418244      1024000 
  924000   0.62204673   -5.5257374   -5.5257374   -4.5926692 -0.0080310986   -5.5257374    0.9330682      1024000 
  925000    0.6231321   -5.5269601   -5.5269601   -4.5922638 -0.0095325354   -5.5269601   0.93469626      1024000 
  926000   0.62377963   -5.5286931   -5.5286931   -4.5930255 -0.014252626   -5.5286931   0.93566755      1024000 
  927000   0.62282771   -5.5267115   -5.5267115   -4.5924718  -0.01261249   -5.5267115   0.93423966      1024000 
  928000   0.62251448   -5.5259268   -5.5259268    -4.592157 -0.011499225   -5.5259268   0.93376983      1024000 
  929000   0.62345696   -5.5271451   -5.5271451   -4.5919616 -0.011093057   -5.5271451   0.93518354      1024000 
  930000    0.6239657   -5.5273067   -5.5273067     -4.59136 -0.014094013   -5.5273067   0.93594666      1024000 
  931000   0.62238734   -5.5259622   -5.5259622   -4.5923831 -0.008195787   -5.5259622   0.93357912      1024000 
  932000   0.62195532   -5.5258951   -5.5258951    -4.592964 -0.010680435   -5.5258951   0.93293109      1024000 
  933000   0.62329464   -5.5276937   -5.5276937   -4.5927536 -0.011972708   -5.5276937   0.93494006      1024000 
  934000   0.62242303   -5.5266111   -5.5266111   -4.5929784 -0.0087764642   -5.5266111   0.93363265      1024000 
  935000   0.62215955   -5.5268473   -5.5268473   -4.5936098 -0.0072118149   -5.5268473   0.93323743      1024000 
  936000   0.62274664   -5.5277419   -5.5277419   -4.5936239 -0.0092127914   -5.5277419   0.93411806      1024000 
  937000   0.62385273   -5.5292204   -5.5292204   -4.5934432 -0.010478717   -5.5292204   0.93577719      1024000 
  938000   0.62302188   -5.5281813   -5.5281813   -4.5936504 -0.0043986176   -5.5281813   0.93453092      1024000 
  939000   0.62270999   -5.5277623   -5.5277623   -4.5936992 -0.006054862   -5.5277623   0.93406309      1024000 
  940000   0.62329898   -5.5291907   -5.5291907   -4.5942441 -0.0076168605   -5.5291907   0.93494658      1024000 
  941000   0.62284758   -5.5283803   -5.5283803   -4.5941108 -0.0039494668   -5.5283803   0.93426948      1024000 
  942000   0.62416591   -5.5305802   -5.5305802   -4.5943333 -0.0094133168   -5.5305802   0.93624697      1024000 
  943000   0.62295357   -5.5292417   -5.5292417   -4.5948132 -0.0095681073   -5.5292417   0.93442846      1024000 
  944000   0.62305815   -5.5297643   -5.5297643   -4.5951789 -0.010187476   -5.5297643   0.93458533      1024000 
  945000   0.62366976   -5.5302357   -5.5302357   -4.5947329 -0.010353606   -5.5302357   0.93550274      1024000 
  946000   0.62327219   -5.5296757   -5.5296757   -4.5947693 -0.011196518   -5.5296757   0.93490639      1024000 
  947000   0.62245793   -5.5286258   -5.5286258   -4.5949408 -0.0083989814   -5.5286258     0.933685      1024000 
  948000   0.62163963   -5.5279137   -5.5279137   -4.5954561 -0.0052760417   -5.5279137   0.93245755      1024000 
  949000   0.62177428   -5.5287399   -5.5287399   -4.5960803 -0.0081698135   -5.5287399   0.93265953      1024000 
  950000   0.62134137   -5.5282038   -5.5282038   -4.5961937 -0.010537442   -5.5282038   0.93201016      1024000 
  951000   0.62124668   -5.5291977   -5.5291977   -4.5973295 -0.010520488   -5.5291977   0.93186812      1024000 
  952000   0.62228646    -5.529711    -5.529711   -4.5962832 -0.0094090527    -5.529711   0.93342779      1024000 
  953000   0.62176098   -5.5296585   -5.5296585    -4.597019 -0.011271299   -5.5296585   0.93263957      1024000 
  954000   0.62294298   -5.5321179   -5.5321179   -4.5977054 -0.014758205   -5.5321179   0.93441257      1024000 
  955000   0.62230796    -5.530917    -5.530917    -4.597457 -0.0088105462    -5.530917   0.93346005      1024000 
  956000   0.62233301   -5.5312233   -5.5312233   -4.5977257 -0.010986993   -5.5312233   0.93349762      1024000 
  957000   0.62277847   -5.5322376   -5.5322376   -4.5980718 -0.010702383   -5.5322376   0.93416581      1024000 
  958000   0.62237766   -5.5317025   -5.5317025   -4.5981379 -0.0096006138   -5.5317025    0.9335646      1024000 
  959000   0.62301644   -5.5329704   -5.5329704   -4.5984477 -0.0090142783   -5.5329704   0.93452277      1024000 
  960000   0.62323969   -5.5333215   -5.5333215   -4.5984638 -0.0073832686   -5.5333215   0.93485764      1024000 
  961000   0.62427904   -5.5348604   -5.5348604   -4.5984438 -0.010484421   -5.5348604   0.93641666      1024000 
  962000   0.62379374   -5.5333405   -5.5333405   -4.5976518 -0.005859476   -5.5333405   0.93568871      1024000 
  963000   0.62288759   -5.5313233   -5.5313233   -4.5969938 -0.0007886854   -5.5313233   0.93432949      1024000 
  964000    0.6235706   -5.5322572   -5.5322572   -4.5969032 -0.0030293581   -5.5322572     0.935354      1024000 
  965000   0.62472045   -5.5340051   -5.5340051   -4.5969264 -0.0084203797   -5.5340051   0.93707877      1024000 
  966000   0.62356191   -5.5325031   -5.5325031   -4.5971621 -0.0025285439   -5.5325031   0.93534097      1024000 
  967000   0.62324846   -5.5323337   -5.5323337   -4.5974629 -0.0026990467   -5.5323337    0.9348708      1024000 
  968000   0.62333874   -5.5321117   -5.5321117   -4.5971055 -0.0073388921   -5.5321117   0.93500621      1024000 
  969000   0.62359653   -5.5329303   -5.5329303   -4.5975374 -0.0077554994   -5.5329303    0.9353929      1024000 
  970000   0.62191341   -5.5309476   -5.5309476   -4.5980793 -0.004329134   -5.5309476   0.93286822      1024000 
  971000   0.62103236   -5.5304139   -5.5304139   -4.5988673 -0.0093307555   -5.5304139   0.93154665      1024000 
  972000   0.62273235   -5.5334368   -5.5334368   -4.5993401 -0.013674869   -5.5334368   0.93409663      1024000 
  973000   0.62155158   -5.5315872   -5.5315872   -4.5992618 -0.010835595   -5.5315872   0.93232548      1024000 
  974000    0.6216773   -5.5314849   -5.5314849   -4.5989708 -0.011972606   -5.5314849   0.93251406      1024000 
  975000   0.62205944   -5.5324464   -5.5324464   -4.5993591 -0.012684498   -5.5324464   0.93308726      1024000 
  976000   0.62237131   -5.5333766   -5.5333766   -4.5998215 -0.011515608   -5.5333766   0.93355506      1024000 
  977000   0.62229936    -5.532399    -5.532399   -4.5989519 -0.0049871369    -5.532399   0.93344714      1024000 
  978000   0.62240034   -5.5324583   -5.5324583   -4.5988597 -0.0038996587   -5.5324583   0.93359862      1024000 
  979000   0.62288708   -5.5330113   -5.5330113   -4.5986826 -0.0025169546   -5.5330113   0.93432873      1024000 
  980000   0.62310628   -5.5336441   -5.5336441   -4.5989866 -0.0029288208   -5.5336441   0.93465752      1024000 
  981000   0.62338132   -5.5339099   -5.5339099   -4.5988398 -0.004506165   -5.5339099   0.93507008      1024000 
  982000   0.62352938   -5.5346196   -5.5346196   -4.5993274  -0.00407508   -5.5346196   0.93529217      1024000 
  983000   0.62413458   -5.5350133   -5.5350133   -4.5988133 -0.0043598543   -5.5350133   0.93619997      1024000 
  984000   0.62318222   -5.5334265   -5.5334265   -4.5986551 -0.00079429496   -5.5334265   0.93477143      1024000 
  985000   0.62362321   -5.5341069   -5.5341069   -4.5986739 -0.00075904772   -5.5341069   0.93543292      1024000 
  986000   0.62391768   -5.5343273   -5.5343273   -4.5984527 -0.0022695714   -5.5343273   0.93587462      1024000 
  987000   0.62431176    -5.534629    -5.534629   -4.5981633 -0.0071710362    -5.534629   0.93646575      1024000 
  988000   0.62365206   -5.5332427   -5.5332427   -4.5977665 -0.0051331438   -5.5332427   0.93547618      1024000 
  989000   0.62309856   -5.5331536   -5.5331536   -4.5985076 -0.0074806168   -5.5331536   0.93464594      1024000 
  990000   0.62327002   -5.5330422   -5.5330422    -4.598139 -0.0082282409   -5.5330422   0.93490313      1024000 
  991000    0.6229327   -5.5321624   -5.5321624   -4.5977653 -0.0062456865   -5.5321624   0.93439715      1024000 
  992000    0.6237701   -5.5334935   -5.5334935   -4.5978402 -0.0080932407   -5.5334935   0.93565325      1024000 
  993000   0.62454317   -5.5349207   -5.5349207   -4.5981079 -0.0094828802   -5.5349207   0.93681285      1024000 
  994000   0.62284138   -5.5328875   -5.5328875   -4.5986274 -0.0056875148   -5.5328875   0.93426018      1024000 
  995000   0.62263723   -5.5330461   -5.5330461   -4.5990921 -0.0085756854   -5.5330461   0.93395395      1024000 
  996000    0.6236529   -5.5347331   -5.5347331   -4.5992557 -0.010449587   -5.5347331   0.93547745      1024000 
  997000   0.62320394   -5.5340361   -5.5340361   -4.5992321 -0.0064009362   -5.5340361   0.93480401      1024000 
  998000   0.62280479   -5.5332353   -5.5332353   -4.5990301 -0.0032096631   -5.5332353    0.9342053      1024000 
  999000   0.62357439   -5.5354984   -5.5354984   -4.6001388 -0.0064295126   -5.5354984   0.93535969      1024000 
 1000000   0.62295982   -5.5353517   -5.5353517   -4.6009138 -0.0055395201   -5.5353517   0.93443784      1024000 
Loop time of 8518.58 on 32 procs for 1000000 steps with 492800 atoms

Performance: 25356.351 tau/day, 117.391 timesteps/s
99.7% CPU use with 32 MPI tasks x 1 OpenMP threads

MPI task timing breakdown:
Section |  min time  |  avg time  |  max time  |%varavg|  %CPU | %total
-----------------------------------------------------------------------
Pair    | 4005.6     | 5370.4     | 6007.2     | 758.6 |  99.7 | 63.04
Bond    | 0.62033    | 0.64731    | 0.67758    |   1.3 | 100.0 |  0.01
Neigh   | 938.17     | 1199       | 1293.4     | 286.8 |  99.8 | 14.07
Comm    | 488.55     | 1237.1     | 2680       |1721.7 |  99.5 | 14.52
Output  | 22.588     | 22.768     | 22.777     |   0.7 |  98.2 |  0.27
Modify  | 156.75     | 286.19     | 712.38     |1286.4 |  99.3 |  3.36
Other   |            | 402.5      |            |       |       |  4.72

Nlocal:        15400.0 ave       15845 max       13813 min
Histogram: 2 0 0 2 0 0 0 5 14 9
Nghost:        13913.6 ave       15919 max        9299 min
Histogram: 4 4 0 0 0 0 0 0 12 12
Neighs:        651644.0 ave      720530 max      475823 min
Histogram: 2 2 0 0 0 0 11 4 1 12

Total # of neighbors = 20852607
Ave neighs/atom = 42.314543
Ave special neighs/atom = 0.0000000
Neighbor list builds = 56085
Dangerous builds = 468
Total wall time: 2:21:59
