LAMMPS (24 Dec 2020)
OMP_NUM_THREADS environment is not set. Defaulting to 1 thread. (src/comm.cpp:94)
  using 1 OpenMP thread(s) per MPI task
# Simple rigid body system
# needed variables:


units		lj
atom_style	full
dimension 	3
boundary	p p f
pair_style	lj/cut/opt 2.5


variable 	sigma		equal 1.0
variable 	epsilon 	equal 1.0

region		box block 0 80 0 80 0 160
create_box 	3 box
Created orthogonal box = (0.0000000 0.0000000 0.0000000) to (80.000000 80.000000 160.00000)
  2 by 3 by 8 MPI processor grid


lattice 	sc 0.66   # fluid phase
Lattice spacing in x,y,z = 1.1485556 1.1485556 1.1485556
region		fluid block EDGE EDGE EDGE EDGE 2 82
create_atoms 	1 region fluid
Created 396900 atoms
  create_atoms CPU = 0.009 seconds

lattice 	sc 0.045    # gas phase
Lattice spacing in x,y,z = 2.8114422 2.8114422 2.8114422
region		gas   block EDGE EDGE EDGE EDGE 83 158
create_atoms	1 region gas
Created 0 atoms
  create_atoms CPU = 0.004 seconds


mass		1 1.0
mass		2 1.0
mass		3 1.0

group		solvent type 1
396900 atoms in group solvent
velocity 	solvent create ${startTemp} 563435 loop geom
velocity 	solvent create 1.0 563435 loop geom

neighbor 	0.4 bin

pair_coeff	1 1 1.0 1.0
pair_coeff	2 2 0.0 0.0
pair_coeff	3 3 0.0 0.0
pair_coeff	2 3 0.0 0.0
pair_coeff	1 2*3 0.0 0.0

pair_modify 	shift yes


balance 	1.05 shift z 10 1.05
Balancing ...
Neighbor list info ...
  update every 1 steps, delay 10 steps, check yes
  max neighbors/atom: 2000, page size: 100000
  master list distance cutoff = 2.9
  ghost atom cutoff = 2.9
  binsize = 1.45, bins = 56 56 111
  1 neighbor lists, perpetual/occasional/extra = 1 0 0
  (1) pair lj/cut/opt, perpetual
      attributes: half, newton on
      pair build: half/bin/newton
      stencil: half/bin/3d/newton
      bin: standard
 rebalancing time: 0.013 seconds
  iteration count = 4
  initial/final maximal load/proc = 15120.000 9240.0000
  initial/final imbalance factor  = 1.8285714 1.1174603
  x cuts: 0.0000000 0.50000000 1.0000000
  y cuts: 0.0000000 0.33333333 0.66666667 1.0000000
  z cuts: 0.0000000 0.085937500 0.16406250 0.23437500 0.29687500 0.36718750 0.44531250 0.52343750 1.0000000


####################### WALLS ###########################


variable       epsilonWall equal 2*${epsilon}
variable       epsilonWall equal 2*1

variable       cutoffTop   equal   0.7147*${sigma}
variable       cutoffTop   equal   0.7147*1

variable       cutoffLow   equal   3*${sigma}
variable       cutoffLow   equal   3*1


fix            topWall all wall/lj93 zhi EDGE                ${epsilonWall} ${sigma} ${cutoffTop} units box
fix            topWall all wall/lj93 zhi EDGE                2 ${sigma} ${cutoffTop} units box
fix            topWall all wall/lj93 zhi EDGE                2 1 ${cutoffTop} units box
fix            topWall all wall/lj93 zhi EDGE                2 1 0.7147 units box

fix            lowWall all wall/lj93 zlo EDGE                ${epsilonWall} ${sigma} ${cutoffLow} units box
fix            lowWall all wall/lj93 zlo EDGE                2 ${sigma} ${cutoffLow} units box
fix            lowWall all wall/lj93 zlo EDGE                2 1 ${cutoffLow} units box
fix            lowWall all wall/lj93 zlo EDGE                2 1 3 units box


###################### COMPUTES ##########################

compute        bin1 solvent chunk/atom bin/1d z upper 1.0


######################	FIXES ############################


fix 		peclet solvent ave/chunk 1000 1 1000 bin1 density/number norm 		 none ave one file density.profile

fix 		 temp solvent ave/chunk 1000 1 1000 bin1 temp norm 		 none ave one file temp.profile

fix 		2 solvent nve


## Thermostat


region		regthermo block EDGE EDGE EDGE EDGE 0 20

group 		thermo dynamic solvent region regthermo every 1000
dynamic group thermo defined

fix 		3 thermo langevin ${startTemp} ${temp} 10 156453
fix 		3 thermo langevin 1.0 ${temp} 10 156453
fix 		3 thermo langevin 1.0 .7 10 156453



#### Load balancing


fix 		bal all balance 1000 1.05 shift z 10 1.05


############### Diagnostics and computes ###################
#compute 	com cube	  rigid/local	1 mol x y z
#compute 	quat cube	  rigid/local	1 mol quatw quati quatj quatk

thermo 		1000
thermo_style 	custom step temp epair evdwl etotal press pe ke atoms

dump		1 all custom 100000 dump.lammpstrj id mol type x y z
dump 		2 all image 10000 image.*.png type type
dump 		3 all movie 1000 movie.avi type type

#dump 		com cube local 1000 dump.*.xyz c_com[*]
#dump		quat cube      local 1000 dump.*.quat c_quat[*]


restart 	1000000 restart.dat
timestep 	0.005
timer 		full
New timer settings: style=full  mode=nosync  timeout=off

run		3000000
Per MPI rank memory allocation (min/avg/max) = 11.94 | 16.69 | 18.65 Mbytes
Step Temp E_pair E_vdwl TotEng Press PotEng KinEng Atoms 
       0            1   -1.2728193   -1.2728193   0.22717689    3.8122416   -1.2728193    1.4999962   396900 
    1000    1.7826493   -3.4563625   -3.4563625   -0.7823952    1.4292539   -3.4563625    2.6739673   396900 
    2000    1.5128598   -3.4587852   -3.4587852   -1.1895012   0.67512631   -3.4587852     2.269284   396900 
    3000    1.3215666   -3.3581615   -3.3581615   -1.3758166   0.33907558   -3.3581615    1.9823449   396900 
    4000    1.2464518   -3.3142782   -3.3142782   -1.4446052   0.25207043   -3.3142782     1.869673   396900 
    5000    1.2168367   -3.2853038   -3.2853038   -1.4600533   0.20171856   -3.2853038    1.8252505   396900 
    6000    1.2003955   -3.2516679   -3.2516679   -1.4510793   0.17949295   -3.2516679    1.8005886   396900 
    7000    1.1919678   -3.2184735   -3.2184735   -1.4305264   0.17447039   -3.2184735    1.7879471   396900 
    8000    1.1926536   -3.1953753   -3.1953753   -1.4063994   0.18463143   -3.1953753    1.7889759   396900 
    9000    1.1927053   -3.1751672   -3.1751672   -1.3861138   0.19140943   -3.1751672    1.7890534   396900 
   10000    1.1903397   -3.1501057   -3.1501057   -1.3646007   0.19606866   -3.1501057     1.785505   396900 
   11000     1.185046   -3.1252884   -3.1252884   -1.3477239   0.18937956   -3.1252884    1.7775645   396900 
   12000    1.1759558   -3.0981298   -3.0981298   -1.3342006    0.1779323   -3.0981298    1.7639293   396900 
   13000    1.1638655   -3.0679143   -3.0679143   -1.3221204   0.17377024   -3.0679143    1.7457939   396900 
   14000    1.1526674   -3.0388283   -3.0388283   -1.3098317   0.16050154   -3.0388283    1.7289967   396900 
   15000    1.1406949   -3.0134552   -3.0134552   -1.3024171   0.15344305   -3.0134552    1.7110381   396900 
   16000    1.1347307   -2.9952469   -2.9952469   -1.2931552   0.15252284   -2.9952469    1.7020917   396900 
   17000    1.1323119     -2.98885     -2.98885   -1.2903864   0.15921582     -2.98885    1.6984636   396900 
   18000    1.1278111   -2.9938868   -2.9938868   -1.3021744   0.16796699   -2.9938868    1.6917124   396900 
   19000    1.1205732   -3.0089612   -3.0089612   -1.3281056   0.17295765   -3.0089612    1.6808556   396900 
   20000    1.1136385   -3.0249178   -3.0249178   -1.3544643   0.16824198   -3.0249178    1.6704535   396900 
   21000    1.0998027   -3.0277644   -3.0277644   -1.3780645   0.17271972   -3.0277644    1.6496999   396900 
   22000    1.0903625   -3.0352924   -3.0352924   -1.3997527    0.1639116   -3.0352924    1.6355397   396900 
   23000    1.0815311   -3.0411966   -3.0411966   -1.4189041   0.16011062   -3.0411966    1.6222925   396900 
   24000    1.0728816   -3.0453903   -3.0453903    -1.436072   0.15422021   -3.0453903    1.6093183   396900 
   25000    1.0673015   -3.0491137   -3.0491137   -1.4481655   0.14698044   -3.0491137    1.6009482   396900 
   26000    1.0616597    -3.052145    -3.052145   -1.4596594   0.13572127    -3.052145    1.5924856   396900 
   27000    1.0574475   -3.0523193   -3.0523193    -1.466152    0.1372577   -3.0523193    1.5861673   396900 
   28000    1.0552657   -3.0505388   -3.0505388   -1.4676443   0.13044275   -3.0505388    1.5828945   396900 
   29000    1.0527378   -3.0483417   -3.0483417   -1.4692389   0.13158859   -3.0483417    1.5791028   396900 
   30000     1.051427   -3.0466313   -3.0466313   -1.4694948   0.12521749   -3.0466313    1.5771365   396900 
   31000    1.0484253   -3.0428612   -3.0428612   -1.4702272   0.12461394   -3.0428612     1.572634   396900 
   32000    1.0483906   -3.0419362   -3.0419362   -1.4693542   0.12373199   -3.0419362     1.572582   396900 
   33000    1.0471168   -3.0364864   -3.0364864   -1.4658152   0.12220283   -3.0364864    1.5706713   396900 
   34000    1.0435254   -3.0335406   -3.0335406   -1.4682564    0.1182534   -3.0335406    1.5652842   396900 
   35000    1.0415964   -3.0300713   -3.0300713   -1.4676806    0.1147024   -3.0300713    1.5623907   396900 
   36000    1.0436265   -3.0279236   -3.0279236   -1.4624878   0.11459679   -3.0279236    1.5654358   396900 
   37000    1.0426668    -3.023242    -3.023242   -1.4592458   0.10994308    -3.023242    1.5639962   396900 
   38000    1.0397917   -3.0155784   -3.0155784   -1.4558948   0.10976023   -3.0155784    1.5596836   396900 
   39000    1.0398367   -3.0125841   -3.0125841    -1.452833   0.10926894   -3.0125841    1.5597511   396900 
   40000    1.0383459   -3.0099046   -3.0099046   -1.4523897   0.10517323   -3.0099046    1.5575149   396900 
   41000    1.0366492   -3.0075846   -3.0075846   -1.4526147   0.10704077   -3.0075846    1.5549699   396900 
   42000     1.036177   -3.0039428   -3.0039428   -1.4496812   0.10065475   -3.0039428    1.5542616   396900 
   43000    1.0341611   -3.0000776   -3.0000776   -1.4488398   0.10286791   -3.0000776    1.5512378   396900 
   44000    1.0328567   -2.9952365   -2.9952365   -1.4459554   0.10042303   -2.9952365    1.5492811   396900 
   45000    1.0332499   -2.9936813   -2.9936813   -1.4438103  0.097159101   -2.9936813     1.549871   396900 
   46000    1.0330492   -2.9926505   -2.9926505   -1.4430806  0.094982804   -2.9926505    1.5495699   396900 
   47000    1.0324976    -2.989809    -2.989809   -1.4410666   0.10219737    -2.989809    1.5487424   396900 
   48000    1.0326341   -2.9883108   -2.9883108   -1.4393636    0.1021097   -2.9883108    1.5489472   396900 
   49000    1.0324375   -2.9897335   -2.9897335   -1.4410812  0.098349194   -2.9897335    1.5486523   396900 
   50000    1.0319956   -2.9901319   -2.9901319   -1.4421424   0.10185897   -2.9901319    1.5479895   396900 
   51000    1.0311655   -2.9897252   -2.9897252   -1.4429809   0.10102589   -2.9897252    1.5467443   396900 
   52000    1.0295132   -2.9898792   -2.9898792   -1.4456133   0.10214941   -2.9898792    1.5442659   396900 
   53000    1.0280527   -2.9886945   -2.9886945   -1.4466193  0.095141089   -2.9886945    1.5420752   396900 
   54000    1.0267716   -2.9906837   -2.9906837   -1.4505302  0.098748581   -2.9906837    1.5401535   396900 
   55000    1.0235697   -2.9905374   -2.9905374   -1.4551867  0.093096323   -2.9905374    1.5353507   396900 
   56000    1.0234186   -2.9917429   -2.9917429   -1.4566189  0.099246078   -2.9917429     1.535124   396900 
   57000    1.0253729   -2.9949998   -2.9949998   -1.4569444  0.090007181   -2.9949998    1.5380554   396900 
   58000    1.0246439   -2.9935391   -2.9935391    -1.456577  0.095065246   -2.9935391     1.536962   396900 
   59000    1.0236351   -2.9923433   -2.9923433   -1.4568944    0.1001372   -2.9923433    1.5354488   396900 
   60000    1.0235143   -2.9940595   -2.9940595   -1.4587919  0.095448903   -2.9940595    1.5352676   396900 
   61000    1.0239125   -2.9963123   -2.9963123   -1.4604474  0.090934774   -2.9963123    1.5358649   396900 
   62000     1.024351   -2.9963659   -2.9963659   -1.4598432  0.093276325   -2.9963659    1.5365227   396900 
   63000    1.0237399    -2.997857    -2.997857   -1.4622511  0.087526543    -2.997857     1.535606   396900 
   64000    1.0222281   -2.9962774   -2.9962774   -1.4629391  0.093464242   -2.9962774    1.5333383   396900 
   65000     1.022311   -2.9962421   -2.9962421   -1.4627795  0.087210857   -2.9962421    1.5334627   396900 
   66000    1.0201598   -2.9975065   -2.9975065   -1.4672706  0.087244198   -2.9975065    1.5302358   396900 
   67000    1.0223579   -2.9964712   -2.9964712   -1.4629382  0.091792013   -2.9964712     1.533533   396900 
   68000    1.0224338   -2.9978632   -2.9978632   -1.4642163  0.093664683   -2.9978632    1.5336468   396900 
   69000    1.0212108   -2.9960469   -2.9960469   -1.4642345   0.08922972   -2.9960469    1.5318124   396900 
   70000    1.0178875   -2.9939439   -2.9939439   -1.4671165  0.089560857   -2.9939439    1.5268273   396900 
   71000    1.0185485   -2.9927226   -2.9927226   -1.4649037  0.088934136   -2.9927226    1.5278189   396900 
   72000    1.0193176   -2.9944991   -2.9944991   -1.4655265   0.08658537   -2.9944991    1.5289726   396900 
   73000    1.0187475   -2.9957273   -2.9957273   -1.4676099  0.087722384   -2.9957273    1.5281174   396900 
   74000    1.0181848   -2.9951979   -2.9951979   -1.4679245  0.083737151   -2.9951979    1.5272734   396900 
   75000    1.0185764   -2.9973365   -2.9973365   -1.4694758    0.0892122   -2.9973365    1.5278607   396900 
   76000    1.0182508   -2.9977825   -2.9977825   -1.4704102  0.085286159   -2.9977825    1.5273724   396900 
   77000    1.0177515    -2.997004    -2.997004   -1.4703806  0.089507913    -2.997004    1.5266235   396900 
   78000    1.0165999   -2.9959056   -2.9959056   -1.4710096  0.087668496   -2.9959056     1.524896   396900 
   79000    1.0162787   -2.9972945   -2.9972945   -1.4728803  0.084642761   -2.9972945    1.5244142   396900 
   80000    1.0160473   -2.9982821   -2.9982821   -1.4742151  0.080761559   -2.9982821     1.524067   396900 
   81000    1.0182804   -2.9996583   -2.9996583   -1.4722415  0.084273203   -2.9996583    1.5274168   396900 
   82000    1.0153614   -2.9956408   -2.9956408   -1.4726026  0.088421442   -2.9956408    1.5230382   396900 
   83000    1.0183929   -2.9996679   -2.9996679   -1.4720824  0.085388981   -2.9996679    1.5275855   396900 
   84000    1.0146424   -2.9970273   -2.9970273   -1.4750675  0.082819248   -2.9970273    1.5219598   396900 
   85000    1.0156126   -2.9997718   -2.9997718   -1.4763568  0.086094352   -2.9997718     1.523415   396900 
   86000    1.0178845   -3.0007198   -3.0007198   -1.4738968  0.081814795   -3.0007198    1.5268229   396900 
   87000    1.0166433   -2.9991325   -2.9991325   -1.4741715  0.081494914   -2.9991325    1.5249611   396900 
   88000    1.0147374   -2.9988915   -2.9988915   -1.4767892  0.082870324   -2.9988915    1.5221023   396900 
   89000    1.0159713   -3.0023155   -3.0023155   -1.4783623  0.080145155   -3.0023155    1.5239532   396900 
   90000    1.0118769   -2.9983775   -2.9983775   -1.4805659  0.084562011   -2.9983775    1.5178116   396900 
   91000    1.0128873   -3.0004325   -3.0004325   -1.4811053  0.076873971   -3.0004325    1.5193272   396900 
   92000    1.0125787   -2.9998713   -2.9998713    -1.481007  0.084329169   -2.9998713    1.5188643   396900 
   93000    1.0136204   -3.0023486   -3.0023486   -1.4819218  0.084807965   -3.0023486    1.5204267   396900 
   94000    1.0103327   -2.9984988   -2.9984988   -1.4830036  0.082235107   -2.9984988    1.5154952   396900 
   95000    1.0122378    -3.002401    -3.002401    -1.484048  0.083866989    -3.002401    1.5183529   396900 
   96000    1.0133545   -3.0049922   -3.0049922   -1.4849643  0.086017496   -3.0049922    1.5200279   396900 
   97000    1.0113491   -3.0026883   -3.0026883   -1.4856684  0.078518045   -3.0026883    1.5170199   396900 
   98000    1.0114809   -3.0050337   -3.0050337   -1.4878161  0.083401156   -3.0050337    1.5172176   396900 
   99000    1.0125128   -3.0077852   -3.0077852   -1.4890198  0.081793508   -3.0077852    1.5187654   396900 
  100000    1.0109415   -3.0078756   -3.0078756   -1.4914671   0.08418115   -3.0078756    1.5164085   396900 
  101000     1.011823   -3.0094897   -3.0094897    -1.491759  0.083037744   -3.0094897    1.5177307   396900 
  102000    1.0129907   -3.0116311   -3.0116311   -1.4921489  0.084080608   -3.0116311    1.5194822   396900 
  103000    1.0128052   -3.0120919   -3.0120919    -1.492888  0.080592135   -3.0120919    1.5192039   396900 
  104000    1.0125018   -3.0132141   -3.0132141   -1.4944652  0.085546334   -3.0132141    1.5187488   396900 
  105000    1.0078525   -3.0083639   -3.0083639    -1.496589  0.079792432   -3.0083639     1.511775   396900 
  106000    1.0101989   -3.0121547   -3.0121547   -1.4968601  0.084114378   -3.0121547    1.5152946   396900 
  107000    1.0108732   -3.0129916   -3.0129916   -1.4966857  0.083830135   -3.0129916     1.516306   396900 
  108000    1.0112349   -3.0158331   -3.0158331   -1.4989846  0.078457677   -3.0158331    1.5168485   396900 
  109000    1.0108941   -3.0140665   -3.0140665   -1.4977293  0.083802547   -3.0140665    1.5163373   396900 
  110000    1.0115041   -3.0155265   -3.0155265   -1.4982742  0.078231306   -3.0155265    1.5172523   396900 
  111000    1.0098659   -3.0153572   -3.0153572   -1.5005621  0.079453541   -3.0153572    1.5147951   396900 
  112000      1.00849    -3.015232    -3.015232   -1.5025008  0.078315757    -3.015232    1.5127313   396900 
  113000    1.0093928   -3.0183957   -3.0183957   -1.5043103  0.079565418   -3.0183957    1.5140854   396900 
  114000    1.0080666   -3.0182385   -3.0182385   -1.5061423  0.079704545   -3.0182385    1.5120961   396900 
  115000    1.0103245   -3.0228801   -3.0228801   -1.5073972  0.078771618   -3.0228801    1.5154829   396900 
  116000    1.0083842    -3.022812    -3.022812   -1.5102396  0.081422704    -3.022812    1.5125724   396900 
  117000    1.0070981   -3.0230545   -3.0230545   -1.5124111  0.077568427   -3.0230545    1.5106434   396900 
  118000    1.0088165    -3.023302    -3.023302   -1.5100811  0.082236129    -3.023302    1.5132209   396900 
  119000    1.0103574   -3.0265543   -3.0265543    -1.511022  0.076703807   -3.0265543    1.5155323   396900 
  120000    1.0057423   -3.0217829   -3.0217829   -1.5131732  0.080635794   -3.0217829    1.5086097   396900 
  121000    1.0072305   -3.0250409   -3.0250409    -1.514199  0.080219648   -3.0250409    1.5108419   396900 
  122000    1.0079907   -3.0268052   -3.0268052   -1.5148229  0.074435519   -3.0268052    1.5119823   396900 
  123000    1.0069985   -3.0261423   -3.0261423   -1.5156483  0.080264017   -3.0261423     1.510494   396900 
  124000    1.0071346   -3.0287416   -3.0287416   -1.5180435  0.080477631   -3.0287416    1.5106981   396900 
  125000    1.0083037   -3.0296598   -3.0296598   -1.5172081  0.077414959   -3.0296598    1.5124518   396900 
  126000    1.0069252   -3.0275595   -3.0275595   -1.5171755  0.080006582   -3.0275595     1.510384   396900 
  127000    1.0073403    -3.029422    -3.029422   -1.5184154  0.071547514    -3.029422    1.5110067   396900 
  128000    1.0084771   -3.0314988   -3.0314988   -1.5187869  0.076645007   -3.0314988    1.5127118   396900 
  129000    1.0065125   -3.0292307   -3.0292307   -1.5194658  0.076593215   -3.0292307    1.5097649   396900 
  130000    1.0061853   -3.0295541   -3.0295541     -1.52028  0.077208453   -3.0295541    1.5092742   396900 
  131000    1.0077733   -3.0313163   -3.0313163   -1.5196601  0.074954906   -3.0313163    1.5116561   396900 
  132000    1.0084342   -3.0328975   -3.0328975   -1.5202499  0.074795019   -3.0328975    1.5126475   396900 
  133000    1.0067977   -3.0339821   -3.0339821   -1.5237894  0.083444526   -3.0339821    1.5101927   396900 
  134000    1.0073332   -3.0360672   -3.0360672   -1.5250712  0.077462499   -3.0360672     1.510996   396900 
  135000    1.0081393   -3.0359775   -3.0359775   -1.5237724  0.082675634   -3.0359775    1.5122051   396900 
  136000    1.0060932   -3.0345654   -3.0345654   -1.5254294  0.076113299   -3.0345654     1.509136   396900 
  137000    1.0051453   -3.0352288   -3.0352288   -1.5275146  0.074387141   -3.0352288    1.5077142   396900 
  138000    1.0036664    -3.034046    -3.034046   -1.5285502  0.074909721    -3.034046    1.5054958   396900 
  139000    1.0040943   -3.0340294   -3.0340294   -1.5278918  0.081652142   -3.0340294    1.5061376   396900 
  140000    1.0071669   -3.0386811   -3.0386811   -1.5279345   0.08020836   -3.0386811    1.5107466   396900 
  141000    1.0047722   -3.0382721   -3.0382721   -1.5311176  0.077473664   -3.0382721    1.5071545   396900 
  142000    1.0045701   -3.0388956   -3.0388956   -1.5320442  0.073819101   -3.0388956    1.5068514   396900 
  143000    1.0041674   -3.0387602   -3.0387602   -1.5325129  0.073057693   -3.0387602    1.5062473   396900 
  144000    1.0052622   -3.0436439   -3.0436439   -1.5357543  0.073207111   -3.0436439    1.5078895   396900 
  145000    1.0058101   -3.0435797   -3.0435797   -1.5348684  0.080597922   -3.0435797    1.5087113   396900 
  146000    1.0034349   -3.0441766   -3.0441766   -1.5390279  0.075048884   -3.0441766    1.5051486   396900 
  147000    1.0041501   -3.0453637   -3.0453637   -1.5391424  0.074464989   -3.0453637    1.5062213   396900 
  148000    1.0032359   -3.0475579   -3.0475579   -1.5427078   0.07137262   -3.0475579      1.50485   396900 
  149000    1.0034813   -3.0474829   -3.0474829   -1.5422648  0.077661338   -3.0474829    1.5052181   396900 
  150000    1.0034673   -3.0474858   -3.0474858   -1.5422887   0.07548732   -3.0474858    1.5051971   396900 
  151000    1.0032996   -3.0504665   -3.0504665   -1.5455209  0.077448992   -3.0504665    1.5049456   396900 
  152000     1.004272    -3.050843    -3.050843   -1.5444388  0.078280756    -3.050843    1.5064042   396900 
  153000    1.0029577   -3.0522582   -3.0522582   -1.5478253  0.078380341   -3.0522582    1.5044328   396900 
  154000    1.0037154   -3.0510181   -3.0510181   -1.5454488  0.078146311   -3.0510181    1.5055693   396900 
  155000    1.0038986   -3.0534978   -3.0534978   -1.5476537  0.072010262   -3.0534978    1.5058442   396900 
  156000    1.0028033   -3.0536134   -3.0536134   -1.5494122  0.075381337   -3.0536134    1.5042012   396900 
  157000    1.0029359    -3.054325    -3.054325   -1.5499249  0.075052737    -3.054325    1.5044001   396900 
  158000    1.0025456   -3.0568186   -3.0568186    -1.553004  0.076585998   -3.0568186    1.5038146   396900 
  159000    1.0016999     -3.05782     -3.05782   -1.5552739  0.079245551     -3.05782    1.5025461   396900 
  160000    1.0032097   -3.0605829   -3.0605829   -1.5557721    0.0768163   -3.0605829    1.5048108   396900 
  161000    1.0030701   -3.0588781   -3.0588781   -1.5542768  0.078939464   -3.0588781    1.5046014   396900 
  162000    1.0034656   -3.0629281   -3.0629281   -1.5577335  0.073433115   -3.0629281    1.5051946   396900 
  163000    1.0016351   -3.0607715   -3.0607715   -1.5583226  0.073517807   -3.0607715    1.5024489   396900 
  164000    1.0028612   -3.0635101   -3.0635101   -1.5592221  0.076066043   -3.0635101    1.5042881   396900 
  165000    1.0011374   -3.0653517   -3.0653517   -1.5636493  0.076594948   -3.0653517    1.5017023   396900 
  166000    1.0010852   -3.0666014   -3.0666014   -1.5649773  0.072776079   -3.0666014     1.501624   396900 
  167000    1.0027665   -3.0687866   -3.0687866   -1.5646406  0.077444841   -3.0687866     1.504146   396900 
  168000    1.0018627   -3.0689075   -3.0689075   -1.5661173  0.077897863   -3.0689075    1.5027903   396900 
  169000    1.0018026   -3.0701753   -3.0701753   -1.5674751  0.078923412   -3.0701753    1.5027001   396900 
  170000    1.0033352   -3.0727739   -3.0727739   -1.5677749  0.076338109   -3.0727739    1.5049989   396900 
  171000    1.0029862   -3.0735368   -3.0735368   -1.5690613  0.076047552   -3.0735368    1.5044755   396900 
  172000    1.0004093   -3.0698942   -3.0698942    -1.569284  0.081043161   -3.0698942    1.5006102   396900 
  173000   0.99748632   -3.0697235   -3.0697235   -1.5734978  0.072479218   -3.0697235    1.4962257   396900 
  174000   0.99823212   -3.0712583   -3.0712583   -1.5739139  0.072698548   -3.0712583    1.4973444   396900 
  175000    1.0013134    -3.074177    -3.074177   -1.5722107  0.070841601    -3.074177    1.5019663   396900 
  176000   0.99945343   -3.0759797   -3.0759797   -1.5768034  0.070817177   -3.0759797    1.4991764   396900 
  177000   0.99953125   -3.0768908   -3.0768908   -1.5775977  0.071310818   -3.0768908    1.4992931   396900 
  178000    1.0005263   -3.0772436   -3.0772436   -1.5764579  0.074867598   -3.0772436    1.5007856   396900 
  179000   0.99983655   -3.0773398   -3.0773398   -1.5775887  0.075581771   -3.0773398     1.499751   396900 
  180000    1.0003769   -3.0810375   -3.0810375   -1.5804759  0.072484114   -3.0810375    1.5005615   396900 
  181000    1.0015609   -3.0819585   -3.0819585   -1.5796209  0.070303039   -3.0819585    1.5023376   396900 
  182000    1.0007873   -3.0825457   -3.0825457   -1.5813685  0.080781593   -3.0825457    1.5011772   396900 
  183000   0.99856649   -3.0799776   -3.0799776   -1.5821316  0.076114668   -3.0799776     1.497846   396900 
  184000   0.99937197   -3.0825285   -3.0825285   -1.5834743   0.07618376   -3.0825285    1.4990542   396900 
  185000   0.99728908   -3.0846761   -3.0846761   -1.5887463  0.075529416   -3.0846761    1.4959299   396900 
  186000   0.99809349   -3.0852357   -3.0852357   -1.5880992  0.079431266   -3.0852357    1.4971365   396900 
  187000    1.0000124   -3.0897785   -3.0897785   -1.5897637  0.077875521   -3.0897785    1.5000148   396900 
  188000    1.0004465   -3.0912101   -3.0912101   -1.5905442  0.074011947   -3.0912101    1.5006659   396900 
  189000    0.9980044   -3.0888775   -3.0888775   -1.5918747  0.072548996   -3.0888775    1.4970028   396900 
  190000   0.99972958   -3.0899972   -3.0899972   -1.5904066  0.078892298   -3.0899972    1.4995906   396900 
  191000   0.99752932   -3.0895433   -3.0895433   -1.5932531  0.074998326   -3.0895433    1.4962902   396900 
  192000   0.99771439   -3.0921123   -3.0921123   -1.5955445  0.075530929   -3.0921123    1.4965678   396900 
  193000   0.99811993   -3.0929786   -3.0929786   -1.5958025  0.074427016   -3.0929786    1.4971761   396900 
  194000   0.99799029   -3.0911756   -3.0911756   -1.5941939  0.080932007   -3.0911756    1.4969817   396900 
  195000   0.99814435   -3.0942462   -3.0942462   -1.5970335  0.071404138   -3.0942462    1.4972128   396900 
  196000   0.99742608   -3.0941135   -3.0941135   -1.5979782  0.075397753   -3.0941135    1.4961353   396900 
  197000   0.99653045   -3.0943282   -3.0943282   -1.5995363  0.076003171   -3.0943282    1.4947919   396900 
  198000   0.99923179   -3.0955098   -3.0955098   -1.5966659  0.079512514   -3.0955098    1.4988439   396900 
  199000   0.99804106   -3.0944687   -3.0944687   -1.5974109  0.070195963   -3.0944687    1.4970578   396900 
  200000   0.99963615   -3.0985877   -3.0985877   -1.5991373  0.072751821   -3.0985877    1.4994504   396900 
  201000   0.99830217   -3.0983368   -3.0983368   -1.6008873  0.074980996   -3.0983368    1.4974495   396900 
  202000   0.99943085   -3.1005004   -3.1005004   -1.6013579  0.073021264   -3.1005004    1.4991425   396900 
  203000   0.99901116   -3.0981794   -3.0981794   -1.5996664   0.07498155   -3.0981794     1.498513   396900 
  204000   0.99910514   -3.0985881   -3.0985881   -1.5999342  0.077793168   -3.0985881    1.4986539   396900 
  205000   0.99881924   -3.1004128   -3.1004128   -1.6021878  0.078925115   -3.1004128    1.4982251   396900 
  206000   0.99680306   -3.1005301   -3.1005301   -1.6053292  0.071273202   -3.1005301    1.4952008   396900 
  207000   0.99542308   -3.0995956   -3.0995956   -1.6064648  0.074045412   -3.0995956    1.4931309   396900 
  208000   0.99621995   -3.1016439   -3.1016439   -1.6073177  0.071223504   -3.1016439    1.4943262   396900 
  209000   0.99855807   -3.1042542   -3.1042542   -1.6064209  0.072408716   -3.1042542    1.4978333   396900 
  210000   0.99818035   -3.1022755   -3.1022755   -1.6050088  0.080547496   -3.1022755    1.4972667   396900 
  211000   0.99562702   -3.1030413   -3.1030413   -1.6096045  0.073798867   -3.1030413    1.4934368   396900 
  212000    0.9970143   -3.1043982   -3.1043982   -1.6088806   0.07025757   -3.1043982    1.4955177   396900 
  213000   0.99645522   -3.1041264   -3.1041264   -1.6094474  0.070764431   -3.1041264    1.4946791   396900 
  214000   0.99552438   -3.1025812   -3.1025812   -1.6092984  0.071156937   -3.1025812    1.4932828   396900 
  215000   0.99638284   -3.1045729   -3.1045729   -1.6100024  0.069941515   -3.1045729    1.4945705   396900 
  216000   0.99607403   -3.1060997   -3.1060997   -1.6119924  0.076785615   -3.1060997    1.4941073   396900 
  217000   0.99503554   -3.1077098   -3.1077098   -1.6151602  0.071775694   -3.1077098    1.4925496   396900 
  218000   0.99665518   -3.1133493   -3.1133493   -1.6183703  0.070463034   -3.1133493     1.494979   396900 
  219000   0.99485897   -3.1113722   -3.1113722   -1.6190875  0.070049925   -3.1113722    1.4922847   396900 
  220000   0.99403725   -3.1113983   -3.1113983   -1.6203462  0.071477175   -3.1113983    1.4910521   396900 
  221000   0.99544899   -3.1142312   -3.1142312   -1.6210615  0.067569254   -3.1142312    1.4931697   396900 
  222000   0.99175022   -3.1119288   -3.1119288   -1.6243072  0.068023216   -3.1119288    1.4876216   396900 
  223000   0.99352318    -3.113371    -3.113371     -1.62309  0.067026149    -3.113371     1.490281   396900 
  224000   0.99321636   -3.1136796   -3.1136796   -1.6238588  0.069559301   -3.1136796    1.4898208   396900 
  225000   0.99526678   -3.1166652   -3.1166652   -1.6237688  0.076046917   -3.1166652    1.4928964   396900 
  226000   0.99259152   -3.1173766   -3.1173766   -1.6284931     0.071481   -3.1173766    1.4888835   396900 
  227000   0.99304083   -3.1192939   -3.1192939   -1.6297364  0.068172556   -3.1192939    1.4895575   396900 
  228000   0.99305052   -3.1188963   -3.1188963   -1.6293243  0.073214519   -3.1188963     1.489572   396900 
  229000   0.99354356   -3.1207398   -3.1207398   -1.6304283  0.074223152   -3.1207398    1.4903116   396900 
  230000   0.99526755   -3.1231867   -3.1231867   -1.6302892  0.070430686   -3.1231867    1.4928976   396900 
  231000   0.99244193   -3.1225869   -3.1225869   -1.6339278  0.069309899   -3.1225869    1.4886591   396900 
  232000    0.9920066   -3.1220841   -3.1220841    -1.634078  0.072886742   -3.1220841    1.4880062   396900 
  233000   0.99376836   -3.1253076   -3.1253076   -1.6346589  0.073532515   -3.1253076    1.4906488   396900 
  234000   0.99385659   -3.1260337   -3.1260337   -1.6352525  0.067283408   -3.1260337    1.4907811   396900 
  235000   0.99350853   -3.1254651   -3.1254651   -1.6352061  0.075118207   -3.1254651     1.490259   396900 
  236000   0.99221176   -3.1255262   -3.1255262   -1.6372123  0.076054381   -3.1255262    1.4883139   396900 
  237000   0.99257803   -3.1272533   -3.1272533     -1.63839  0.072145608   -3.1272533    1.4888633   396900 
  238000   0.99439263   -3.1283092   -3.1283092    -1.636724  0.071765905   -3.1283092    1.4915852   396900 
  239000   0.99422329   -3.1281409   -3.1281409   -1.6368098  0.071271606   -3.1281409    1.4913312   396900 
  240000     0.991933   -3.1283363   -3.1283363   -1.6404406  0.065534715   -3.1283363    1.4878958   396900 
  241000   0.99301136   -3.1289321   -3.1289321   -1.6394189  0.068080857   -3.1289321    1.4895133   396900 
  242000    0.9918315   -3.1286992   -3.1286992   -1.6409557  0.072454542   -3.1286992    1.4877435   396900 
  243000   0.99313498   -3.1332189   -3.1332189   -1.6435201  0.067002905   -3.1332189    1.4896987   396900 
  244000   0.99224575   -3.1311724   -3.1311724   -1.6428075  0.074675061   -3.1311724    1.4883649   396900 
  245000   0.99152822    -3.132084    -3.132084   -1.6447954  0.072247901    -3.132084    1.4872886   396900 
  246000      0.99296   -3.1340295   -3.1340295   -1.6445932  0.074679252   -3.1340295    1.4894362   396900 
  247000   0.99155756   -3.1343947   -3.1343947   -1.6470621  0.067005374   -3.1343947    1.4873326   396900 
  248000   0.99132452   -3.1344607   -3.1344607   -1.6474777  0.068948295   -3.1344607     1.486983   396900 
  249000   0.99339487   -3.1359783   -3.1359783   -1.6458897  0.068765052   -3.1359783    1.4900885   396900 
  250000   0.99129206   -3.1343964   -3.1343964    -1.647462   0.07205477   -3.1343964    1.4869343   396900 
  251000   0.99221222   -3.1352403   -3.1352403   -1.6469257  0.071049309   -3.1352403    1.4883146   396900 
  252000   0.99239267   -3.1389795   -3.1389795   -1.6503942  0.073762516   -3.1389795    1.4885853   396900 
  253000   0.99363081   -3.1394415   -3.1394415   -1.6489991  0.072105226   -3.1394415    1.4904425   396900 
  254000   0.99204787   -3.1409772   -3.1409772   -1.6529092   0.06892611   -3.1409772    1.4880681   396900 
  255000   0.99204726   -3.1411341   -3.1411341    -1.653067  0.076602743   -3.1411341    1.4880671   396900 
  256000   0.99400611   -3.1436934   -3.1436934   -1.6526879  0.069044158   -3.1436934    1.4910054   396900 
  257000   0.99323564   -3.1459311   -3.1459311   -1.6560814  0.072271347   -3.1459311    1.4898497   396900 
  258000   0.99324502   -3.1478549   -3.1478549   -1.6579912    0.0695904   -3.1478549    1.4898638   396900 
  259000     0.992968   -3.1479515   -3.1479515   -1.6585032  0.079080551   -3.1479515    1.4894482   396900 
  260000   0.99192562   -3.1477736   -3.1477736   -1.6598889  0.071969867   -3.1477736    1.4878847   396900 
  261000   0.99051152   -3.1466942   -3.1466942   -1.6609307  0.073614767   -3.1466942    1.4857635   396900 
  262000   0.99065777   -3.1465459   -3.1465459    -1.660563   0.07255199   -3.1465459    1.4859829   396900 
  263000     0.989268   -3.1454861   -3.1454861   -1.6615878  0.070958329   -3.1454861    1.4838983   396900 
  264000   0.99015347   -3.1474517   -3.1474517   -1.6622252  0.070568619   -3.1474517    1.4852265   396900 
  265000   0.98991866    -3.147781    -3.147781   -1.6629067  0.069804576    -3.147781    1.4848742   396900 
  266000   0.99071971   -3.1479696   -3.1479696   -1.6618938  0.070204296   -3.1479696    1.4860758   396900 
  267000   0.99025454   -3.1482716   -3.1482716   -1.6628936  0.073443754   -3.1482716    1.4853781   396900 
  268000   0.99101588   -3.1501734   -3.1501734   -1.6636534  0.071517602   -3.1501734    1.4865201   396900 
  269000   0.98952572   -3.1478718   -3.1478718   -1.6635869  0.063495866   -3.1478718    1.4842848   396900 
  270000   0.98948221   -3.1480395   -3.1480395     -1.66382  0.074257089   -3.1480395    1.4842196   396900 
  271000   0.98848085   -3.1488467   -3.1488467   -1.6661292   0.06980616   -3.1488467    1.4827175   396900 
  272000   0.99058989   -3.1524656   -3.1524656   -1.6665845   0.07161307   -3.1524656    1.4858811   396900 
  273000   0.98990004   -3.1514188   -3.1514188   -1.6665725  0.074177848   -3.1514188    1.4848463   396900 
  274000   0.99182913   -3.1524676   -3.1524676   -1.6647277  0.074100544   -3.1524676    1.4877399   396900 
  275000   0.98784957   -3.1510131   -3.1510131   -1.6692425     0.076469   -3.1510131    1.4817706   396900 
  276000   0.98961182   -3.1514463   -3.1514463   -1.6670323  0.072026637   -3.1514463     1.484414   396900 
  277000   0.99128993    -3.154664    -3.154664   -1.6677328  0.069528165    -3.154664    1.4869312   396900 
  278000   0.98953803   -3.1562571   -3.1562571   -1.6719538  0.073509968   -3.1562571    1.4843033   396900 
  279000    0.9864379   -3.1536023   -3.1536023   -1.6739492  0.068739314   -3.1536023    1.4796531   396900 
  280000   0.98855765   -3.1559872   -3.1559872   -1.6731544  0.069097047   -3.1559872    1.4828327   396900 
  281000   0.98847976   -3.1569967   -3.1569967   -1.6742808  0.069247007   -3.1569967    1.4827159   396900 
  282000   0.98923794     -3.15757     -3.15757   -1.6737168   0.06237794     -3.15757    1.4838532   396900 
  283000   0.98835883   -3.1576264   -3.1576264   -1.6750919  0.069987483   -3.1576264    1.4825345   396900 
  284000   0.98947446   -3.1611498   -3.1611498   -1.6769418  0.069834261   -3.1611498     1.484208   396900 
  285000   0.98849401   -3.1600194   -3.1600194   -1.6772822  0.074119184   -3.1600194    1.4827373   396900 
  286000   0.98716568   -3.1596834   -3.1596834   -1.6789386  0.064789222   -3.1596834    1.4807448   396900 
  287000   0.98703632   -3.1606922   -3.1606922   -1.6801415  0.070016334   -3.1606922    1.4805507   396900 
  288000   0.98616453    -3.162167    -3.162167    -1.682924  0.068211937    -3.162167    1.4792431   396900 
  289000    0.9873319   -3.1618014   -3.1618014   -1.6808073  0.069033784   -3.1618014    1.4809941   396900 
  290000    0.9871815   -3.1639817   -3.1639817   -1.6832132  0.071106092   -3.1639817    1.4807685   396900 
  291000   0.98764221   -3.1631744   -3.1631744   -1.6817149  0.065909225   -3.1631744    1.4814596   396900 
  292000    0.9859751   -3.1609326   -3.1609326   -1.6819736  0.071913162   -3.1609326    1.4789589   396900 
  293000   0.98510699   -3.1621446   -3.1621446   -1.6844878  0.071304869   -3.1621446    1.4776568   396900 
  294000   0.98869119   -3.1670418   -3.1670418   -1.6840087  0.070702891   -3.1670418    1.4830331   396900 
  295000   0.98785654   -3.1671352   -3.1671352   -1.6853541  0.068737221   -3.1671352    1.4817811   396900 
  296000   0.98473632   -3.1626514   -3.1626514   -1.6855507  0.066338727   -3.1626514    1.4771008   396900 
  297000   0.98619036   -3.1663787   -3.1663787   -1.6870969  0.068269063   -3.1663787    1.4792818   396900 
  298000   0.98743593   -3.1693114   -3.1693114   -1.6881612  0.067396781   -3.1693114    1.4811502   396900 
  299000   0.98587153   -3.1705406   -3.1705406    -1.691737  0.065088833   -3.1705406    1.4788036   396900 
  300000   0.98534907   -3.1688642   -3.1688642   -1.6908443  0.068668502   -3.1688642    1.4780199   396900 
  301000   0.98693687   -3.1723687   -3.1723687   -1.6919671    0.0713782   -3.1723687    1.4804016   396900 
  302000   0.98738453   -3.1720305   -3.1720305   -1.6909575  0.070166863   -3.1720305    1.4810731   396900 
  303000    0.9868346   -3.1722789   -3.1722789   -1.6920307  0.069969959   -3.1722789    1.4802482   396900 
  304000   0.98487989   -3.1694096   -3.1694096   -1.6920935  0.071643805   -3.1694096    1.4773161   396900 
  305000   0.98729847   -3.1707987   -3.1707987   -1.6898548  0.063902942   -3.1707987     1.480944   396900 
  306000   0.98500935   -3.1708417   -3.1708417   -1.6933314  0.064042608   -3.1708417    1.4775103   396900 
  307000   0.98412632   -3.1690164   -3.1690164   -1.6928307   0.07456208   -3.1690164    1.4761858   396900 
  308000    0.9877835   -3.1742498   -3.1742498   -1.6925783   0.06552894   -3.1742498    1.4816715   396900 
  309000   0.98820572   -3.1745806   -3.1745806   -1.6922758  0.068803741   -3.1745806    1.4823048   396900 
  310000   0.98707197   -3.1752288   -3.1752288   -1.6946246  0.068776344   -3.1752288    1.4806042   396900 
  311000     0.987056   -3.1742495   -3.1742495   -1.6936692  0.068219242   -3.1742495    1.4805803   396900 
  312000   0.98607404   -3.1760431   -3.1760431   -1.6969358  0.072173248   -3.1760431    1.4791073   396900 
  313000   0.98538552   -3.1778777   -3.1778777   -1.6998032  0.067615296   -3.1778777    1.4780746   396900 
  314000   0.98785023   -3.1812922   -3.1812922   -1.6995206  0.069893832   -3.1812922    1.4817716   396900 
  315000   0.98486985    -3.180737    -3.180737   -1.7034359  0.067893594    -3.180737     1.477301   396900 
  316000   0.98517895   -3.1815838   -3.1815838   -1.7038191   0.06587126   -3.1815838    1.4777647   396900 
  317000   0.98458871   -3.1827322   -3.1827322   -1.7058529  0.066423165   -3.1827322    1.4768793   396900 
  318000   0.98295813   -3.1846017   -3.1846017   -1.7101682  0.065355565   -3.1846017    1.4744335   396900 
  319000    0.9803895   -3.1827104   -3.1827104   -1.7121299  0.062302313   -3.1827104    1.4705805   396900 
  320000   0.98464275   -3.1882384   -3.1882384    -1.711278  0.065364686   -3.1882384    1.4769604   396900 
  321000   0.98444967   -3.1894314   -3.1894314   -1.7127606  0.062658911   -3.1894314    1.4766708   396900 
  322000   0.98292407   -3.1904589   -3.1904589   -1.7160765  0.067735701   -3.1904589    1.4743824   396900 
  323000   0.98505643   -3.1926036   -3.1926036   -1.7150227  0.063979045   -3.1926036    1.4775809   396900 
  324000   0.98574327   -3.1945895   -3.1945895   -1.7159783  0.066878293   -3.1945895    1.4786112   396900 
  325000   0.98249943   -3.1926276   -3.1926276   -1.7188821  0.066250614   -3.1926276    1.4737454   396900 
  326000   0.98404776   -3.1941825   -3.1941825   -1.7181146   0.06581025   -3.1941825    1.4760679   396900 
  327000   0.98038789   -3.1930564   -3.1930564   -1.7224783  0.064570672   -3.1930564    1.4705781   396900 
  328000   0.98203359   -3.1972197   -3.1972197    -1.724173  0.061760422   -3.1972197    1.4730467   396900 
  329000   0.98117345   -3.1962372   -3.1962372   -1.7244807  0.064898869   -3.1962372    1.4717565   396900 
  330000   0.98140729   -3.1965931   -3.1965931   -1.7244859  0.074049017   -3.1965931    1.4721072   396900 
  331000   0.98271972    -3.200158    -3.200158   -1.7260821  0.064784277    -3.200158    1.4740759   396900 
  332000   0.98312094   -3.2007393   -3.2007393   -1.7260616  0.071824222   -3.2007393    1.4746777   396900 
  333000   0.98379326   -3.2030877   -3.2030877   -1.7274015  0.070601523   -3.2030877    1.4756862   396900 
  334000   0.98447167   -3.2017781   -3.2017781   -1.7250743  0.074079582   -3.2017781    1.4767038   396900 
  335000   0.98383309   -3.2023806   -3.2023806   -1.7266346   0.06505924   -3.2023806    1.4757459   396900 
  336000    0.9858127   -3.2043594   -3.2043594   -1.7256441  0.066550738   -3.2043594    1.4787153   396900 
  337000   0.98369766   -3.2030301   -3.2030301   -1.7274873  0.070034688   -3.2030301    1.4755428   396900 
  338000   0.98353813   -3.2046451   -3.2046451   -1.7293417  0.070979108   -3.2046451    1.4753035   396900 
  339000   0.98327041   -3.2064509   -3.2064509    -1.731549  0.063366261   -3.2064509    1.4749019   396900 
  340000   0.98242508   -3.2072567   -3.2072567   -1.7336228  0.063409754   -3.2072567    1.4736339   396900 
  341000   0.98186759   -3.2069995   -3.2069995   -1.7342018  0.069904599   -3.2069995    1.4727977   396900 
  342000   0.98389046   -3.2090068   -3.2090068   -1.7331748  0.069490245   -3.2090068     1.475832   396900 
  343000   0.98158228   -3.2078375   -3.2078375   -1.7354678  0.068311951   -3.2078375    1.4723697   396900 
  344000   0.98239869   -3.2086313   -3.2086313   -1.7350369  0.070040295   -3.2086313    1.4735943   396900 
  345000   0.98296501   -3.2109615   -3.2109615   -1.7365177  0.067292404   -3.2109615    1.4744438   396900 
  346000   0.98166822   -3.2126782   -3.2126782   -1.7401796  0.069981085   -3.2126782    1.4724986   396900 
  347000   0.98141574   -3.2105074   -3.2105074   -1.7383875  0.071248508   -3.2105074    1.4721199   396900 
  348000    0.9828476   -3.2152437   -3.2152437    -1.740976  0.061959113   -3.2152437    1.4742677   396900 
  349000   0.98163274    -3.213606    -3.213606   -1.7411606  0.068476832    -3.213606    1.4724454   396900 
  350000   0.98036225   -3.2141517   -3.2141517    -1.743612  0.065747892   -3.2141517    1.4705397   396900 
  351000   0.98012777   -3.2156657   -3.2156657   -1.7454777  0.065634641   -3.2156657    1.4701879   396900 
  352000   0.97941352   -3.2138369   -3.2138369   -1.7447203  0.063471578   -3.2138369    1.4691166   396900 
  353000   0.98073772    -3.215546    -3.215546   -1.7444431    0.0672794    -3.215546    1.4711029   396900 
  354000   0.98241569   -3.2165611   -3.2165611   -1.7429413  0.071150156   -3.2165611    1.4736198   396900 
  355000   0.98071487   -3.2179364   -3.2179364   -1.7468678  0.069639159   -3.2179364    1.4710686   396900 
  356000   0.98054657   -3.2191581   -3.2191581    -1.748342  0.065932666   -3.2191581    1.4708161   396900 
  357000   0.98150267   -3.2215102   -3.2215102     -1.74926  0.065464351   -3.2215102    1.4722503   396900 
  358000   0.98020198   -3.2197326   -3.2197326   -1.7494334  0.065897949   -3.2197326    1.4702993   396900 
  359000   0.98054434   -3.2237073   -3.2237073   -1.7528945  0.066686149   -3.2237073    1.4708128   396900 
  360000   0.97815573   -3.2242904   -3.2242904   -1.7570605  0.065037296   -3.2242904    1.4672299   396900 
  361000   0.97923598   -3.2273924   -3.2273924   -1.7585421  0.061923378   -3.2273924    1.4688503   396900 
  362000   0.97898525   -3.2291147   -3.2291147   -1.7606405  0.064464166   -3.2291147    1.4684742   396900 
  363000   0.97876285   -3.2291535   -3.2291535   -1.7610129  0.057851662   -3.2291535    1.4681406   396900 
  364000   0.98145158    -3.229282    -3.229282   -1.7571084  0.067150888    -3.229282    1.4721737   396900 
  365000   0.98115976   -3.2275388   -3.2275388   -1.7558029  0.071609543   -3.2275388    1.4717359   396900 
  366000   0.98024987    -3.229742    -3.229742   -1.7593709  0.062535483    -3.229742    1.4703711   396900 
  367000   0.97891848   -3.2295197   -3.2295197   -1.7611456  0.066953925   -3.2295197     1.468374   396900 
  368000   0.97984095   -3.2311282   -3.2311282   -1.7613705  0.065591599   -3.2311282    1.4697577   396900 
  369000   0.98043679   -3.2294581   -3.2294581   -1.7588066  0.070952504   -3.2294581    1.4706515   396900 
  370000   0.97905708   -3.2296973   -3.2296973   -1.7611153   0.06676343   -3.2296973    1.4685819   396900 
  371000   0.97854042   -3.2316192   -3.2316192   -1.7638123  0.065784044   -3.2316192    1.4678069   396900 
  372000   0.97840812   -3.2311404   -3.2311404   -1.7635319  0.062051341   -3.2311404    1.4676085   396900 
  373000    0.9770706   -3.2308545   -3.2308545   -1.7652523  0.064307485   -3.2308545    1.4656022   396900 
  374000   0.97667425   -3.2324899   -3.2324899   -1.7674822  0.063023273   -3.2324899    1.4650077   396900 
  375000   0.97828569   -3.2316745   -3.2316745   -1.7642496  0.067758404   -3.2316745    1.4674248   396900 
  376000   0.97864014   -3.2353727   -3.2353727   -1.7674162  0.066861386   -3.2353727    1.4679565   396900 
  377000   0.97891297   -3.2329467   -3.2329467    -1.764581  0.061993812   -3.2329467    1.4683657   396900 
  378000     0.975864   -3.2303898   -3.2303898   -1.7665975  0.066577496   -3.2303898    1.4637923   396900 
  379000   0.97727719   -3.2348363   -3.2348363   -1.7689242  0.058830845   -3.2348363    1.4659121   396900 
  380000   0.97535359   -3.2323156   -3.2323156   -1.7692889  0.063475366   -3.2323156    1.4630267   396900 
  381000   0.97712518   -3.2349642   -3.2349642   -1.7692801   0.06451371   -3.2349642    1.4656841   396900 
  382000   0.97752479   -3.2363247   -3.2363247   -1.7700412  0.070295959   -3.2363247    1.4662835   396900 
  383000   0.97976007   -3.2394126   -3.2394126   -1.7697762  0.065033898   -3.2394126    1.4696364   396900 
  384000   0.97555485   -3.2364824   -3.2364824   -1.7731538  0.066474064   -3.2364824    1.4633286   396900 
  385000   0.97504225   -3.2369486   -3.2369486   -1.7743889  0.065084946   -3.2369486    1.4625597   396900 
  386000   0.97800739   -3.2406077   -3.2406077   -1.7736003  0.063642424   -3.2406077    1.4670074   396900 
  387000   0.97809032    -3.241334    -3.241334   -1.7742022  0.069221594    -3.241334    1.4671318   396900 
  388000   0.97848316   -3.2432754   -3.2432754   -1.7755543  0.063864352   -3.2432754     1.467721   396900 
  389000   0.97719628    -3.241989    -3.241989   -1.7761983  0.066399545    -3.241989    1.4657907   396900 
  390000    0.9754471   -3.2423754   -3.2423754   -1.7792084  0.064697834   -3.2423754     1.463167   396900 
  391000    0.9759847   -3.2451956   -3.2451956   -1.7812222  0.063542004   -3.2451956    1.4639734   396900 
  392000   0.97439455   -3.2473566   -3.2473566   -1.7857684    0.0588335   -3.2473566    1.4615881   396900 
  393000   0.97432511   -3.2446046   -3.2446046   -1.7831206  0.061240785   -3.2446046     1.461484   396900 
  394000   0.97490281   -3.2463415   -3.2463415    -1.783991  0.065784297   -3.2463415    1.4623505   396900 
  395000   0.97563761    -3.246058    -3.246058   -1.7826053  0.066466018    -3.246058    1.4634527   396900 
  396000   0.97526776   -3.2460891   -3.2460891   -1.7831911  0.068497996   -3.2460891     1.462898   396900 
  397000   0.97619843   -3.2482111   -3.2482111   -1.7839171  0.064505169   -3.2482111     1.464294   396900 
  398000   0.97488731   -3.2478597   -3.2478597   -1.7855324  0.072706239   -3.2478597    1.4623273   396900 
  399000   0.97663784    -3.247692    -3.247692   -1.7827389  0.068685147    -3.247692    1.4649531   396900 
  400000   0.97500863   -3.2489302   -3.2489302   -1.7864209  0.067835368   -3.2489302    1.4625093   396900 
  401000    0.9754554   -3.2519133   -3.2519133   -1.7887338  0.064579476   -3.2519133    1.4631794   396900 
  402000   0.97452374   -3.2533101   -3.2533101   -1.7915282  0.059423105   -3.2533101    1.4617819   396900 
  403000   0.97526055   -3.2536737   -3.2536737   -1.7907865  0.064994638   -3.2536737    1.4628871   396900 
  404000    0.9747829    -3.255337    -3.255337   -1.7931663  0.067633812    -3.255337    1.4621707   396900 
  405000   0.97464635   -3.2556679   -3.2556679   -1.7937021  0.062483762   -3.2556679    1.4619658   396900 
  406000   0.97508287   -3.2572208   -3.2572208   -1.7946002  0.063097083   -3.2572208    1.4626206   396900 
  407000   0.97512352   -3.2584611   -3.2584611   -1.7957795   0.06215081   -3.2584611    1.4626816   396900 
  408000   0.97495264    -3.257363    -3.257363   -1.7949377  0.070143283    -3.257363    1.4624253   396900 
  409000   0.97465464   -3.2586873   -3.2586873    -1.796709  0.066906483   -3.2586873    1.4619783   396900 
  410000   0.97434068   -3.2595993   -3.2595993    -1.798092  0.065623521   -3.2595993    1.4615073   396900 
  411000   0.97484818   -3.2618158   -3.2618158   -1.7995472  0.069017472   -3.2618158    1.4622686   396900 
  412000   0.97293028   -3.2618867   -3.2618867    -1.802495  0.068534154   -3.2618867    1.4593917   396900 
  413000   0.97412927   -3.2639673   -3.2639673   -1.8027771  0.063710778   -3.2639673    1.4611902   396900 
  414000   0.97412067   -3.2622721   -3.2622721   -1.8010948  0.073152465   -3.2622721    1.4611773   396900 
  415000   0.97425106   -3.2642835   -3.2642835   -1.8029106  0.065081299   -3.2642835    1.4613729   396900 
  416000   0.97534335   -3.2671442   -3.2671442   -1.8041328  0.065378616   -3.2671442    1.4630113   396900 
  417000   0.97554023    -3.263668    -3.263668   -1.8003613  0.071862325    -3.263668    1.4633067   396900 
  418000   0.97447487   -3.2658994   -3.2658994   -1.8041908  0.064953581   -3.2658994    1.4617086   396900 
  419000   0.97504554   -3.2663872   -3.2663872   -1.8038226  0.065683323   -3.2663872    1.4625646   396900 
  420000   0.97395054   -3.2662233   -3.2662233   -1.8053012  0.060417523   -3.2662233    1.4609221   396900 
  421000   0.97240194   -3.2643163   -3.2643163   -1.8057171  0.064059253   -3.2643163    1.4585992   396900 
  422000   0.97115475   -3.2659055   -3.2659055   -1.8091771  0.058038498   -3.2659055    1.4567285   396900 
  423000   0.97277187   -3.2689153   -3.2689153   -1.8097611  0.058265982   -3.2689153    1.4591541   396900 
  424000   0.97151843   -3.2687213   -3.2687213   -1.8114474   0.06346828   -3.2687213     1.457274   396900 
  425000    0.9721988   -3.2689231   -3.2689231   -1.8106286  0.066785884   -3.2689231    1.4582945   396900 
  426000   0.97320839   -3.2721522   -3.2721522   -1.8123433  0.065705892   -3.2721522    1.4598089   396900 
  427000   0.97270582   -3.2707362   -3.2707362   -1.8116812  0.060838928   -3.2707362    1.4590551   396900 
  428000    0.9714849   -3.2716044   -3.2716044   -1.8143807  0.061480008   -3.2716044    1.4572237   396900 
  429000   0.97193322   -3.2718588   -3.2718588   -1.8139627  0.065153052   -3.2718588    1.4578962   396900 
  430000   0.97150719   -3.2729222   -3.2729222   -1.8156651  0.065176905   -3.2729222    1.4572571   396900 
  431000    0.9740019   -3.2740153   -3.2740153   -1.8130161  0.061601591   -3.2740153    1.4609992   396900 
  432000   0.97349773   -3.2753791   -3.2753791   -1.8151362  0.059238642   -3.2753791    1.4602429   396900 
  433000   0.97109136   -3.2707192   -3.2707192   -1.8140858  0.062424187   -3.2707192    1.4566334   396900 
  434000    0.9720274   -3.2717864   -3.2717864    -1.813749  0.066286793   -3.2717864    1.4580374   396900 
  435000   0.97246072   -3.2733814   -3.2733814   -1.8146939  0.064092961   -3.2733814    1.4586874   396900 
  436000   0.97375293   -3.2737355   -3.2737355   -1.8131098  0.061091254   -3.2737355    1.4606257   396900 
  437000   0.97174513   -3.2740083   -3.2740083   -1.8163943  0.061626563   -3.2740083     1.457614   396900 
  438000   0.97041268   -3.2736212   -3.2736212   -1.8180058  0.058764241   -3.2736212    1.4556153   396900 
  439000    0.9708198   -3.2738715   -3.2738715   -1.8176454  0.064838093   -3.2738715     1.456226   396900 
  440000   0.97197825   -3.2759968   -3.2759968   -1.8180331  0.065072543   -3.2759968    1.4579637   396900 
  441000   0.97026785   -3.2771754   -3.2771754   -1.8217772  0.066808035   -3.2771754    1.4553981   396900 
  442000   0.97021463   -3.2767108   -3.2767108   -1.8213925  0.063389605   -3.2767108    1.4553183   396900 
  443000    0.9722649   -3.2801984   -3.2801984   -1.8218047  0.057903399   -3.2801984    1.4583937   396900 
  444000   0.97358546   -3.2821974   -3.2821974   -1.8218229  0.062428449   -3.2821974    1.4603745   396900 
  445000   0.97053291   -3.2796651   -3.2796651   -1.8238694  0.066888487   -3.2796651    1.4557957   396900 
  446000   0.97127866   -3.2833234   -3.2833234   -1.8264091  0.060933143   -3.2833234    1.4569143   396900 
  447000   0.96992787   -3.2841425   -3.2841425   -1.8292544  0.058984034   -3.2841425    1.4548881   396900 
  448000   0.97023186   -3.2837088   -3.2837088   -1.8283647  0.061670334   -3.2837088    1.4553441   396900 
  449000   0.97157625   -3.2868986   -3.2868986   -1.8295379  0.063329394   -3.2868986    1.4573607   396900 
  450000   0.97017641   -3.2874222   -3.2874222   -1.8321613  0.059658288   -3.2874222    1.4552609   396900 
  451000   0.97149992   -3.2886529   -3.2886529   -1.8314067  0.063864135   -3.2886529    1.4572462   396900 
  452000   0.97036882   -3.2891637   -3.2891637   -1.8336141   0.06101053   -3.2891637    1.4555496   396900 
  453000   0.97174907   -3.2909459   -3.2909459    -1.833326  0.060588667   -3.2909459    1.4576199   396900 
  454000   0.96821343   -3.2887393   -3.2887393   -1.8364228  0.061314459   -3.2887393    1.4523165   396900 
  455000   0.96893765   -3.2888895   -3.2888895   -1.8354866  0.061350315   -3.2888895    1.4534028   396900 
  456000   0.96913702   -3.2910645   -3.2910645   -1.8373626  0.061860097   -3.2910645    1.4537019   396900 
  457000   0.96937104   -3.2886959   -3.2886959    -1.834643  0.065625955   -3.2886959    1.4540529   396900 
  458000   0.97039312   -3.2897572   -3.2897572   -1.8341711  0.064742414   -3.2897572     1.455586   396900 
  459000   0.97019384   -3.2904415   -3.2904415   -1.8351544  0.066571426   -3.2904415    1.4552871   396900 
  460000   0.96908798    -3.292093    -3.292093   -1.8384647  0.063288407    -3.292093    1.4536283   396900 
  461000   0.97022394    -3.294225    -3.294225   -1.8388927  0.060268453    -3.294225    1.4553322   396900 
  462000   0.97047118   -3.2961929   -3.2961929   -1.8404898  0.061487904   -3.2961929    1.4557031   396900 
  463000    0.9695855    -3.297929    -3.297929   -1.8435545  0.059105197    -3.297929    1.4543746   396900 
  464000   0.96679631   -3.2972518   -3.2972518    -1.847061  0.058367815   -3.2972518    1.4501908   396900 
  465000   0.96650863    -3.298007    -3.298007   -1.8482478  0.060937734    -3.298007    1.4497593   396900 
  466000   0.96756108   -3.2997428   -3.2997428   -1.8484049  0.062866827   -3.2997428     1.451338   396900 
  467000   0.96991275   -3.3031648   -3.3031648   -1.8482993  0.061195854   -3.3031648    1.4548655   396900 
  468000   0.96717148   -3.3031517   -3.3031517   -1.8523981  0.059666149   -3.3031517    1.4507536   396900 
  469000    0.9684686   -3.3051746   -3.3051746   -1.8524754   0.06724647   -3.3051746    1.4526992   396900 
  470000   0.96867466   -3.3080838   -3.3080838   -1.8550755   0.06016665   -3.3080838    1.4530083   396900 
  471000   0.96764649   -3.3074147   -3.3074147   -1.8559486  0.061141749   -3.3074147    1.4514661   396900 
  472000   0.96830406   -3.3072397   -3.3072397   -1.8547873  0.061163017   -3.3072397    1.4524524   396900 
  473000   0.96697784   -3.3055915   -3.3055915   -1.8551284  0.057681217   -3.3055915    1.4504631   396900 
  474000   0.96550149   -3.3023045   -3.3023045   -1.8540559  0.062580837   -3.3023045    1.4482486   396900 
  475000   0.96667766   -3.3039276   -3.3039276   -1.8539148  0.058360467   -3.3039276    1.4500128   396900 
  476000   0.96573569   -3.3054168   -3.3054168   -1.8568169  0.057550796   -3.3054168    1.4485999   396900 
  477000   0.96625501   -3.3054922   -3.3054922   -1.8561134   0.05460416   -3.3054922    1.4493789   396900 
  478000   0.96510061   -3.3020345   -3.3020345   -1.8543872  0.065667218   -3.3020345    1.4476473   396900 
  479000   0.96567015   -3.3037019   -3.3037019   -1.8552003  0.062222706   -3.3037019    1.4485016   396900 
  480000   0.96633847   -3.3057933   -3.3057933   -1.8562893  0.061765452   -3.3057933     1.449504   396900 
  481000    0.9661929   -3.3046059   -3.3046059   -1.8553202  0.059993977   -3.3046059    1.4492857   396900 
  482000   0.96695338   -3.3054087   -3.3054087   -1.8549822   0.05895011   -3.3054087    1.4504264   396900 
  483000   0.96584054   -3.3070173   -3.3070173   -1.8582602  0.061132601   -3.3070173    1.4487572   396900 
  484000   0.96648249   -3.3087714   -3.3087714   -1.8590513  0.059228924   -3.3087714    1.4497201   396900 
  485000    0.9649308   -3.3096743   -3.3096743   -1.8622818  0.059801977   -3.3096743    1.4473926   396900 
  486000   0.96569248   -3.3111946   -3.3111946   -1.8626595  0.063291345   -3.3111946    1.4485351   396900 
  487000   0.96516086   -3.3127848   -3.3127848   -1.8650471  0.067447529   -3.3127848    1.4477376   396900 
  488000   0.96697257   -3.3150103   -3.3150103   -1.8645551  0.058559737   -3.3150103    1.4504552   396900 
  489000   0.96573726   -3.3171195   -3.3171195   -1.8685172   0.05816791   -3.3171195    1.4486022   396900 
  490000   0.96460673   -3.3163691   -3.3163691   -1.8694626   0.06260155   -3.3163691    1.4469065   396900 
  491000   0.96564909   -3.3193044   -3.3193044   -1.8708344   0.06323731   -3.3193044      1.44847   396900 
  492000   0.96532988   -3.3206296   -3.3206296   -1.8726384  0.061963447   -3.3206296    1.4479912   396900 
  493000   0.96465705   -3.3195308   -3.3195308   -1.8725488  0.059638276   -3.3195308    1.4469819   396900 
  494000   0.96292497   -3.3242995   -3.3242995   -1.8799157  0.056902547   -3.3242995    1.4443838   396900 
  495000   0.96469821   -3.3279634   -3.3279634   -1.8809197  0.060503719   -3.3279634    1.4470437   396900 
  496000   0.96542245   -3.3270031   -3.3270031   -1.8788731  0.061140969   -3.3270031      1.44813   396900 
  497000   0.96767495   -3.3293211   -3.3293211   -1.8778124    0.0633473   -3.3293211    1.4515088   396900 
  498000   0.96578361   -3.3284039   -3.3284039   -1.8797322  0.059708171   -3.3284039    1.4486718   396900 
  499000   0.96540981   -3.3264131   -3.3264131   -1.8783021  0.061300993   -3.3264131    1.4481111   396900 
  500000   0.96717517   -3.3271143   -3.3271143   -1.8763552  0.061171237   -3.3271143    1.4507591   396900 
  501000    0.9644407   -3.3253201   -3.3253201   -1.8786627  0.058888082   -3.3253201    1.4466574   396900 
  502000   0.96422589   -3.3273031   -3.3273031   -1.8809679  0.057562802   -3.3273031    1.4463352   396900 
  503000   0.96358872   -3.3275884   -3.3275884    -1.882209  0.059558544   -3.3275884    1.4453794   396900 
  504000   0.96410804   -3.3281768   -3.3281768   -1.8820183  0.057797764   -3.3281768    1.4461584   396900 
  505000   0.96641521   -3.3305281   -3.3305281   -1.8809089  0.054672066   -3.3305281    1.4496192   396900 
  506000   0.96512821   -3.3298062   -3.3298062   -1.8821175  0.058413774   -3.3298062    1.4476887   396900 
  507000   0.96247159   -3.3282208   -3.3282208    -1.884517  0.063039253   -3.3282208    1.4437037   396900 
  508000   0.96363721   -3.3303647   -3.3303647   -1.8849125  0.057831252   -3.3303647    1.4454522   396900 
  509000   0.96219976    -3.330299    -3.330299    -1.887003   0.06081801    -3.330299     1.443296   396900 
  510000   0.96290771   -3.3322968   -3.3322968   -1.8879389   0.05896211   -3.3322968    1.4443579   396900 
  511000   0.96375758   -3.3327105   -3.3327105   -1.8870778  0.058035625   -3.3327105    1.4456327   396900 
  512000   0.96448961   -3.3339719   -3.3339719   -1.8872411  0.053833473   -3.3339719    1.4467308   396900 
  513000   0.96534947   -3.3356601   -3.3356601   -1.8876395  0.061799134   -3.3356601    1.4480206   396900 
  514000   0.96196659   -3.3341058   -3.3341058   -1.8911596  0.055008097   -3.3341058    1.4429463   396900 
  515000   0.96208883   -3.3354536   -3.3354536    -1.892324  0.055080814   -3.3354536    1.4431296   396900 
  516000   0.96482828   -3.3390463   -3.3390463   -1.8918076  0.056790155   -3.3390463    1.4472388   396900 
  517000   0.96291901   -3.3375715   -3.3375715   -1.8931967  0.056871025   -3.3375715    1.4443749   396900 
  518000   0.96256517   -3.3387096   -3.3387096   -1.8948655  0.056762462   -3.3387096    1.4438441   396900 
  519000   0.96277557   -3.3401875   -3.3401875   -1.8960278  0.063132667   -3.3401875    1.4441597   396900 
  520000   0.96329923   -3.3428333   -3.3428333    -1.897888  0.059790881   -3.3428333    1.4449452   396900 
  521000   0.96078849   -3.3411507   -3.3411507   -1.8999715  0.060636701   -3.3411507    1.4411791   396900 
  522000   0.96230864   -3.3410411   -3.3410411   -1.8975818  0.062104308   -3.3410411    1.4434593   396900 
  523000   0.96269437   -3.3418079   -3.3418079     -1.89777  0.060666326   -3.3418079    1.4440379   396900 
  524000   0.96322296   -3.3410798   -3.3410798    -1.896249  0.060183777   -3.3410798    1.4448308   396900 
  525000   0.96383685   -3.3423503   -3.3423503   -1.8965987  0.064062075   -3.3423503    1.4457516   396900 
  526000    0.9630402   -3.3444485   -3.3444485   -1.8998919  0.061357878   -3.3444485    1.4445567   396900 
  527000   0.96409089   -3.3466236   -3.3466236   -1.9004909  0.059261381   -3.3466236    1.4461327   396900 
  528000   0.96228132   -3.3449641   -3.3449641   -1.9015457  0.062587999   -3.3449641    1.4434183   396900 
  529000   0.96068216   -3.3440021   -3.3440021   -1.9029825  0.059104757   -3.3440021    1.4410196   396900 
  530000   0.96177169   -3.3447751   -3.3447751   -1.9021212   0.05881312   -3.3447751    1.4426539   396900 
  531000   0.96226278   -3.3476896   -3.3476896    -1.904299  0.059938229   -3.3476896    1.4433905   396900 
  532000   0.96221022   -3.3472497   -3.3472497    -1.903938  0.061084545   -3.3472497    1.4433117   396900 
  533000   0.96108035   -3.3471171   -3.3471171   -1.9055002  0.059613182   -3.3471171    1.4416169   396900 
  534000   0.96321822   -3.3506751   -3.3506751   -1.9058514  0.064181465   -3.3506751    1.4448237   396900 
  535000   0.96188149   -3.3500406   -3.3500406    -1.907222  0.059412174   -3.3500406    1.4428186   396900 
  536000   0.96084276   -3.3492613   -3.3492613   -1.9080008  0.055799356   -3.3492613    1.4412605   396900 
  537000   0.96079277   -3.3491974   -3.3491974   -1.9080119  0.061685913   -3.3491974    1.4411855   396900 
  538000   0.96057179   -3.3505892   -3.3505892   -1.9097351  0.063325342   -3.3505892     1.440854   396900 
  539000   0.96090438   -3.3509728   -3.3509728   -1.9096199  0.063699462   -3.3509728    1.4413529   396900 
  540000   0.95878663   -3.3486334   -3.3486334   -1.9104571  0.065332352   -3.3486334    1.4381763   396900 
  541000   0.95990817   -3.3520402   -3.3520402   -1.9121816  0.060340932   -3.3520402    1.4398586   396900 
  542000   0.95749356   -3.3509771   -3.3509771   -1.9147403  0.057057052   -3.3509771    1.4362367   396900 
  543000   0.96192748   -3.3537675   -3.3537675   -1.9108799  0.060196177   -3.3537675    1.4428876   396900 
  544000   0.96039356   -3.3548007   -3.3548007    -1.914214  0.058608343   -3.3548007    1.4405867   396900 
  545000   0.95879524   -3.3562463   -3.3562463   -1.9180571  0.058110846   -3.3562463    1.4381892   396900 
  546000   0.95888656   -3.3553373   -3.3553373   -1.9170111  0.060200298   -3.3553373    1.4383262   396900 
  547000   0.95990771     -3.35539     -3.35539    -1.915532  0.060583809     -3.35539    1.4398579   396900 
  548000   0.96220717   -3.3610507   -3.3610507   -1.9177436  0.059080698   -3.3610507    1.4433071   396900 
  549000   0.96018732   -3.3589387   -3.3589387   -1.9186613  0.060456584   -3.3589387    1.4402773   396900 
  550000   0.95991539    -3.359719    -3.359719   -1.9198495  0.057930679    -3.359719    1.4398695   396900 
  551000   0.95884266   -3.3581368   -3.3581368   -1.9198764  0.058153084   -3.3581368    1.4382604   396900 
  552000   0.95880879   -3.3586248   -3.3586248   -1.9204152  0.059099386   -3.3586248    1.4382096   396900 
  553000   0.95820618   -3.3591038   -3.3591038   -1.9217982  0.059147507   -3.3591038    1.4373057   396900 
  554000   0.95948559   -3.3614529   -3.3614529   -1.9222281  0.056372775   -3.3614529    1.4392248   396900 
  555000   0.95954136   -3.3615089   -3.3615089   -1.9222005  0.059854295   -3.3615089    1.4393084   396900 
  556000   0.96057339     -3.36313     -3.36313   -1.9222735   0.05759499     -3.36313    1.4408565   396900 
  557000   0.95835103   -3.3611004   -3.3611004   -1.9235775  0.059218437   -3.3611004    1.4375229   396900 
  558000   0.95944605   -3.3641833   -3.3641833   -1.9250179  0.061180167   -3.3641833    1.4391654   396900 
  559000    0.9576092   -3.3645817   -3.3645817   -1.9281715  0.056892046   -3.3645817    1.4364102   396900 
  560000   0.95881544   -3.3653959   -3.3653959   -1.9271764  0.060969517   -3.3653959    1.4382195   396900 
  561000   0.95923274   -3.3670295   -3.3670295    -1.928184  0.055991576   -3.3670295    1.4388455   396900 
  562000   0.95830292   -3.3658895   -3.3658895   -1.9284387  0.062968588   -3.3658895    1.4374508   396900 
  563000   0.95861784   -3.3668223   -3.3668223   -1.9288992  0.057879164   -3.3668223    1.4379231   396900 
  564000   0.95640201   -3.3643662   -3.3643662   -1.9297668  0.066672518   -3.3643662    1.4345994   396900 
  565000   0.95765005   -3.3677841   -3.3677841   -1.9313126  0.059172167   -3.3677841    1.4364715   396900 
  566000   0.95758519   -3.3681547   -3.3681547   -1.9317805  0.055282712   -3.3681547    1.4363742   396900 
  567000   0.95944898   -3.3686484   -3.3686484   -1.9294786  0.064056321   -3.3686484    1.4391698   396900 
  568000   0.95939287   -3.3690672   -3.3690672   -1.9299815  0.059546769   -3.3690672    1.4390857   396900 
  569000   0.95874842   -3.3689227   -3.3689227   -1.9308037  0.054006861   -3.3689227     1.438119   396900 
  570000   0.95819458   -3.3676933   -3.3676933   -1.9304051  0.056986811   -3.3676933    1.4372883   396900 
  571000   0.95698801   -3.3655279   -3.3655279   -1.9300495  0.055793115   -3.3655279    1.4354784   396900 
  572000    0.9570654   -3.3663544   -3.3663544     -1.93076   0.05784908   -3.3663544    1.4355945   396900 
  573000   0.95783573    -3.365581    -3.365581   -1.9288311  0.056600051    -3.365581      1.43675   396900 
  574000   0.95620544   -3.3655727   -3.3655727   -1.9312681  0.053796024   -3.3655727    1.4343045   396900 
  575000   0.95809298   -3.3680086   -3.3680086   -1.9308728  0.059517026   -3.3680086    1.4371359   396900 
  576000   0.95669145   -3.3677726   -3.3677726   -1.9327391  0.053026014   -3.3677726    1.4350336   396900 
  577000   0.95784673   -3.3720952   -3.3720952   -1.9353287  0.054829601   -3.3720952    1.4367665   396900 
  578000   0.95694186   -3.3698146   -3.3698146   -1.9344054  0.055991276   -3.3698146    1.4354092   396900 
  579000   0.95698823   -3.3708006   -3.3708006   -1.9353219  0.055538187   -3.3708006    1.4354787   396900 
  580000   0.95572564   -3.3686822   -3.3686822   -1.9350973  0.056126338   -3.3686822    1.4335848   396900 
  581000   0.95481289   -3.3706395   -3.3706395   -1.9384237  0.057892627   -3.3706395    1.4322157   396900 
  582000   0.95752564   -3.3744752   -3.3744752   -1.9381904  0.058946735   -3.3744752    1.4362848   396900 
  583000   0.95751615   -3.3739571   -3.3739571   -1.9376864  0.059939235   -3.3739571    1.4362706   396900 
  584000     0.956675   -3.3746781   -3.3746781   -1.9396692  0.059588222   -3.3746781    1.4350089   396900 
  585000   0.95767002   -3.3741442   -3.3741442   -1.9376428  0.059858783   -3.3741442    1.4365014   396900 
  586000   0.95470253   -3.3740296   -3.3740296   -1.9419794  0.054685864   -3.3740296    1.4320502   396900 
  587000   0.95328157   -3.3724883   -3.3724883   -1.9425696  0.056466236   -3.3724883    1.4299187   396900 
  588000    0.9543797   -3.3756513   -3.3756513   -1.9440853  0.049906444   -3.3756513    1.4315659   396900 
  589000   0.95416009   -3.3755487   -3.3755487   -1.9443121  0.057811862   -3.3755487    1.4312365   396900 
  590000   0.95486427    -3.375923    -3.375923   -1.9436302  0.057971857    -3.375923    1.4322928   396900 
  591000   0.95541689   -3.3784711   -3.3784711   -1.9453494  0.059598438   -3.3784711    1.4331217   396900 
  592000   0.95554393    -3.379411    -3.379411   -1.9460987  0.056800306    -3.379411    1.4333123   396900 
  593000   0.95704122    -3.382547    -3.382547   -1.9469888  0.057718258    -3.382547    1.4355582   396900 
  594000   0.95647027   -3.3825436   -3.3825436   -1.9478418  0.053693033   -3.3825436    1.4347018   396900 
  595000   0.95586549   -3.3821858   -3.3821858   -1.9483912  0.057106602   -3.3821858    1.4337946   396900 
  596000    0.9545898   -3.3805007   -3.3805007   -1.9486196  0.056886274   -3.3805007    1.4318811   396900 
  597000   0.95479105   -3.3832837   -3.3832837   -1.9511008  0.050893015   -3.3832837     1.432183   396900 
  598000    0.9559388    -3.384541    -3.384541   -1.9506364  0.056036923    -3.384541    1.4339046   396900 
  599000   0.95482343   -3.3816773   -3.3816773   -1.9494458  0.055731641   -3.3816773    1.4322315   396900 
  600000   0.95355209    -3.382869    -3.382869   -1.9525444  0.056627182    -3.382869    1.4303245   396900 
  601000   0.95377609   -3.3831758   -3.3831758   -1.9525153  0.055934326   -3.3831758    1.4306605   396900 
  602000   0.95545361    -3.386925    -3.386925   -1.9537482  0.053920975    -3.386925    1.4331768   396900 
  603000   0.95251123   -3.3841007   -3.3841007   -1.9553374  0.054450939   -3.3841007    1.4287632   396900 
  604000   0.95355451   -3.3851799   -3.3851799   -1.9548518  0.056926607   -3.3851799    1.4303282   396900 
  605000   0.95428768   -3.3859638   -3.3859638   -1.9545358  0.052927656   -3.3859638    1.4314279   396900 
  606000   0.95480883    -3.385534    -3.385534   -1.9533244  0.058274564    -3.385534    1.4322096   396900 
  607000   0.95507039   -3.3873854   -3.3873854   -1.9547835  0.057952909   -3.3873854     1.432602   396900 
  608000   0.95317255   -3.3867614   -3.3867614   -1.9570062    0.0546527   -3.3867614    1.4297552   396900 
  609000   0.95296841   -3.3878434   -3.3878434   -1.9583944  0.060467555   -3.3878434     1.429449   396900 
  610000   0.95222001   -3.3919707   -3.3919707   -1.9636443  0.056156557   -3.3919707    1.4283264   396900 
  611000   0.95360227   -3.3946638   -3.3946638    -1.964264  0.054520486   -3.3946638    1.4303998   396900 
  612000   0.95220588   -3.3920693   -3.3920693   -1.9637641  0.053951524   -3.3920693    1.4283052   396900 
  613000   0.95336739   -3.3960334   -3.3960334   -1.9659859  0.053656731   -3.3960334    1.4300475   396900 
  614000   0.95238976   -3.3953913   -3.3953913   -1.9668103   0.05097041   -3.3953913     1.428581   396900 
  615000   0.95316111    -3.399144    -3.399144   -1.9694059  0.046798236    -3.399144    1.4297381   396900 
  616000   0.95097711   -3.3965705   -3.3965705   -1.9701084    0.0532427   -3.3965705    1.4264621   396900 
  617000   0.95336996   -3.4010159   -3.4010159   -1.9709645  0.058511774   -3.4010159    1.4300513   396900 
  618000   0.95167139   -3.4006559   -3.4006559   -1.9731524  0.051015816   -3.4006559    1.4275035   396900 
  619000   0.95318579   -3.4031446   -3.4031446   -1.9733695  0.057426806   -3.4031446    1.4297751   396900 
  620000   0.95262795   -3.4034749   -3.4034749   -1.9745366  0.054752956   -3.4034749    1.4289383   396900 
  621000   0.95309079   -3.4062777   -3.4062777   -1.9766451   0.06047391   -3.4062777    1.4296326   396900 
  622000   0.95147278   -3.4074422   -3.4074422   -1.9802366  0.053296623   -3.4074422    1.4272056   396900 
  623000   0.95138115   -3.4078745   -3.4078745   -1.9808063  0.055955936   -3.4078745    1.4270681   396900 
  624000   0.94948798   -3.4117086   -3.4117086   -1.9874803  0.052740761   -3.4117086    1.4242284   396900 
  625000   0.95139235   -3.4140675   -3.4140675   -1.9869825  0.055806243   -3.4140675    1.4270849   396900 
  626000   0.95019727   -3.4117166   -3.4117166   -1.9864243  0.051111398   -3.4117166    1.4252923   396900 
  627000    0.9498648   -3.4151525   -3.4151525   -1.9903589  0.051782085   -3.4151525    1.4247936   396900 
  628000   0.95047519   -3.4149047   -3.4149047   -1.9891955   0.05890309   -3.4149047    1.4257092   396900 
  629000   0.95058981   -3.4148744   -3.4148744   -1.9889933  0.056420736   -3.4148744    1.4258811   396900 
  630000    0.9508058   -3.4153787   -3.4153787   -1.9891736  0.055580665   -3.4153787    1.4262051   396900 
  631000    0.9494539   -3.4166106   -3.4166106   -1.9924334  0.056478225   -3.4166106    1.4241773   396900 
  632000   0.95073375    -3.417201    -3.417201    -1.991104  0.057583781    -3.417201     1.426097   396900 
  633000   0.94940061   -3.4156902   -3.4156902   -1.9915929   0.05337626   -3.4156902    1.4240973   396900 
  634000   0.95085522   -3.4175263   -3.4175263    -1.991247  0.055848399   -3.4175263    1.4262792   396900 
  635000   0.95125023   -3.4157933   -3.4157933   -1.9889216  0.059585372   -3.4157933    1.4268717   396900 
  636000    0.9501995   -3.4133825   -3.4133825   -1.9880869   0.05899308   -3.4133825    1.4252957   396900 
  637000   0.95070648   -3.4158289   -3.4158289   -1.9897728  0.053515415   -3.4158289    1.4260561   396900 
  638000   0.95109169   -3.4154538   -3.4154538   -1.9888199  0.056895051   -3.4154538    1.4266339   396900 
  639000    0.9499112   -3.4154364   -3.4154364   -1.9905731  0.059026142   -3.4154364    1.4248632   396900 
  640000   0.95046457   -3.4156898   -3.4156898   -1.9899966  0.053852019   -3.4156898    1.4256933   396900 
  641000   0.95172775   -3.4201873   -3.4201873   -1.9925992  0.048629746   -3.4201873     1.427588   396900 
  642000   0.94781744   -3.4169266   -3.4169266    -1.995204  0.055484893   -3.4169266    1.4217226   396900 
  643000   0.94985327   -3.4194061   -3.4194061   -1.9946298  0.058064652   -3.4194061    1.4247763   396900 
  644000   0.95064663   -3.4205813   -3.4205813   -1.9946149  0.057717949   -3.4205813    1.4259664   396900 
  645000   0.94821906   -3.4193046   -3.4193046   -1.9969796  0.051298278   -3.4193046     1.422325   396900 
  646000   0.94839556   -3.4210227   -3.4210227   -1.9984329  0.052309979   -3.4210227    1.4225898   396900 
  647000   0.95084824   -3.4226627   -3.4226627    -1.996394  0.055058789   -3.4226627    1.4262688   396900 
  648000   0.94950811   -3.4246265   -3.4246265   -2.0003679   0.04919283   -3.4246265    1.4242586   396900 
  649000    0.9500439   -3.4258699   -3.4258699   -2.0008076  0.053186651   -3.4258699    1.4250623   396900 
  650000   0.94796228   -3.4223065   -3.4223065   -2.0003667  0.059370887   -3.4223065    1.4219398   396900 
  651000   0.94928673   -3.4234481   -3.4234481   -1.9995216  0.054853197   -3.4234481    1.4239265   396900 
  652000    0.9497759   -3.4236536   -3.4236536   -1.9989933  0.056699934   -3.4236536    1.4246603   396900 
  653000   0.94880505    -3.424037    -3.424037    -2.000833  0.052688966    -3.424037     1.423204   396900 
  654000   0.94657775   -3.4229926   -3.4229926   -2.0031296   0.05257397   -3.4229926    1.4198631   396900 
  655000   0.94754265   -3.4231595   -3.4231595   -2.0018492  0.055464103   -3.4231595    1.4213104   396900 
  656000    0.9479163    -3.425937    -3.425937   -2.0040662  0.052394423    -3.425937    1.4218709   396900 
  657000   0.94727273   -3.4257132   -3.4257132   -2.0048077  0.051359424   -3.4257132    1.4209055   396900 
  658000   0.94725752   -3.4271068   -3.4271068   -2.0062241  0.048844131   -3.4271068    1.4208827   396900 
  659000   0.94715861   -3.4281365   -3.4281365   -2.0074021  0.053284964   -3.4281365    1.4207343   396900 
  660000   0.94700004    -3.431891    -3.431891   -2.0113945    0.0532089    -3.431891    1.4204965   396900 
  661000    0.9468524   -3.4315437   -3.4315437   -2.0112687  0.052937658   -3.4315437     1.420275   396900 
  662000   0.94814768   -3.4350818   -3.4350818   -2.0128639  0.052613403   -3.4350818    1.4222179   396900 
  663000   0.94676641    -3.434904    -3.434904    -2.014758  0.057458326    -3.434904     1.420146   396900 
  664000    0.9464584   -3.4349053   -3.4349053   -2.0152213  0.057524484   -3.4349053     1.419684   396900 
  665000   0.94623897   -3.4360319   -3.4360319    -2.016677  0.056568863   -3.4360319    1.4193549   396900 
  666000    0.9469105   -3.4404392   -3.4404392    -2.020077  0.056739732   -3.4404392    1.4203622   396900 
  667000   0.94471133   -3.4380023   -3.4380023   -2.0209389  0.055066611   -3.4380023    1.4170634   396900 
  668000    0.9435712   -3.4380659   -3.4380659   -2.0227127  0.049737623   -3.4380659    1.4153532   396900 
  669000   0.94591636   -3.4395329   -3.4395329    -2.020662  0.056173571   -3.4395329     1.418871   396900 
  670000   0.94472317    -3.436244    -3.436244   -2.0191629  0.055600917    -3.436244    1.4170812   396900 
  671000   0.94462975   -3.4369015   -3.4369015   -2.0199605  0.056027705   -3.4369015    1.4169411   396900 
  672000   0.94529236   -3.4390057   -3.4390057   -2.0210707  0.052373901   -3.4390057     1.417935   396900 
  673000   0.94613481   -3.4399025   -3.4399025   -2.0207039  0.052700042   -3.4399025    1.4191986   396900 
  674000   0.94694797   -3.4402685   -3.4402685   -2.0198501  0.049886576   -3.4402685    1.4204184   396900 
  675000   0.94587396   -3.4392199   -3.4392199   -2.0204126  0.053653279   -3.4392199    1.4188074   396900 
  676000   0.94535577   -3.4391122   -3.4391122   -2.0210821  0.059648746   -3.4391122    1.4180301   396900 
  677000   0.94502258   -3.4415983   -3.4415983    -2.024068  0.051779668   -3.4415983    1.4175303   396900 
  678000   0.94547962   -3.4432235   -3.4432235   -2.0250076  0.049351155   -3.4432235    1.4182159   396900 
  679000   0.94529889    -3.444386    -3.444386   -2.0264413  0.052044042    -3.444386    1.4179448   396900 
  680000   0.94600651   -3.4452283   -3.4452283   -2.0262221  0.047398629   -3.4452283    1.4190062   396900 
  681000   0.94606526   -3.4462911   -3.4462911   -2.0271968  0.049622978   -3.4462911    1.4190943   396900 
  682000   0.94573838   -3.4469673   -3.4469673   -2.0283633  0.052802142   -3.4469673     1.418604   396900 
  683000   0.94468059     -3.44881     -3.44881   -2.0317927  0.053142286     -3.44881    1.4170173   396900 
  684000   0.94425466   -3.4478406   -3.4478406   -2.0314622  0.052300396   -3.4478406    1.4163784   396900 
  685000   0.94521267   -3.4514909   -3.4514909   -2.0336755  0.050528106   -3.4514909    1.4178154   396900 
  686000   0.94566346   -3.4521357   -3.4521357    -2.033644  0.052189052   -3.4521357    1.4184916   396900 
  687000   0.94376859   -3.4502732   -3.4502732   -2.0346239  0.054005586   -3.4502732    1.4156493   396900 
  688000   0.94644437   -3.4546902   -3.4546902   -2.0350272  0.056786015   -3.4546902     1.419663   396900 
  689000   0.94417186    -3.454287    -3.454287   -2.0380327  0.055187871    -3.454287    1.4162542   396900 
  690000   0.94513718   -3.4553494   -3.4553494   -2.0376472  0.059499615   -3.4553494    1.4177022   396900 
  691000   0.94500893   -3.4566119   -3.4566119    -2.039102  0.055718304   -3.4566119    1.4175098   396900 
  692000   0.94592532   -3.4579529   -3.4579529   -2.0390685  0.053855342   -3.4579529    1.4188844   396900 
  693000   0.94562458     -3.45625     -3.45625   -2.0378167  0.055363958     -3.45625    1.4184333   396900 
  694000   0.94324116   -3.4547102   -3.4547102    -2.039852  0.051883357   -3.4547102    1.4148582   396900 
  695000   0.94383449   -3.4556777   -3.4556777   -2.0399295  0.053342329   -3.4556777    1.4157482   396900 
  696000    0.9448567   -3.4594941   -3.4594941   -2.0422126    0.0517917   -3.4594941    1.4172815   396900 
  697000   0.94618099   -3.4592004   -3.4592004   -2.0399325  0.055283801   -3.4592004    1.4192679   396900 
  698000   0.94333597   -3.4583849   -3.4583849   -2.0433846  0.047456811   -3.4583849    1.4150004   396900 
  699000   0.94388252   -3.4576572   -3.4576572    -2.041837   0.05322451   -3.4576572    1.4158202   396900 
  700000   0.94255399   -3.4573531   -3.4573531   -2.0435257  0.057400939   -3.4573531    1.4138274   396900 
  701000   0.94347828   -3.4563672   -3.4563672   -2.0411534  0.056227149   -3.4563672    1.4152139   396900 
  702000   0.94409362   -3.4596274   -3.4596274   -2.0434905  0.054152028   -3.4596274    1.4161369   396900 
  703000   0.94419798    -3.462119    -3.462119   -2.0458256  0.053714503    -3.462119    1.4162934   396900 
  704000   0.94448705   -3.4596298   -3.4596298   -2.0429027  0.053889439   -3.4596298     1.416727   396900 
  705000   0.94364098   -3.4611587   -3.4611587   -2.0457008  0.055281763   -3.4611587    1.4154579   396900 
  706000   0.94407771   -3.4629542   -3.4629542   -2.0468412  0.051490797   -3.4629542     1.416113   396900 
  707000   0.94256716   -3.4628283   -3.4628283   -2.0489811  0.050203539   -3.4628283    1.4138472   396900 
  708000   0.94247365   -3.4606909   -3.4606909    -2.046984  0.049538547   -3.4606909    1.4137069   396900 
  709000   0.94244068   -3.4613804   -3.4613804   -2.0477229  0.047423507   -3.4613804    1.4136575   396900 
  710000   0.94545629   -3.4627448   -3.4627448    -2.044564  0.056921629   -3.4627448    1.4181809   396900 
  711000   0.94233741    -3.462444    -3.462444   -2.0489415  0.050857208    -3.462444    1.4135026   396900 
  712000   0.94216965   -3.4667899   -3.4667899    -2.053539  0.050335897   -3.4667899    1.4132509   396900 
  713000   0.94207946   -3.4675238   -3.4675238   -2.0544082  0.055834275   -3.4675238    1.4131156   396900 
  714000   0.94147095   -3.4694672   -3.4694672   -2.0572644  0.050747827   -3.4694672    1.4122029   396900 
  715000   0.94061564   -3.4681028   -3.4681028   -2.0571828  0.049151289   -3.4681028    1.4109199   396900 
  716000   0.94177161   -3.4716587   -3.4716587   -2.0590048  0.052489058   -3.4716587    1.4126539   396900 
  717000   0.94117265   -3.4752272   -3.4752272   -2.0634718  0.046956674   -3.4752272    1.4117554   396900 
  718000   0.94220137   -3.4750875   -3.4750875    -2.061789  0.052565916   -3.4750875    1.4132985   396900 
  719000   0.94070375   -3.4738128   -3.4738128   -2.0627607  0.049457676   -3.4738128    1.4110521   396900 
  720000   0.94215946   -3.4719763   -3.4719763   -2.0587406  0.052345634   -3.4719763    1.4132356   396900 
  721000   0.94022264   -3.4718449   -3.4718449   -2.0615145  0.055314874   -3.4718449    1.4103304   396900 
  722000   0.94003751   -3.4721769   -3.4721769   -2.0621241   0.05183857   -3.4721769    1.4100527   396900 
  723000    0.9409069    -3.474203    -3.474203   -2.0628462  0.045636373    -3.474203    1.4113568   396900 
  724000    0.9402048   -3.4730344   -3.4730344   -2.0627307  0.049058379   -3.4730344    1.4103036   396900 
  725000   0.94092512   -3.4742296   -3.4742296   -2.0628454  0.050266468   -3.4742296    1.4113841   396900 
  726000   0.94262995   -3.4765211   -3.4765211   -2.0625798   0.05374981   -3.4765211    1.4139414   396900 
  727000   0.94073139   -3.4784242   -3.4784242   -2.0673307  0.055946416   -3.4784242    1.4110935   396900 
  728000   0.94107965   -3.4788511   -3.4788511   -2.0672352  0.048761632   -3.4788511    1.4116159   396900 
  729000   0.94174244   -3.4795187   -3.4795187   -2.0669086  0.052479732   -3.4795187    1.4126101   396900 
  730000    0.9406888   -3.4798435   -3.4798435   -2.0688139   0.05605977   -3.4798435    1.4110296   396900 
  731000   0.94040377   -3.4806762   -3.4806762   -2.0700741   0.05139721   -3.4806762    1.4106021   396900 
  732000   0.94000836   -3.4819202   -3.4819202   -2.0719112  0.051618512   -3.4819202     1.410009   396900 
  733000   0.93973405   -3.4815492   -3.4815492   -2.0719517  0.055929712   -3.4815492    1.4095975   396900 
  734000   0.94046247   -3.4817039   -3.4817039   -2.0710138  0.049374378   -3.4817039    1.4106902   396900 
  735000   0.93945569   -3.4798583   -3.4798583   -2.0706783  0.054200683   -3.4798583      1.40918   396900 
  736000   0.93901588   -3.4789991   -3.4789991   -2.0704788  0.051285272   -3.4789991    1.4085203   396900 
  737000   0.94150969     -3.48183     -3.48183   -2.0695691  0.051135556     -3.48183     1.412261   396900 
  738000   0.94066041   -3.4800089   -3.4800089   -2.0690218   0.05396019   -3.4800089    1.4109871   396900 
  739000   0.94133048   -3.4821128   -3.4821128   -2.0701207   0.05353859   -3.4821128    1.4119922   396900 
  740000   0.93886231   -3.4802542   -3.4802542   -2.0719643  0.050606074   -3.4802542    1.4082899   396900 
  741000   0.93925021   -3.4793697   -3.4793697    -2.070498  0.050496084   -3.4793697    1.4088718   396900 
  742000    0.9377585   -3.4778014   -3.4778014   -2.0711672  0.051260039   -3.4778014    1.4066342   396900 
  743000   0.93604547   -3.4771618   -3.4771618   -2.0730971  0.043650149   -3.4771618    1.4040647   396900 
  744000   0.93732302   -3.4793984   -3.4793984   -2.0734174  0.048234424   -3.4793984     1.405981   396900 
  745000   0.93745679   -3.4777842   -3.4777842   -2.0716025  0.052387799   -3.4777842    1.4061816   396900 
  746000   0.93834018   -3.4810367   -3.4810367     -2.07353  0.046641925   -3.4810367    1.4075067   396900 
  747000   0.93771503   -3.4813082   -3.4813082   -2.0747392   0.04898113   -3.4813082     1.406569   396900 
  748000    0.9371158   -3.4825062   -3.4825062    -2.076836  0.052057395   -3.4825062    1.4056702   396900 
  749000    0.9376047   -3.4845516   -3.4845516   -2.0781481  0.049457734   -3.4845516    1.4064035   396900 
  750000   0.93754926   -3.4855486   -3.4855486   -2.0792283  0.048740586   -3.4855486    1.4063203   396900 
  751000   0.93817698   -3.4849779   -3.4849779    -2.077716  0.055546143   -3.4849779    1.4072619   396900 
  752000   0.93697278   -3.4847615   -3.4847615   -2.0793058   0.05118232   -3.4847615    1.4054556   396900 
  753000   0.93938582   -3.4889657   -3.4889657   -2.0798905  0.051732272   -3.4889657    1.4090752   396900 
  754000   0.93660738   -3.4862045   -3.4862045    -2.081297  0.052663474   -3.4862045    1.4049075   396900 
  755000   0.93757096   -3.4881378   -3.4881378   -2.0817849   0.05348386   -3.4881378    1.4063529   396900 
  756000    0.9361218   -3.4900631   -3.4900631   -2.0858839  0.048324706   -3.4900631    1.4041792   396900 
  757000   0.93738371   -3.4929541   -3.4929541   -2.0868821  0.054121191   -3.4929541     1.406072   396900 
  758000   0.93780476   -3.4923219   -3.4923219   -2.0856183  0.053316146   -3.4923219    1.4067036   396900 
  759000    0.9366586   -3.4939757   -3.4939757   -2.0889914  0.047376853   -3.4939757    1.4049844   396900 
  760000   0.93773232    -3.496095    -3.496095   -2.0895001   0.05004509    -3.496095    1.4065949   396900 
  761000   0.93637328   -3.4969953   -3.4969953   -2.0924389  0.045850233   -3.4969953    1.4045564   396900 
  762000   0.93548185   -3.4959981   -3.4959981   -2.0927788  0.047900225   -3.4959981    1.4032192   396900 
  763000    0.9334103   -3.4949015   -3.4949015   -2.0947896  0.054152224   -3.4949015    1.4001119   396900 
  764000   0.93546391   -3.5002246   -3.5002246   -2.0970322  0.044376553   -3.5002246    1.4031923   396900 
  765000   0.93676873   -3.5012585   -3.5012585   -2.0961089  0.048315384   -3.5012585    1.4051496   396900 
  766000   0.93851287   -3.5042262   -3.5042262   -2.0964605  0.047215671   -3.5042262    1.4077658   396900 
  767000   0.93639009   -3.5032002   -3.5032002   -2.0986186  0.052369581   -3.5032002    1.4045816   396900 
  768000   0.93554893   -3.5025348   -3.5025348    -2.099215  0.048409261   -3.5025348    1.4033199   396900 
  769000   0.93588466   -3.5035242   -3.5035242   -2.0997008  0.046865955   -3.5035242    1.4038235   396900 
  770000    0.9342216   -3.5039361   -3.5039361   -2.1026072  0.048751867   -3.5039361    1.4013289   396900 
  771000   0.93414454   -3.5044291   -3.5044291   -2.1032158  0.050169519   -3.5044291    1.4012133   396900 
  772000   0.93427124   -3.5056915   -3.5056915   -2.1042881  0.046606145   -3.5056915    1.4014033   396900 
  773000   0.93476152   -3.5060085   -3.5060085   -2.1038698  0.049515979   -3.5060085    1.4021387   396900 
  774000   0.93401903     -3.50454     -3.50454   -2.1035149  0.043458055     -3.50454     1.401025   396900 
  775000   0.93422001   -3.5049492   -3.5049492   -2.1036227   0.04458001   -3.5049492    1.4013265   396900 
  776000   0.93488787   -3.5048247   -3.5048247   -2.1024964  0.048588892   -3.5048247    1.4023283   396900 
  777000   0.93557301   -3.5057074   -3.5057074   -2.1023515  0.050670361   -3.5057074     1.403356   396900 
  778000   0.93480158   -3.5064338   -3.5064338    -2.104235  0.050605067   -3.5064338    1.4021988   396900 
  779000   0.93379651   -3.5064675   -3.5064675   -2.1057762  0.044450558   -3.5064675    1.4006912   396900 
  780000   0.93333455   -3.5048277   -3.5048277   -2.1048295  0.051152351   -3.5048277    1.3999983   396900 
  781000   0.93460059    -3.507359    -3.507359   -2.1054617  0.046258967    -3.507359    1.4018974   396900 
  782000   0.93278662   -3.5055879   -3.5055879   -2.1064115  0.054636629   -3.5055879    1.3991764   396900 
  783000   0.93349418   -3.5080924   -3.5080924   -2.1078546  0.046828355   -3.5080924    1.4002377   396900 
  784000   0.93435446   -3.5102609   -3.5102609   -2.1087328  0.042087703   -3.5102609    1.4015282   396900 
  785000   0.93418808   -3.5118881   -3.5118881   -2.1106095  0.041432648   -3.5118881    1.4012786   396900 
  786000    0.9327677   -3.5103061   -3.5103061    -2.111158  0.052231148   -3.5103061     1.399148   396900 
  787000   0.93089744   -3.5111154   -3.5111154   -2.1147728  0.047494419   -3.5111154    1.3963426   396900 
  788000    0.9312887   -3.5110751   -3.5110751   -2.1141455  0.045910223   -3.5110751    1.3969295   396900 
  789000   0.93378222   -3.5162366   -3.5162366   -2.1155668     0.043158   -3.5162366    1.4006698   396900 
  790000   0.93341522   -3.5173148   -3.5173148   -2.1171955  0.053886619   -3.5173148    1.4001193   396900 
  791000   0.93462574   -3.5165625   -3.5165625   -2.1146274  0.052925402   -3.5165625    1.4019351   396900 
  792000   0.93493793     -3.51986     -3.51986   -2.1174567  0.053654894     -3.51986    1.4024034   396900 
  793000   0.93209072    -3.519695    -3.519695   -2.1215624  0.052295053    -3.519695    1.3981326   396900 
  794000   0.93155739   -3.5195503   -3.5195503   -2.1222177  0.051563643   -3.5195503    1.3973326   396900 
  795000   0.93223263   -3.5199845   -3.5199845   -2.1216391  0.051073901   -3.5199845    1.3983454   396900 
  796000   0.93033379   -3.5200528   -3.5200528   -2.1245556  0.046164154   -3.5200528    1.3954972   396900 
  797000   0.93153992   -3.5208848   -3.5208848   -2.1235784  0.048591723   -3.5208848    1.3973064   396900 
  798000   0.93254207    -3.524677    -3.524677   -2.1258674  0.045635664    -3.524677    1.3988096   396900 
  799000   0.93372987   -3.5216287   -3.5216287   -2.1210374  0.050449427   -3.5216287    1.4005913   396900 
  800000   0.93307691   -3.5224756   -3.5224756   -2.1228637  0.049428001   -3.5224756    1.3996118   396900 
  801000   0.93501981   -3.5254172   -3.5254172    -2.122891  0.051912287   -3.5254172    1.4025262   396900 
  802000   0.93352989   -3.5251425   -3.5251425   -2.1248512  0.048966372   -3.5251425    1.4002913   396900 
  803000   0.93142807   -3.5250332   -3.5250332   -2.1278946  0.053547138   -3.5250332    1.3971386   396900 
  804000   0.93065016   -3.5264054   -3.5264054   -2.1304337   0.04620351   -3.5264054    1.3959717   396900 
  805000   0.93007197   -3.5268411   -3.5268411   -2.1317366  0.045883091   -3.5268411    1.3951044   396900 
  806000   0.93045279   -3.5265753   -3.5265753   -2.1308996  0.045207224   -3.5265753    1.3956757   396900 
  807000   0.93378534   -3.5298749   -3.5298749   -2.1292005  0.046350253   -3.5298749    1.4006745   396900 
  808000   0.93151272   -3.5255034   -3.5255034   -2.1282378  0.050376019   -3.5255034    1.3972656   396900 
  809000   0.93173102   -3.5287563   -3.5287563   -2.1311633  0.046939398   -3.5287563     1.397593   396900 
  810000   0.93352387   -3.5304024   -3.5304024   -2.1301202  0.051580583   -3.5304024    1.4002823   396900 
  811000    0.9312703   -3.5293703   -3.5293703   -2.1324683  0.047645043   -3.5293703    1.3969019   396900 
  812000   0.93075193   -3.5299646   -3.5299646   -2.1338402  0.051099874   -3.5299646    1.3961244   396900 
  813000   0.92943882   -3.5303361   -3.5303361   -2.1361813   0.04667257   -3.5303361    1.3941547   396900 
  814000   0.93113687   -3.5315674   -3.5315674   -2.1348656  0.044222552   -3.5315674    1.3967018   396900 
  815000   0.93105064   -3.5346639   -3.5346639   -2.1380915  0.045419827   -3.5346639    1.3965724   396900 
  816000   0.93099804   -3.5342226   -3.5342226   -2.1377291  0.048482214   -3.5342226    1.3964935   396900 
  817000   0.92938804   -3.5347561   -3.5347561   -2.1406775  0.052682056   -3.5347561    1.3940785   396900 
  818000   0.92925256    -3.534395    -3.534395   -2.1405197  0.050870303    -3.534395    1.3938753   396900 
  819000    0.9286684   -3.5341834   -3.5341834   -2.1411843  0.051839899   -3.5341834    1.3929991   396900 
  820000   0.93025525   -3.5371657   -3.5371657   -2.1417864  0.048224706   -3.5371657    1.3953794   396900 
  821000    0.9311445   -3.5370735   -3.5370735   -2.1403603  0.045231927   -3.5370735    1.3967132   396900 
  822000   0.93127799   -3.5377727   -3.5377727   -2.1408592  0.050014716   -3.5377727    1.3969135   396900 
  823000   0.93081808   -3.5386694   -3.5386694   -2.1424458  0.047925736   -3.5386694    1.3962236   396900 
  824000   0.93012869   -3.5364984   -3.5364984   -2.1413089  0.052239353   -3.5364984    1.3951895   396900 
  825000   0.93034485   -3.5381751   -3.5381751   -2.1426614  0.044894605   -3.5381751    1.3955138   396900 
  826000   0.92957369   -3.5366106   -3.5366106   -2.1422536  0.046604292   -3.5366106     1.394357   396900 
  827000   0.93074974   -3.5386351   -3.5386351    -2.142514  0.047320599   -3.5386351    1.3961211   396900 
  828000   0.92811901   -3.5389035   -3.5389035   -2.1467285  0.043148239   -3.5389035     1.392175   396900 
  829000   0.92864885   -3.5384642   -3.5384642   -2.1454944  0.042649481   -3.5384642    1.3929698   396900 
  830000   0.92941425   -3.5389638   -3.5389638   -2.1448459  0.045086149   -3.5389638    1.3941179   396900 
  831000   0.92753506   -3.5388568   -3.5388568   -2.1475577  0.044729784   -3.5388568    1.3912991   396900 
  832000   0.92925981   -3.5429698   -3.5429698   -2.1490836  0.044990795   -3.5429698    1.3938862   396900 
  833000   0.93106829   -3.5432645   -3.5432645   -2.1466656  0.046224756   -3.5432645    1.3965989   396900 
  834000   0.92852755   -3.5413434   -3.5413434   -2.1485556  0.050973665   -3.5413434    1.3927878   396900 
  835000   0.92931134   -3.5419976   -3.5419976   -2.1480341  0.046825381   -3.5419976    1.3939635   396900 
  836000   0.92899563   -3.5432348   -3.5432348   -2.1497448  0.051222804   -3.5432348    1.3934899   396900 
  837000   0.92919603   -3.5441896   -3.5441896   -2.1503991  0.045212583   -3.5441896    1.3937905   396900 
  838000   0.93034169   -3.5464859   -3.5464859   -2.1509769  0.044969873   -3.5464859     1.395509   396900 
  839000   0.92926737    -3.544909    -3.544909   -2.1510115  0.048985394    -3.544909    1.3938975   396900 
  840000   0.92655538   -3.5459007   -3.5459007   -2.1560711  0.045640789   -3.5459007    1.3898296   396900 
  841000   0.92758415   -3.5506765   -3.5506765   -2.1593038  0.044051932   -3.5506765    1.3913727   396900 
  842000   0.92736646   -3.5481728   -3.5481728   -2.1571266  0.048047455   -3.5481728    1.3910462   396900 
  843000   0.92828454   -3.5504133   -3.5504133     -2.15799  0.046362341   -3.5504133    1.3924233   396900 
  844000   0.92788193    -3.549607    -3.549607   -2.1577876  0.046804249    -3.549607    1.3918194   396900 
  845000   0.92560082   -3.5504736   -3.5504736   -2.1620759  0.046005045   -3.5504736    1.3883977   396900 
  846000   0.92450595   -3.5509946   -3.5509946   -2.1642391  0.045058627   -3.5509946    1.3867554   396900 
  847000   0.92515284    -3.551764    -3.551764   -2.1640383  0.041834385    -3.551764    1.3877258   396900 
  848000   0.92581278   -3.5546799   -3.5546799   -2.1659642  0.044567719   -3.5546799    1.3887157   396900 
  849000   0.92613241   -3.5556857   -3.5556857   -2.1664906  0.049471295   -3.5556857    1.3891951   396900 
  850000   0.92861881   -3.5579687   -3.5579687    -2.165044  0.044322047   -3.5579687    1.3929247   396900 
  851000   0.92650299   -3.5573242   -3.5573242   -2.1675732  0.041440002   -3.5573242     1.389751   396900 
  852000   0.92611374   -3.5598614   -3.5598614   -2.1706943  0.043900617   -3.5598614    1.3891671   396900 
  853000   0.92520738   -3.5587186   -3.5587186    -2.170911  0.045688763   -3.5587186    1.3878076   396900 
  854000   0.92666769   -3.5609684   -3.5609684   -2.1709704  0.046818175   -3.5609684     1.389998   396900 
  855000   0.92609132   -3.5623163   -3.5623163   -2.1731828  0.045949179   -3.5623163    1.3891335   396900 
  856000   0.92517178    -3.560688    -3.560688   -2.1729338  0.047304415    -3.560688    1.3877542   396900 
  857000    0.9228343   -3.5630878   -3.5630878   -2.1788398  0.047616897   -3.5630878     1.384248   396900 
  858000   0.92499281   -3.5658969   -3.5658969   -2.1784112  0.043504971   -3.5658969    1.3874857   396900 
  859000   0.92498337   -3.5666609   -3.5666609   -2.1791894  0.046821755   -3.5666609    1.3874716   396900 
  860000   0.92528998   -3.5675481   -3.5675481   -2.1796166  0.046549697   -3.5675481    1.3879315   396900 
  861000   0.92588976   -3.5692741   -3.5692741   -2.1804429  0.052291217   -3.5692741    1.3888311   396900 
  862000   0.92336605   -3.5681519   -3.5681519   -2.1831063  0.051228144   -3.5681519    1.3850456   396900 
  863000   0.92797221   -3.5748441   -3.5748441   -2.1828892  0.045578919   -3.5748441    1.3919548   396900 
  864000   0.92615808   -3.5745046   -3.5745046    -2.185271  0.044129537   -3.5745046    1.3892336   396900 
  865000   0.92515858   -3.5742607   -3.5742607   -2.1865263  0.048075387   -3.5742607    1.3877344   396900 
  866000   0.92545488   -3.5758921   -3.5758921   -2.1877133  0.043362948   -3.5758921    1.3881788   396900 
  867000   0.92426285   -3.5746405   -3.5746405   -2.1882497  0.045160849   -3.5746405    1.3863908   396900 
  868000    0.9231459   -3.5736321   -3.5736321   -2.1889168   0.04011192   -3.5736321    1.3847154   396900 
  869000   0.92311874   -3.5732388   -3.5732388   -2.1885642   0.04546584   -3.5732388    1.3846746   396900 
  870000   0.92396288   -3.5765257   -3.5765257   -2.1905848  0.046438444   -3.5765257    1.3859408   396900 
  871000   0.92292561    -3.576869    -3.576869    -2.192484  0.044592182    -3.576869    1.3843849   396900 
  872000   0.92351892   -3.5780589   -3.5780589    -2.192784  0.053224898   -3.5780589    1.3852749   396900 
  873000   0.92435025   -3.5786387   -3.5786387   -2.1921168   0.04534877   -3.5786387    1.3865219   396900 
  874000   0.92573818   -3.5788062   -3.5788062   -2.1902024  0.049043323   -3.5788062    1.3886038   396900 
  875000    0.9240079   -3.5790606   -3.5790606   -2.1930523  0.050128386   -3.5790606    1.3860084   396900 
  876000   0.92300064   -3.5780977   -3.5780977   -2.1936002  0.046786277   -3.5780977    1.3844975   396900 
  877000   0.92456676   -3.5785205   -3.5785205   -2.1916739   0.05145172   -3.5785205    1.3868466   396900 
  878000   0.92378701   -3.5797136   -3.5797136   -2.1940366   0.04022927   -3.5797136     1.385677   396900 
  879000   0.92393957   -3.5791085   -3.5791085   -2.1932026  0.040858344   -3.5791085    1.3859059   396900 
  880000   0.92207187   -3.5798065   -3.5798065   -2.1967022  0.045788888   -3.5798065    1.3831043   396900 
  881000   0.91871485   -3.5767084   -3.5767084   -2.1986396  0.044868026   -3.5767084    1.3780688   396900 
  882000   0.92249987     -3.57865     -3.57865   -2.1949037  0.047349968     -3.57865    1.3837463   396900 
  883000   0.92326964   -3.5794903   -3.5794903   -2.1945893  0.046177889   -3.5794903     1.384901   396900 
  884000   0.92333753   -3.5811799   -3.5811799   -2.1961771  0.045630544   -3.5811799    1.3850028   396900 
  885000   0.92320485   -3.5805213   -3.5805213   -2.1957175  0.048814223   -3.5805213    1.3848038   396900 
  886000    0.9233189   -3.5811416   -3.5811416   -2.1961667  0.045641176   -3.5811416    1.3849749   396900 
  887000   0.92321989   -3.5816834   -3.5816834   -2.1968571  0.044350676   -3.5816834    1.3848263   396900 
  888000   0.92295095   -3.5809952   -3.5809952   -2.1965722   0.04752417   -3.5809952    1.3844229   396900 
  889000     0.921808   -3.5803284   -3.5803284   -2.1976199  0.043149827   -3.5803284    1.3827085   396900 
  890000    0.9213444   -3.5793193   -3.5793193   -2.1973062  0.045190673   -3.5793193    1.3820131   396900 
  891000   0.92255744   -3.5806103   -3.5806103   -2.1967776  0.039692502   -3.5806103    1.3838327   396900 
  892000   0.92003128   -3.5776587   -3.5776587   -2.1976153  0.041161804   -3.5776587    1.3800434   396900 
  893000   0.92085973   -3.5802721   -3.5802721    -2.198986  0.047351131   -3.5802721    1.3812861   396900 
  894000   0.92160452   -3.5824174   -3.5824174   -2.2000141  0.040248621   -3.5824174    1.3824033   396900 
  895000   0.91971566   -3.5816384   -3.5816384   -2.2020684  0.040279456   -3.5816384      1.37957   396900 
  896000   0.92191564   -3.5856423   -3.5856423   -2.2027723  0.045228108   -3.5856423      1.38287   396900 
  897000   0.92371683   -3.5851321   -3.5851321   -2.1995604  0.052841234   -3.5851321    1.3855718   396900 
  898000   0.92166392   -3.5849088   -3.5849088   -2.2024164      0.05081   -3.5849088    1.3824924   396900 
  899000   0.92119777   -3.5844917   -3.5844917   -2.2026985  0.046009471   -3.5844917    1.3817932   396900 
  900000   0.92196046    -3.587342    -3.587342   -2.2044048   0.04579873    -3.587342    1.3829372   396900 
  901000   0.92062584   -3.5864765   -3.5864765   -2.2055412  0.043284149   -3.5864765    1.3809353   396900 
  902000   0.92126888   -3.5875652   -3.5875652   -2.2056654  0.044857702   -3.5875652    1.3818998   396900 
  903000   0.92359634   -3.5913173   -3.5913173   -2.2059263  0.040036714   -3.5913173     1.385391   396900 
  904000   0.92164842   -3.5891675   -3.5891675   -2.2066983  0.041323856   -3.5891675    1.3824691   396900 
  905000   0.91931319   -3.5885325   -3.5885325   -2.2095662  0.043527531   -3.5885325    1.3789663   396900 
  906000   0.92147595   -3.5919729   -3.5919729   -2.2097625  0.044457956   -3.5919729    1.3822104   396900 
  907000   0.92094074   -3.5911179   -3.5911179   -2.2097103  0.041130769   -3.5911179    1.3814076   396900 
  908000   0.92143851   -3.5931334   -3.5931334   -2.2109791  0.046196686   -3.5931334    1.3821543   396900 
  909000    0.9188818   -3.5924819   -3.5924819   -2.2141627  0.048554227   -3.5924819    1.3783192   396900 
  910000   0.91970627   -3.5981588   -3.5981588   -2.2186028  0.046219904   -3.5981588    1.3795559   396900 
  911000   0.91877626   -3.5984813   -3.5984813   -2.2203204  0.038753732   -3.5984813    1.3781609   396900 
  912000    0.9199692   -3.5992186   -3.5992186   -2.2192683  0.043163143   -3.5992186    1.3799503   396900 
  913000   0.91888985   -3.5984537   -3.5984537   -2.2201224  0.043843436   -3.5984537    1.3783313   396900 
  914000   0.92263402   -3.6011413   -3.6011413   -2.2171938   0.04050083   -3.6011413    1.3839475   396900 
  915000   0.91843992   -3.5989663   -3.5989663   -2.2213099  0.045866036   -3.5989663    1.3776564   396900 
  916000   0.91797137   -3.6008247   -3.6008247   -2.2238712  0.043690567   -3.6008247    1.3769536   396900 
  917000    0.9179755   -3.5990449   -3.5990449   -2.2220852  0.051012119   -3.5990449    1.3769598   396900 
  918000   0.91917849   -3.6033122   -3.6033122   -2.2245479  0.045337674   -3.6033122    1.3787643   396900 
  919000   0.91752893   -3.6017559   -3.6017559    -2.225466  0.044706408   -3.6017559    1.3762899   396900 
  920000   0.91882153   -3.6041073   -3.6041073   -2.2258784  0.042564531   -3.6041073    1.3782288   396900 
  921000   0.91937759   -3.6019079   -3.6019079    -2.222845  0.051820825   -3.6019079    1.3790629   396900 
  922000   0.91969839   -3.6024243   -3.6024243   -2.2228802  0.048212611   -3.6024243    1.3795441   396900 
  923000   0.91912632   -3.6041541   -3.6041541   -2.2254681  0.041261118   -3.6041541     1.378686   396900 
  924000   0.91882574    -3.603764    -3.603764   -2.2255289  0.047809901    -3.603764    1.3782351   396900 
  925000    0.9201793    -3.604793    -3.604793   -2.2245275   0.05025632    -3.604793    1.3802655   396900 
  926000   0.91936596   -3.6054648   -3.6054648   -2.2264193  0.045858071   -3.6054648    1.3790455   396900 
  927000   0.91824183   -3.6055784   -3.6055784   -2.2282191  0.042671806   -3.6055784    1.3773593   396900 
  928000   0.92133511   -3.6095994   -3.6095994   -2.2276002  0.046779671   -3.6095994    1.3819992   396900 
  929000   0.92170161   -3.6109425   -3.6109425   -2.2283935   0.04593026   -3.6109425    1.3825489   396900 
  930000   0.92045553   -3.6103076   -3.6103076   -2.2296278  0.043175136   -3.6103076    1.3806798   396900 
  931000   0.91959784   -3.6097659   -3.6097659   -2.2303726  0.044821183   -3.6097659    1.3793933   396900 
  932000   0.91902028     -3.61157     -3.61157   -2.2330431  0.049606936     -3.61157    1.3785269   396900 
  933000   0.91841506   -3.6108346   -3.6108346   -2.2332154  0.045520286   -3.6108346    1.3776191   396900 
  934000   0.91988656   -3.6124061   -3.6124061   -2.2325797  0.042441837   -3.6124061    1.3798264   396900 
  935000   0.92009354   -3.6135049   -3.6135049    -2.233368  0.042045279   -3.6135049    1.3801368   396900 
  936000   0.91658024   -3.6100814   -3.6100814   -2.2352145  0.047103559   -3.6100814    1.3748669   396900 
  937000   0.91761394   -3.6143609   -3.6143609   -2.2379435  0.041771258   -3.6143609    1.3764174   396900 
  938000   0.91901033   -3.6160822   -3.6160822   -2.2375701  0.041495327   -3.6160822     1.378512   396900 
  939000   0.91815006   -3.6172252   -3.6172252   -2.2400036   0.04692454   -3.6172252    1.3772216   396900 
  940000   0.91793937    -3.614703    -3.614703   -2.2377974  0.040098466    -3.614703    1.3769056   396900 
  941000   0.91725132   -3.6144459   -3.6144459   -2.2385724  0.043642355   -3.6144459    1.3758735   396900 
  942000   0.91761059   -3.6148802   -3.6148802   -2.2384678  0.043935856   -3.6148802    1.3764124   396900 
  943000   0.91513978   -3.6124596   -3.6124596   -2.2397534  0.039944074   -3.6124596    1.3727062   396900 
  944000   0.91762354   -3.6172195   -3.6172195   -2.2407877  0.039612339   -3.6172195    1.3764318   396900 
  945000   0.91820732   -3.6163524   -3.6163524   -2.2390449  0.040866001   -3.6163524    1.3773075   396900 
  946000   0.91846751    -3.618257    -3.618257   -2.2405592  0.044780071    -3.618257    1.3776978   396900 
  947000   0.91639527   -3.6174571   -3.6174571   -2.2428677  0.046367172   -3.6174571    1.3745894   396900 
  948000   0.91580128   -3.6171345   -3.6171345   -2.2434361  0.047091552   -3.6171345    1.3736985   396900 
  949000   0.91798876   -3.6226798   -3.6226798   -2.2457001  0.040728042   -3.6226798    1.3769797   396900 
  950000   0.91527217   -3.6229943   -3.6229943   -2.2500895  0.043149819   -3.6229943    1.3729048   396900 
  951000   0.91554687   -3.6209396   -3.6209396   -2.2476227   0.04408975   -3.6209396    1.3733168   396900 
  952000   0.91789131   -3.6251826   -3.6251826   -2.2483491   0.04544741   -3.6251826    1.3768335   396900 
  953000   0.91726023   -3.6258374   -3.6258374   -2.2499505  0.043210384   -3.6258374    1.3758869   396900 
  954000   0.91458677   -3.6231367   -3.6231367     -2.25126  0.043524119   -3.6231367    1.3718767   396900 
  955000    0.9149698   -3.6254428   -3.6254428   -2.2529915  0.039751677   -3.6254428    1.3724512   396900 
  956000     0.913479   -3.6234648   -3.6234648   -2.2532497  0.047453352   -3.6234648    1.3702151   396900 
  957000   0.91474397   -3.6268057   -3.6268057   -2.2546932  0.043486312   -3.6268057    1.3721125   396900 
  958000    0.9159207   -3.6275498   -3.6275498   -2.2536722  0.049671734   -3.6275498    1.3738776   396900 
  959000   0.91518457   -3.6294503   -3.6294503   -2.2566769  0.041312957   -3.6294503    1.3727734   396900 
  960000    0.9133435    -3.627539    -3.627539   -2.2575272   0.03718673    -3.627539    1.3700118   396900 
  961000    0.9141289   -3.6287472   -3.6287472   -2.2575573  0.039250845   -3.6287472    1.3711899   396900 
  962000    0.9162159    -3.633223    -3.633223   -2.2589027  0.043538411    -3.633223    1.3743204   396900 
  963000   0.91621368   -3.6316128   -3.6316128   -2.2572957  0.044939255   -3.6316128    1.3743171   396900 
  964000   0.91578215   -3.6324779   -3.6324779   -2.2588082  0.040025124   -3.6324779    1.3736698   396900 
  965000   0.91565216   -3.6303033   -3.6303033   -2.2568285  0.043901348   -3.6303033    1.3734748   396900 
  966000   0.91455154   -3.6322976   -3.6322976   -2.2604737  0.038353677   -3.6322976    1.3718239   396900 
  967000   0.91354262   -3.6318082   -3.6318082   -2.2614977  0.034959438   -3.6318082    1.3703105   396900 
  968000   0.91696766   -3.6340836   -3.6340836   -2.2586355  0.042021405   -3.6340836     1.375448   396900 
  969000   0.91339457   -3.6311833   -3.6311833   -2.2610949   0.04107544   -3.6311833    1.3700884   396900 
  970000   0.91435111   -3.6337811   -3.6337811   -2.2622579  0.039762968   -3.6337811    1.3715232   396900 
  971000   0.91434066   -3.6345459   -3.6345459   -2.2630384  0.036747702   -3.6345459    1.3715075   396900 
  972000   0.91553582   -3.6344708   -3.6344708   -2.2611706   0.03979586   -3.6344708    1.3733003   396900 
  973000   0.91532945   -3.6335724   -3.6335724   -2.2605817  0.044597074   -3.6335724    1.3729907   396900 
  974000   0.91516014   -3.6362427   -3.6362427   -2.2635059  0.044320787   -3.6362427    1.3727368   396900 
  975000   0.91517995   -3.6359343   -3.6359343   -2.2631678  0.046884046   -3.6359343    1.3727665   396900 
  976000   0.91543451   -3.6366495   -3.6366495   -2.2635012  0.045964771   -3.6366495    1.3731483   396900 
  977000   0.91302228   -3.6372812   -3.6372812   -2.2677513  0.042898874   -3.6372812      1.36953   396900 
  978000   0.91459574   -3.6387698   -3.6387698   -2.2668797  0.042590361   -3.6387698    1.3718901   396900 
  979000   0.91565991   -3.6397987   -3.6397987   -2.2663123  0.043897964   -3.6397987    1.3734864   396900 
  980000   0.91406836   -3.6383784   -3.6383784   -2.2672793   0.04526427   -3.6383784    1.3710991   396900 
  981000   0.91399927   -3.6387394   -3.6387394    -2.267744   0.04406358   -3.6387394    1.3709954   396900 
  982000   0.91391773   -3.6406675   -3.6406675   -2.2697943   0.04224433   -3.6406675    1.3708731   396900 
  983000   0.91293432   -3.6392339   -3.6392339   -2.2698358  0.046598407   -3.6392339     1.369398   396900 
  984000    0.9136895   -3.6404142   -3.6404142   -2.2698834  0.040302909   -3.6404142    1.3705308   396900 
  985000    0.9129048   -3.6427695   -3.6427695   -2.2734157  0.039027739   -3.6427695    1.3693537   396900 
  986000   0.91469625   -3.6449464   -3.6449464   -2.2729054  0.045165791   -3.6449464    1.3720409   396900 
  987000   0.91414227   -3.6468055   -3.6468055   -2.2755955   0.04304459   -3.6468055      1.37121   396900 
  988000   0.91101436   -3.6456665   -3.6456665   -2.2791484  0.036690992   -3.6456665    1.3665181   396900 
  989000   0.91026174   -3.6428515   -3.6428515   -2.2774623  0.049680933   -3.6428515    1.3653892   396900 
  990000   0.91146316    -3.644946    -3.644946   -2.2777547  0.041356303    -3.644946    1.3671913   396900 
  991000   0.91115219   -3.6465987   -3.6465987   -2.2798739  0.038683293   -3.6465987    1.3667248   396900 
  992000   0.91476239   -3.6494372   -3.6494372   -2.2772971  0.037623173   -3.6494372    1.3721401   396900 
  993000   0.91252229   -3.6474099   -3.6474099   -2.2786299  0.040459589   -3.6474099      1.36878   396900 
  994000   0.91312648   -3.6498132   -3.6498132   -2.2801269  0.043384576   -3.6498132    1.3696863   396900 
  995000   0.91206898   -3.6493289   -3.6493289   -2.2812289  0.040608558   -3.6493289       1.3681   396900 
  996000   0.91147962   -3.6502632   -3.6502632   -2.2830472  0.041426454   -3.6502632     1.367216   396900 
  997000   0.91143629   -3.6510668   -3.6510668   -2.2839158  0.037849824   -3.6510668     1.367151   396900 
  998000    0.9114086   -3.6524519   -3.6524519   -2.2853424  0.045525943   -3.6524519    1.3671095   396900 
  999000   0.91180962   -3.6527923   -3.6527923   -2.2850813  0.038144107   -3.6527923     1.367711   396900 
 1000000   0.91041601   -3.6518606   -3.6518606     -2.28624  0.043196238   -3.6518606    1.3656206   396900 
 1001000   0.91031103   -3.6541751   -3.6541751    -2.288712  0.037525059   -3.6541751    1.3654631   396900 
 1002000   0.91076014   -3.6542759   -3.6542759   -2.2881391  0.043839795   -3.6542759    1.3661368   396900 
 1003000   0.91200086   -3.6570645   -3.6570645   -2.2890667  0.047250399   -3.6570645    1.3679978   396900 
 1004000   0.91250957   -3.6590015   -3.6590015   -2.2902406  0.039023891   -3.6590015    1.3687609   396900 
 1005000   0.91177722    -3.659961    -3.659961   -2.2922986  0.041795282    -3.659961    1.3676624   396900 
 1006000   0.91081081   -3.6582402   -3.6582402   -2.2920274   0.03976161   -3.6582402    1.3662128   396900 
 1007000   0.90852147   -3.6558529   -3.6558529   -2.2930741  0.043221807   -3.6558529    1.3627788   396900 
 1008000    0.9094483   -3.6598721   -3.6598721    -2.295703  0.039795564   -3.6598721     1.364169   396900 
 1009000   0.90909491    -3.658692    -3.658692   -2.2950531  0.037787027    -3.658692    1.3636389   396900 
 1010000   0.90862111   -3.6594557   -3.6594557   -2.2965274  0.042403056   -3.6594557    1.3629282   396900 
 1011000   0.90871593   -3.6597646   -3.6597646   -2.2966941  0.040456444   -3.6597646    1.3630705   396900 
 1012000   0.91035651   -3.6602353   -3.6602353   -2.2947039  0.040851287   -3.6602353    1.3655313   396900 
 1013000   0.91097933   -3.6614098   -3.6614098   -2.2949442   0.03975482   -3.6614098    1.3664656   396900 
 1014000   0.91163216   -3.6638047   -3.6638047     -2.29636  0.039757687   -3.6638047    1.3674448   396900 
 1015000   0.90965193   -3.6636855   -3.6636855    -2.299211  0.039192953   -3.6636855    1.3644745   396900 
 1016000   0.90633041   -3.6607745   -3.6607745   -2.3012823  0.040006888   -3.6607745    1.3594922   396900 
 1017000   0.90753025   -3.6614175   -3.6614175   -2.3001256  0.041776345   -3.6614175    1.3612919   396900 
 1018000   0.90932752   -3.6653124   -3.6653124   -2.3013245  0.040034676   -3.6653124    1.3639878   396900 
 1019000   0.90763259   -3.6628153   -3.6628153   -2.3013698  0.040835816   -3.6628153    1.3614455   396900 
 1020000   0.90868472   -3.6645317   -3.6645317   -2.3015081  0.039631511   -3.6645317    1.3630236   396900 
 1021000   0.91057468   -3.6664172   -3.6664172   -2.3005586  0.039900377   -3.6664172    1.3658586   396900 
 1022000   0.91148088    -3.667271    -3.667271   -2.3000531  0.040657016    -3.667271    1.3672179   396900 
 1023000   0.90951512   -3.6670228   -3.6670228   -2.3027535  0.044437254   -3.6670228    1.3642692   396900 
 1024000   0.90850923   -3.6662409   -3.6662409   -2.3034805  0.040677202   -3.6662409    1.3627604   396900 
 1025000   0.90871819   -3.6657883   -3.6657883   -2.3027144  0.040521792   -3.6657883    1.3630738   396900 
 1026000   0.90751077   -3.6651277   -3.6651277    -2.303865  0.042983247   -3.6651277    1.3612627   396900 
 1027000   0.90938615    -3.667981    -3.667981   -2.3039052  0.040800281    -3.667981    1.3640758   396900 
 1028000   0.90798032   -3.6669495   -3.6669495   -2.3049825  0.040004883   -3.6669495     1.361967   396900 
 1029000   0.90618583    -3.669458    -3.669458   -2.3101827  0.038426354    -3.669458    1.3592753   396900 
 1030000   0.90557939   -3.6696588   -3.6696588   -2.3112932  0.042131749   -3.6696588    1.3583657   396900 
 1031000   0.90638673   -3.6708971   -3.6708971   -2.3113204  0.046232953   -3.6708971    1.3595767   396900 
 1032000   0.90712871   -3.6721376   -3.6721376   -2.3114479  0.045525973   -3.6721376    1.3606896   396900 
 1033000   0.90962956   -3.6750209   -3.6750209     -2.31058  0.041831124   -3.6750209    1.3644409   396900 
 1034000   0.90836074    -3.674354    -3.674354   -2.3118163  0.046137575    -3.674354    1.3625377   396900 
 1035000    0.9075377   -3.6747558   -3.6747558   -2.3134527  0.044638845   -3.6747558    1.3613031   396900 
 1036000    0.9081615   -3.6742222   -3.6742222   -2.3119833  0.039377337   -3.6742222    1.3622388   396900 
 1037000   0.90785546    -3.674953    -3.674953   -2.3131733  0.041963331    -3.674953    1.3617798   396900 
 1038000   0.90515356   -3.6717022   -3.6717022   -2.3139753  0.043438469   -3.6717022    1.3577269   396900 
 1039000   0.90519005   -3.6720059   -3.6720059   -2.3142243  0.040467321   -3.6720059    1.3577816   396900 
 1040000   0.90608992   -3.6750948   -3.6750948   -2.3159633  0.040379265   -3.6750948    1.3591315   396900 
 1041000   0.90558959   -3.6777595   -3.6777595   -2.3193786  0.037724245   -3.6777595     1.358381   396900 
 1042000     0.905214   -3.6760765   -3.6760765   -2.3182589  0.039880926   -3.6760765    1.3578176   396900 
 1043000   0.90692928   -3.6767835   -3.6767835    -2.316393  0.038582223   -3.6767835    1.3603905   396900 
 1044000    0.9054813   -3.6766591   -3.6766591   -2.3184405  0.039298871   -3.6766591    1.3582185   396900 
 1045000   0.90530197   -3.6786372   -3.6786372   -2.3206876  0.038968428   -3.6786372    1.3579495   396900 
 1046000   0.90641267   -3.6794403   -3.6794403   -2.3198247  0.044327143   -3.6794403    1.3596156   396900 
 1047000   0.90653337   -3.6828298   -3.6828298   -2.3230332  0.039502051   -3.6828298    1.3597966   396900 
 1048000   0.90473273   -3.6826742   -3.6826742   -2.3255786  0.035589364   -3.6826742    1.3570957   396900 
 1049000   0.90353922   -3.6793555   -3.6793555   -2.3240501  0.037765811   -3.6793555    1.3553054   396900 
 1050000   0.90477334   -3.6812688   -3.6812688   -2.3241122  0.043312645   -3.6812688    1.3571566   396900 
 1051000   0.90541426    -3.683501    -3.683501    -2.325383  0.040575891    -3.683501     1.358118   396900 
 1052000   0.90322931   -3.6803398   -3.6803398   -2.3254993  0.044660473   -3.6803398    1.3548406   396900 
 1053000   0.90420008   -3.6847068   -3.6847068   -2.3284101  0.040455615   -3.6847068    1.3562967   396900 
 1054000   0.90682718   -3.6883182   -3.6883182   -2.3280808   0.04265335   -3.6883182    1.3602373   396900 
 1055000   0.90574123   -3.6880957   -3.6880957   -2.3294872  0.037887367   -3.6880957    1.3586084   396900 
 1056000   0.90415872   -3.6881394   -3.6881394   -2.3319047  0.041822243   -3.6881394    1.3562347   396900 
 1057000   0.90706563   -3.6911271   -3.6911271   -2.3305321  0.040290868   -3.6911271     1.360595   396900 
 1058000   0.90415273   -3.6894285   -3.6894285   -2.3332028   0.03805751   -3.6894285    1.3562257   396900 
 1059000   0.90623195   -3.6932089   -3.6932089   -2.3338644  0.038595962   -3.6932089    1.3593445   396900 
 1060000   0.90362529   -3.6890182   -3.6890182   -2.3335837  0.043276911   -3.6890182    1.3554345   396900 
 1061000    0.9042441   -3.6913779   -3.6913779   -2.3350152  0.039396001   -3.6913779    1.3563627   396900 
 1062000   0.90454474   -3.6937556   -3.6937556   -2.3369419  0.035874987   -3.6937556    1.3568137   396900 
 1063000   0.90348523   -3.6919991   -3.6919991   -2.3367747  0.039911067   -3.6919991    1.3552244   396900 
 1064000   0.90422004   -3.6922975   -3.6922975   -2.3359708  0.038910676   -3.6922975    1.3563266   396900 
 1065000   0.90348763   -3.6928652   -3.6928652   -2.3376372   0.03978998   -3.6928652     1.355228   396900 
 1066000   0.90221962   -3.6910726   -3.6910726   -2.3377465  0.041871532   -3.6910726     1.353326   396900 
 1067000   0.90408633   -3.6948967   -3.6948967   -2.3387706  0.040810428   -3.6948967    1.3561261   396900 
 1068000   0.90165352   -3.6949022   -3.6949022   -2.3424254  0.040604669   -3.6949022    1.3524769   396900 
 1069000   0.90161586   -3.6950288   -3.6950288   -2.3426084   0.04049612   -3.6950288    1.3524204   396900 
 1070000   0.90423412   -3.6992055   -3.6992055   -2.3428578   0.03968135   -3.6992055    1.3563478   396900 
 1071000   0.90275826   -3.7005539   -3.7005539   -2.3464199  0.038006222   -3.7005539     1.354134   396900 
 1072000    0.9021549   -3.7016631   -3.7016631   -2.3484342  0.036608575   -3.7016631    1.3532289   396900 
 1073000   0.90480044    -3.703193    -3.703193   -2.3459957  0.043407026    -3.703193    1.3571972   396900 
 1074000   0.90275381    -3.699873    -3.699873   -2.3457457  0.048721379    -3.699873    1.3541273   396900 
 1075000   0.90292628   -3.7046011   -3.7046011   -2.3502151  0.039203194   -3.7046011     1.354386   396900 
 1076000   0.90118628   -3.7051129   -3.7051129   -2.3533369  0.032782829   -3.7051129     1.351776   396900 
 1077000   0.90167304   -3.7056557   -3.7056557   -2.3531496  0.038503768   -3.7056557    1.3525062   396900 
 1078000   0.90224012   -3.7043755   -3.7043755   -2.3510187   0.03668682   -3.7043755    1.3533568   396900 
 1079000    0.9023027   -3.7043189   -3.7043189   -2.3508683  0.044774249   -3.7043189    1.3534506   396900 
 1080000   0.90191364   -3.7047438   -3.7047438   -2.3518767  0.042014148   -3.7047438    1.3528671   396900 
 1081000   0.90217701   -3.7066101   -3.7066101   -2.3533479  0.039888698   -3.7066101    1.3532621   396900 
 1082000   0.90326347   -3.7069618   -3.7069618     -2.35207  0.041074688   -3.7069618    1.3548918   396900 
 1083000   0.90035563   -3.7067567   -3.7067567   -2.3562267  0.039326746   -3.7067567      1.35053   396900 
 1084000    0.9008866    -3.707092    -3.707092   -2.3557655  0.036382472    -3.707092    1.3513265   396900 
 1085000   0.90336985   -3.7085032   -3.7085032   -2.3534518  0.042548193   -3.7085032    1.3550514   396900 
 1086000   0.90236742    -3.708592    -3.708592   -2.3550443  0.037312281    -3.708592    1.3535477   396900 
 1087000   0.90168258   -3.7084512   -3.7084512   -2.3559308  0.038753065   -3.7084512    1.3525205   396900 
 1088000   0.90067465   -3.7090799   -3.7090799   -2.3580714   0.04050237   -3.7090799    1.3510086   396900 
 1089000   0.90174699   -3.7114289   -3.7114289   -2.3588118  0.036334867   -3.7114289    1.3526171   396900 
 1090000   0.90320092   -3.7117541   -3.7117541   -2.3569562  0.043021098   -3.7117541     1.354798   396900 
 1091000   0.90193586   -3.7115073   -3.7115073   -2.3586069  0.039383246   -3.7115073    1.3529004   396900 
 1092000   0.90038163    -3.710553    -3.710553    -2.359984  0.033706658    -3.710553     1.350569   396900 
 1093000    0.9015812   -3.7120259   -3.7120259   -2.3596575   0.03484191   -3.7120259    1.3523684   396900 
 1094000   0.90229355    -3.714066    -3.714066   -2.3606291  0.037001397    -3.714066    1.3534369   396900 
 1095000   0.90086334   -3.7133266   -3.7133266    -2.362035  0.041797677   -3.7133266    1.3512916   396900 
 1096000   0.90107943   -3.7155013   -3.7155013   -2.3638855  0.040545808   -3.7155013    1.3516157   396900 
 1097000   0.89964107    -3.714574    -3.714574   -2.3651158  0.037329016    -3.714574    1.3494582   396900 
 1098000   0.90028609   -3.7151733   -3.7151733   -2.3647476  0.037005363   -3.7151733    1.3504257   396900 
 1099000   0.89822921   -3.7136968   -3.7136968   -2.3663564  0.037556467   -3.7136968    1.3473404   396900 
 1100000   0.89849814   -3.7164552   -3.7164552   -2.3687114  0.035833875   -3.7164552    1.3477438   396900 
 1101000   0.89913224   -3.7169935   -3.7169935   -2.3682985  0.035702929   -3.7169935     1.348695   396900 
 1102000   0.89919735   -3.7178007   -3.7178007   -2.3690081  0.033177587   -3.7178007    1.3487926   396900 
 1103000   0.89878527   -3.7179762   -3.7179762   -2.3698017  0.036349582   -3.7179762    1.3481745   396900 
 1104000   0.89708859   -3.7169266   -3.7169266   -2.3712971  0.041514578   -3.7169266    1.3456295   396900 
 1105000   0.89844513   -3.7202483   -3.7202483    -2.372584  0.040174791   -3.7202483    1.3476643   396900 
 1106000   0.89963838   -3.7208678   -3.7208678   -2.3714136  0.036883801   -3.7208678    1.3494542   396900 
 1107000   0.89871288   -3.7202448   -3.7202448   -2.3721789  0.039507629   -3.7202448    1.3480659   396900 
 1108000   0.89745145   -3.7191532   -3.7191532   -2.3729794  0.034318827   -3.7191532    1.3461738   396900 
 1109000   0.89833511   -3.7228667   -3.7228667   -2.3753675  0.030309908   -3.7228667    1.3474993   396900 
 1110000    0.8985309   -3.7214269   -3.7214269   -2.3736339  0.040296483   -3.7214269     1.347793   396900 
 1111000   0.89764283   -3.7234507   -3.7234507   -2.3769899   0.03753963   -3.7234507    1.3464608   396900 
 1112000   0.89800783   -3.7232675   -3.7232675   -2.3762591  0.038507768   -3.7232675    1.3470084   396900 
 1113000   0.89680313   -3.7225832   -3.7225832   -2.3773818  0.036865148   -3.7225832    1.3452013   396900 
 1114000   0.89975532   -3.7234459   -3.7234459   -2.3738163  0.038123033   -3.7234459    1.3496296   396900 
 1115000   0.89844136   -3.7232337   -3.7232337   -2.3755751  0.031636372   -3.7232337    1.3476586   396900 
 1116000   0.89738649   -3.7235315   -3.7235315   -2.3774552   0.03220873   -3.7235315    1.3460763   396900 
 1117000   0.89883922    -3.722088    -3.722088   -2.3738325  0.031705383    -3.722088    1.3482554   396900 
 1118000   0.89767411   -3.7216241   -3.7216241   -2.3751163  0.037981293   -3.7216241    1.3465078   396900 
 1119000   0.89923279   -3.7242559   -3.7242559   -2.3754101  0.040465975   -3.7242559    1.3488458   396900 
 1120000   0.89859306   -3.7242952   -3.7242952    -2.376409  0.033295657   -3.7242952    1.3478862   396900 
 1121000   0.89918387   -3.7258091   -3.7258091   -2.3770366  0.035787855   -3.7258091    1.3487724   396900 
 1122000   0.89922364   -3.7267918   -3.7267918   -2.3779598  0.037290317   -3.7267918    1.3488321   396900 
 1123000   0.89790808   -3.7292794   -3.7292794   -2.3824207  0.037413941   -3.7292794    1.3468587   396900 
 1124000   0.89763743   -3.7302866   -3.7302866   -2.3838339  0.039190221   -3.7302866    1.3464528   396900 
 1125000   0.89775135   -3.7324315   -3.7324315   -2.3858079  0.036588619   -3.7324315    1.3466236   396900 
 1126000   0.89640452   -3.7310757   -3.7310757   -2.3864723  0.041058701   -3.7310757    1.3446034   396900 
 1127000   0.89818024   -3.7327485   -3.7327485   -2.3854815  0.036190637   -3.7327485     1.347267   396900 
 1128000   0.89468537   -3.7318066   -3.7318066   -2.3897819  0.039514778   -3.7318066    1.3420247   396900 
 1129000   0.89634862   -3.7333326   -3.7333326    -2.388813  0.039604249   -3.7333326    1.3445195   396900 
 1130000   0.89675981   -3.7353502   -3.7353502   -2.3902139  0.037690336   -3.7353502    1.3451363   396900 
 1131000   0.89895028    -3.737801    -3.737801    -2.389379  0.040220362    -3.737801     1.348422   396900 
 1132000   0.89740102   -3.7379005   -3.7379005   -2.3918024  0.036702301   -3.7379005    1.3460981   396900 
 1133000   0.89526462    -3.736107    -3.736107   -2.3932135  0.036411817    -3.736107    1.3428935   396900 
 1134000   0.89637306   -3.7354857   -3.7354857   -2.3909295  0.040874765   -3.7354857    1.3445562   396900 
 1135000   0.89524288   -3.7366639   -3.7366639    -2.393803  0.033262962   -3.7366639    1.3428609   396900 
 1136000   0.89659329   -3.7370052   -3.7370052   -2.3921186  0.035317666   -3.7370052    1.3448865   396900 
 1137000   0.89498129   -3.7351524   -3.7351524   -2.3926838  0.035274887   -3.7351524    1.3424685   396900 
 1138000   0.89682226   -3.7375342   -3.7375342   -2.3923042  0.037512272   -3.7375342      1.34523   396900 
 1139000   0.89370567   -3.7363381   -3.7363381    -2.395783  0.036371966   -3.7363381    1.3405551   396900 
 1140000   0.89661715   -3.7381999   -3.7381999   -2.3932776  0.034479405   -3.7381999    1.3449223   396900 
 1141000    0.8957162   -3.7359423   -3.7359423   -2.3923714   0.04228311   -3.7359423    1.3435709   396900 
 1142000   0.89375116   -3.7366088   -3.7366088   -2.3959854  0.036665348   -3.7366088    1.3406234   396900 
 1143000   0.89530823   -3.7390408   -3.7390408   -2.3960819  0.036880734   -3.7390408     1.342959   396900 
 1144000   0.89595234   -3.7408367   -3.7408367   -2.3969116  0.039190351   -3.7408367    1.3439251   396900 
 1145000   0.89595331   -3.7407856   -3.7407856   -2.3968591  0.038725643   -3.7407856    1.3439266   396900 
 1146000   0.89532153   -3.7440944   -3.7440944   -2.4011154  0.035246425   -3.7440944    1.3429789   396900 
 1147000   0.89509243   -3.7439034   -3.7439034   -2.4012681  0.037200968   -3.7439034    1.3426353   396900 
 1148000   0.89332406   -3.7432792   -3.7432792   -2.4032965  0.040451129   -3.7432792    1.3399827   396900 
 1149000   0.89561398   -3.7453208   -3.7453208   -2.4019032  0.036831556   -3.7453208    1.3434176   396900 
 1150000   0.89409273   -3.7450208   -3.7450208   -2.4038851  0.035638194   -3.7450208    1.3411357   396900 
 1151000   0.89479374     -3.74779     -3.74779   -2.4056028   0.03073249     -3.74779    1.3421872   396900 
 1152000   0.89318732   -3.7434022   -3.7434022   -2.4036246  0.033121912   -3.7434022    1.3397776   396900 
 1153000   0.89596334   -3.7494392   -3.7494392   -2.4054976  0.036986987   -3.7494392    1.3439416   396900 
 1154000   0.89345153    -3.747819    -3.747819   -2.4076451  0.039934267    -3.747819    1.3401739   396900 
 1155000   0.89321907   -3.7502386   -3.7502386   -2.4104133    0.0367645   -3.7502386    1.3398252   396900 
 1156000   0.89641632   -3.7536907   -3.7536907   -2.4090696  0.036791677   -3.7536907    1.3446211   396900 
 1157000   0.89384331   -3.7505363   -3.7505363   -2.4097747   0.03962419   -3.7505363    1.3407616   396900 
 1158000   0.89450501   -3.7523485   -3.7523485   -2.4105944  0.040269175   -3.7523485    1.3417541   396900 
 1159000   0.89267675   -3.7522153   -3.7522153   -2.4132035  0.036354373   -3.7522153    1.3390118   396900 
 1160000    0.8946027   -3.7539759   -3.7539759   -2.4120752  0.032437298   -3.7539759    1.3419007   396900 
 1161000   0.89123798   -3.7523043   -3.7523043   -2.4154507  0.032887085   -3.7523043    1.3368536   396900 
 1162000    0.8932146   -3.7528485   -3.7528485     -2.41303  0.037673932   -3.7528485    1.3398185   396900 
 1163000   0.89401799   -3.7538144   -3.7538144   -2.4127908  0.033019197   -3.7538144    1.3410236   396900 
 1164000   0.89631748   -3.7564425   -3.7564425   -2.4119696  0.037397958   -3.7564425    1.3444728   396900 
 1165000   0.89243499   -3.7528454   -3.7528454   -2.4141963  0.032308584   -3.7528454    1.3386491   396900 
 1166000   0.89130954   -3.7552452   -3.7552452   -2.4182843   0.03280588   -3.7552452    1.3369609   396900 
 1167000   0.89224918   -3.7566807   -3.7566807   -2.4183103  0.035848418   -3.7566807    1.3383704   396900 
 1168000    0.8938611   -3.7593761   -3.7593761   -2.4185879  0.035700909   -3.7593761    1.3407883   396900 
 1169000   0.89382349   -3.7587702   -3.7587702   -2.4180384  0.035287164   -3.7587702    1.3407319   396900 
 1170000    0.8931389   -3.7583236   -3.7583236   -2.4186186  0.039919335   -3.7583236     1.339705   396900 
 1171000   0.89267515   -3.7577317   -3.7577317   -2.4187223  0.033596822   -3.7577317    1.3390094   396900 
 1172000   0.89230846   -3.7576722   -3.7576722   -2.4192129  0.036866589   -3.7576722    1.3384593   396900 
 1173000     0.891537   -3.7568593   -3.7568593   -2.4195572  0.035826669   -3.7568593    1.3373021   396900 
 1174000   0.89300723   -3.7585218   -3.7585218   -2.4190143  0.034815876   -3.7585218    1.3395075   396900 
 1175000   0.89047219    -3.755944    -3.755944   -2.4202391  0.037878616    -3.755944    1.3357049   396900 
 1176000   0.89165487   -3.7576838   -3.7576838   -2.4202048  0.035462462   -3.7576838    1.3374789   396900 
 1177000    0.8913481    -3.757842    -3.757842   -2.4208232  0.030678592    -3.757842    1.3370188   396900 
 1178000   0.89206926   -3.7602071   -3.7602071   -2.4221066  0.027768653   -3.7602071    1.3381005   396900 
 1179000   0.89023668    -3.759401    -3.759401   -2.4240494  0.034071725    -3.759401    1.3353517   396900 
 1180000   0.89023911    -3.758632    -3.758632   -2.4232767  0.030801971    -3.758632    1.3353553   396900 
 1181000   0.89248512   -3.7602053   -3.7602053   -2.4214809  0.034725215   -3.7602053    1.3387243   396900 
 1182000   0.89404455   -3.7620338   -3.7620338   -2.4209704  0.040045596   -3.7620338    1.3410635   396900 
 1183000   0.89419586   -3.7641743   -3.7641743   -2.4228839  0.035130797   -3.7641743    1.3412904   396900 
 1184000   0.89170479   -3.7611801   -3.7611801   -2.4236262  0.039110104   -3.7611801    1.3375538   396900 
 1185000   0.89025138   -3.7608943   -3.7608943   -2.4255206  0.039157112   -3.7608943    1.3353737   396900 
 1186000   0.89239743   -3.7652084   -3.7652084   -2.4266156  0.034967891   -3.7652084    1.3385928   396900 
 1187000    0.8910964   -3.7660456   -3.7660456   -2.4294043  0.031404502   -3.7660456    1.3366412   396900 
 1188000   0.88856819    -3.762507    -3.762507   -2.4296581  0.033206456    -3.762507    1.3328489   396900 
 1189000   0.89143662    -3.766908    -3.766908   -2.4297565  0.033491455    -3.766908    1.3371516   396900 
 1190000   0.89018496   -3.7644598   -3.7644598   -2.4291857  0.034914699   -3.7644598    1.3352741   396900 
 1191000   0.89090589   -3.7656536   -3.7656536   -2.4292982  0.036646624   -3.7656536    1.3363555   396900 
 1192000   0.88898728   -3.7637254   -3.7637254   -2.4302479  0.035472797   -3.7637254    1.3334776   396900 
 1193000   0.88987654   -3.7645096   -3.7645096   -2.4296981   0.02759858   -3.7645096    1.3348114   396900 
 1194000   0.88911428   -3.7673213   -3.7673213   -2.4336532  0.028739036   -3.7673213    1.3336681   396900 
 1195000   0.88845393   -3.7669484   -3.7669484   -2.4342708  0.029541051   -3.7669484    1.3326775   396900 
 1196000   0.89034447   -3.7698188   -3.7698188   -2.4343054  0.034460806   -3.7698188    1.3355133   396900 
 1197000   0.88983776   -3.7704631   -3.7704631   -2.4357098  0.034168922   -3.7704631    1.3347533   396900 
 1198000   0.88886637   -3.7675892   -3.7675892    -2.434293   0.03899246   -3.7675892    1.3332962   396900 
 1199000   0.89018204   -3.7708298   -3.7708298   -2.4355601  0.038823667   -3.7708298    1.3352697   396900 
 1200000    0.8919663   -3.7733476   -3.7733476   -2.4354015  0.035064664   -3.7733476    1.3379461   396900 
 1201000   0.88878762   -3.7722218   -3.7722218   -2.4390437  0.037648144   -3.7722218    1.3331781   396900 
 1202000   0.89017509   -3.7749012   -3.7749012   -2.4396419  0.038367816   -3.7749012    1.3352593   396900 
 1203000   0.88951689   -3.7742491   -3.7742491   -2.4399771  0.036071918   -3.7742491     1.334272   396900 
 1204000   0.88906129   -3.7737748   -3.7737748   -2.4401862   0.03745179   -3.7737748    1.3335886   396900 
 1205000   0.88868133   -3.7719857   -3.7719857   -2.4389671   0.03547079   -3.7719857    1.3330186   396900 
 1206000   0.88807249   -3.7747554   -3.7747554   -2.4426501  0.032776411   -3.7747554    1.3321054   396900 
 1207000   0.88904447   -3.7741857   -3.7741857   -2.4406224  0.031809301   -3.7741857    1.3335633   396900 
 1208000   0.89049703   -3.7773688   -3.7773688   -2.4416266  0.034627281   -3.7773688    1.3357422   396900 
 1209000   0.89223901   -3.7784945   -3.7784945   -2.4401394  0.037081801   -3.7784945    1.3383551   396900 
 1210000   0.89033947    -3.779359    -3.779359   -2.4438531   0.04034689    -3.779359    1.3355058   396900 
 1211000   0.88826237   -3.7798322   -3.7798322    -2.447442  0.028875619   -3.7798322    1.3323902   396900 
 1212000   0.88868845   -3.7794407   -3.7794407   -2.4464114  0.037977141   -3.7794407    1.3330293   396900 
 1213000   0.88886033    -3.780324    -3.780324   -2.4470368  0.037742072    -3.780324    1.3332871   396900 
 1214000   0.88895545   -3.7812343   -3.7812343   -2.4478045  0.030800136   -3.7812343    1.3334298   396900 
 1215000   0.88901214   -3.7835639   -3.7835639   -2.4500491  0.035544001   -3.7835639    1.3335149   396900 
 1216000   0.88666119   -3.7809167   -3.7809167   -2.4509283  0.034279961   -3.7809167    1.3299884   396900 
 1217000     0.888685   -3.7822183   -3.7822183   -2.4491942  0.038953878   -3.7822183    1.3330241   396900 
 1218000   0.88792815   -3.7838957   -3.7838957   -2.4520068  0.036780949   -3.7838957    1.3318889   396900 
 1219000   0.88800344   -3.7831094   -3.7831094   -2.4511076  0.030394405   -3.7831094    1.3320018   396900 
 1220000   0.88642492    -3.785128    -3.785128    -2.455494  0.033156296    -3.785128     1.329634   396900 
 1221000    0.8888706   -3.7857869   -3.7857869   -2.4524844  0.034168027   -3.7857869    1.3333025   396900 
 1222000   0.88756504   -3.7866814   -3.7866814   -2.4553372  0.038153738   -3.7866814    1.3313442   396900 
 1223000   0.88641093   -3.7859827   -3.7859827   -2.4563697  0.034516411   -3.7859827     1.329613   396900 
 1224000   0.88772381   -3.7871956   -3.7871956   -2.4556133  0.040201672   -3.7871956    1.3315824   396900 
 1225000   0.88563388   -3.7876711   -3.7876711   -2.4592237  0.031751979   -3.7876711    1.3284475   396900 
 1226000   0.88584128   -3.7909198   -3.7909198   -2.4621612  0.033875256   -3.7909198    1.3287586   396900 
 1227000   0.88662081   -3.7902694   -3.7902694   -2.4603416  0.033497116   -3.7902694    1.3299279   396900 
 1228000    0.8865021   -3.7929973   -3.7929973   -2.4632475  0.034329191   -3.7929973    1.3297498   396900 
 1229000   0.88355562   -3.7882359   -3.7882359   -2.4629058  0.032581977   -3.7882359    1.3253301   396900 
 1230000   0.88461563   -3.7909975   -3.7909975   -2.4640774   0.03391711   -3.7909975    1.3269201   396900 
 1231000   0.88517229   -3.7924128   -3.7924128   -2.4646577  0.031157408   -3.7924128    1.3277551   396900 
 1232000   0.88531297    -3.793752    -3.793752   -2.4657859  0.030842083    -3.793752    1.3279661   396900 
 1233000   0.88607246   -3.7959384   -3.7959384    -2.466833  0.031983586   -3.7959384    1.3291053   396900 
 1234000    0.8836918   -3.7931691   -3.7931691   -2.4676347  0.035952128   -3.7931691    1.3255344   396900 
 1235000   0.88519611   -3.7955909   -3.7955909      -2.4678  0.030933495   -3.7955909    1.3277908   396900 
 1236000   0.88654395    -3.797034    -3.797034   -2.4672215  0.038293362    -3.797034    1.3298126   396900 
 1237000    0.8852589   -3.7961248   -3.7961248   -2.4682398   0.02859059   -3.7961248     1.327885   396900 
 1238000   0.88505145   -3.7962504   -3.7962504   -2.4686766  0.032906589   -3.7962504    1.3275738   396900 
 1239000   0.88568621   -3.7947192   -3.7947192   -2.4661932  0.034790063   -3.7947192     1.328526   396900 
 1240000   0.88496633   -3.7950988   -3.7950988   -2.4676527  0.037179969   -3.7950988    1.3274461   396900 
 1241000   0.88636456   -3.7974367   -3.7974367   -2.4678932  0.037029095   -3.7974367    1.3295435   396900 
 1242000    0.8852794   -3.7969623   -3.7969623   -2.4690465  0.037130817   -3.7969623    1.3279158   396900 
 1243000   0.88485695   -3.7969219   -3.7969219   -2.4696398  0.027910872   -3.7969219    1.3272821   396900 
 1244000   0.88640728   -3.7993136   -3.7993136    -2.469706    0.0380958   -3.7993136    1.3296076   396900 
 1245000   0.88277599   -3.7986273   -3.7986273   -2.4744666  0.030772319   -3.7986273    1.3241606   396900 
 1246000   0.88270063   -3.7985817   -3.7985817   -2.4745341  0.034990036   -3.7985817    1.3240476   396900 
 1247000   0.88326216   -3.7993703   -3.7993703   -2.4744804  0.032412111   -3.7993703    1.3248899   396900 
 1248000    0.8847804   -3.8022782   -3.8022782   -2.4751109  0.041541762   -3.8022782    1.3271673   396900 
 1249000   0.88323158   -3.8026253   -3.8026253   -2.4777813   0.03431495   -3.8026253     1.324844   396900 
 1250000   0.88506671   -3.8065642   -3.8065642   -2.4789675  0.031526696   -3.8065642    1.3275967   396900 
 1251000   0.88503927   -3.8060574   -3.8060574   -2.4785018  0.031695126   -3.8060574    1.3275556   396900 
 1252000   0.88398429    -3.804988    -3.804988   -2.4790149  0.039274167    -3.804988    1.3259731   396900 
 1253000   0.88533674   -3.8095837   -3.8095837   -2.4815819  0.032629231   -3.8095837    1.3280018   396900 
 1254000   0.88385183   -3.8086883   -3.8086883   -2.4829139  0.035988157   -3.8086883    1.3257744   396900 
 1255000   0.88303281   -3.8116699   -3.8116699    -2.487124  0.036883381   -3.8116699    1.3245459   396900 
 1256000   0.88236432   -3.8097867   -3.8097867   -2.4862436  0.035032815   -3.8097867    1.3235431   396900 
 1257000   0.88338926   -3.8106853   -3.8106853   -2.4856048  0.030821763   -3.8106853    1.3250805   396900 
 1258000   0.88408682   -3.8106981   -3.8106981   -2.4845712  0.034123777   -3.8106981    1.3261269   396900 
 1259000   0.88129868   -3.8093308   -3.8093308   -2.4873861  0.034366218   -3.8093308    1.3219447   396900 
 1260000   0.88290921   -3.8130019   -3.8130019   -2.4886414  0.031514744   -3.8130019    1.3243605   396900 
 1261000   0.88146626   -3.8111844   -3.8111844   -2.4889884  0.028350785   -3.8111844    1.3221961   396900 
 1262000   0.88265847   -3.8140531   -3.8140531   -2.4900688  0.032518391   -3.8140531    1.3239844   396900 
 1263000   0.88200852   -3.8121156   -3.8121156   -2.4891061  0.031636946   -3.8121156    1.3230094   396900 
 1264000   0.88353699   -3.8132333   -3.8132333   -2.4879311  0.034369157   -3.8132333    1.3253022   396900 
 1265000   0.88468236   -3.8162403   -3.8162403   -2.4892201   0.03534952   -3.8162403    1.3270202   396900 
 1266000   0.88174062   -3.8142703   -3.8142703   -2.4916627  0.033327579   -3.8142703    1.3226076   396900 
 1267000   0.88150832   -3.8169833   -3.8169833   -2.4947241  0.030054442   -3.8169833    1.3222592   396900 
 1268000   0.88218497   -3.8160549   -3.8160549   -2.4927808  0.028680424   -3.8160549    1.3232741   396900 
 1269000   0.88350002   -3.8153329   -3.8153329   -2.4900862  0.032694974   -3.8153329    1.3252467   396900 
 1270000   0.88128588   -3.8168134   -3.8168134   -2.4948879  0.031033173   -3.8168134    1.3219255   396900 
 1271000    0.8818074   -3.8200795   -3.8200795   -2.4973718  0.023965173   -3.8200795    1.3227078   396900 
 1272000   0.88007613   -3.8172445   -3.8172445   -2.4971336  0.032306315   -3.8172445    1.3201109   396900 
 1273000   0.87982762   -3.8177517   -3.8177517   -2.4980136  0.026806729   -3.8177517    1.3197381   396900 
 1274000    0.8814735   -3.8190038   -3.8190038   -2.4967969  0.033903083   -3.8190038    1.3222069   396900 
 1275000    0.8825139    -3.818768    -3.818768   -2.4950004  0.035435574    -3.818768    1.3237675   396900 
 1276000   0.88223627   -3.8218867   -3.8218867   -2.4985356  0.033631297   -3.8218867    1.3233511   396900 
 1277000   0.88087286   -3.8204703   -3.8204703   -2.4991644  0.038683648   -3.8204703     1.321306   396900 
 1278000   0.88088603   -3.8235612   -3.8235612   -2.5022355  0.033569697   -3.8235612    1.3213257   396900 
 1279000    0.8792368   -3.8219553   -3.8219553   -2.5031034  0.035850714   -3.8219553    1.3188519   396900 
 1280000    0.8794451    -3.826226    -3.826226   -2.5070617  0.035142386    -3.826226    1.3191643   396900 
 1281000   0.87951878    -3.826144    -3.826144   -2.5068692  0.033143661    -3.826144    1.3192748   396900 
 1282000   0.88088732   -3.8246084   -3.8246084   -2.5032807  0.036723892   -3.8246084    1.3213277   396900 
 1283000   0.88043387   -3.8245412   -3.8245412   -2.5038937  0.037028578   -3.8245412    1.3206475   396900 
 1284000   0.87955747    -3.827608    -3.827608   -2.5082752  0.035174079    -3.827608    1.3193329   396900 
 1285000   0.87970514   -3.8289017   -3.8289017   -2.5093473  0.032604722   -3.8289017    1.3195544   396900 
 1286000   0.87889045   -3.8279536   -3.8279536   -2.5096212   0.03003573   -3.8279536    1.3183324   396900 
 1287000   0.88003289   -3.8301644   -3.8301644   -2.5101184  0.032775517   -3.8301644     1.320046   396900 
 1288000   0.87957678   -3.8311416   -3.8311416   -2.5117798  0.035547992   -3.8311416    1.3193619   396900 
 1289000   0.87968471   -3.8299508   -3.8299508    -2.510427  0.037579224   -3.8299508    1.3195237   396900 
 1290000   0.87935808   -3.8315154   -3.8315154   -2.5124816  0.025871841   -3.8315154    1.3190338   396900 
 1291000   0.87829904   -3.8304999   -3.8304999   -2.5130547  0.030906158   -3.8304999    1.3174452   396900 
 1292000   0.87656323    -3.826978    -3.826978   -2.5121364  0.032344561    -3.826978    1.3148415   396900 
 1293000   0.87815649   -3.8285274   -3.8285274    -2.511296  0.030049112   -3.8285274    1.3172314   396900 
 1294000   0.87983393    -3.831054    -3.831054   -2.5113065  0.029777213    -3.831054    1.3197476   396900 
 1295000   0.87986042   -3.8309597   -3.8309597   -2.5111724  0.029542467   -3.8309597    1.3197873   396900 
 1296000   0.87857665   -3.8304271   -3.8304271   -2.5125654  0.033657285   -3.8304271    1.3178616   396900 
 1297000   0.87834182   -3.8320446   -3.8320446   -2.5145352  0.036320757   -3.8320446    1.3175094   396900 
 1298000     0.879967    -3.834377    -3.834377   -2.5144298  0.031061622    -3.834377    1.3199472   396900 
 1299000   0.87942063   -3.8348216   -3.8348216    -2.515694  0.026752033   -3.8348216    1.3191276   396900 
 1300000   0.87890658    -3.833853    -3.833853   -2.5154964  0.028522856    -3.833853    1.3183566   396900 
 1301000   0.87609772   -3.8311857   -3.8311857   -2.5170425  0.035274493   -3.8311857    1.3141433   396900 
 1302000    0.8780658    -3.836818    -3.836818   -2.5197226  0.028217574    -3.836818    1.3170954   396900 
 1303000   0.87943566   -3.8382223   -3.8382223   -2.5190721  0.034165522   -3.8382223    1.3191502   396900 
 1304000   0.87805537   -3.8380591   -3.8380591   -2.5209794  0.032779951   -3.8380591    1.3170797   396900 
 1305000   0.87683728   -3.8391358   -3.8391358   -2.5238832  0.030268363   -3.8391358    1.3152526   396900 
 1306000    0.8751602   -3.8391786   -3.8391786   -2.5264416  0.023921934   -3.8391786     1.312737   396900 
 1307000   0.87834757   -3.8439203   -3.8439203   -2.5264023  0.030952851   -3.8439203     1.317518   396900 
 1308000   0.87782264   -3.8457332   -3.8457332   -2.5290026  0.034134356   -3.8457332    1.3167306   396900 
 1309000   0.87763651   -3.8443652   -3.8443652   -2.5279138  0.033893334   -3.8443652    1.3164514   396900 
 1310000   0.87918008   -3.8496171   -3.8496171   -2.5308503  0.033331664   -3.8496171    1.3187668   396900 
 1311000   0.87724336   -3.8468383   -3.8468383   -2.5309766  0.036723214   -3.8468383    1.3158617   396900 
 1312000   0.87558664   -3.8468295   -3.8468295   -2.5334529  0.034952193   -3.8468295    1.3133767   396900 
 1313000   0.87509638   -3.8489983   -3.8489983   -2.5363571  0.029544731   -3.8489983    1.3126413   396900 
 1314000   0.87594074   -3.8502662   -3.8502662   -2.5363584  0.036802726   -3.8502662    1.3139078   396900 
 1315000   0.87758984   -3.8518387   -3.8518387   -2.5354572  0.032368171   -3.8518387    1.3163814   396900 
 1316000   0.87611537   -3.8517039   -3.8517039   -2.5375341  0.032900889   -3.8517039    1.3141697   396900 
 1317000   0.87839425    -3.853216    -3.853216    -2.535628  0.028159248    -3.853216    1.3175881   396900 
 1318000   0.87746738    -3.850562    -3.850562   -2.5343643  0.038694205    -3.850562    1.3161978   396900 
 1319000   0.87568051   -3.8488561   -3.8488561   -2.5353386  0.033671417   -3.8488561    1.3135175   396900 
 1320000     0.875822   -3.8487724   -3.8487724   -2.5350427  0.029069585   -3.8487724    1.3137297   396900 
 1321000   0.87545386   -3.8504119   -3.8504119   -2.5372344  0.024876549   -3.8504119    1.3131775   396900 
 1322000   0.87543119   -3.8501073   -3.8501073   -2.5369638  0.030740878   -3.8501073    1.3131435   396900 
 1323000   0.87605261   -3.8496565   -3.8496565   -2.5355809  0.029939102   -3.8496565    1.3140756   396900 
 1324000   0.87390514   -3.8492274   -3.8492274    -2.538373  0.030900224   -3.8492274    1.3108544   396900 
 1325000   0.87449873   -3.8500235   -3.8500235   -2.5382787  0.033343566   -3.8500235    1.3117448   396900 
 1326000   0.87469088    -3.851483    -3.851483     -2.53945  0.028195777    -3.851483     1.312033   396900 
 1327000   0.87652846   -3.8530905   -3.8530905   -2.5383011  0.030149537   -3.8530905    1.3147894   396900 
 1328000   0.87502995    -3.853687    -3.853687   -2.5411454  0.026566565    -3.853687    1.3125416   396900 
 1329000   0.87503311   -3.8545891   -3.8545891   -2.5420428   0.02989957   -3.8545891    1.3125464   396900 
 1330000   0.87399825   -3.8516207   -3.8516207   -2.5406267  0.032247672   -3.8516207    1.3109941   396900 
 1331000   0.87533929   -3.8549693   -3.8549693   -2.5419636  0.032612073   -3.8549693    1.3130056   396900 
 1332000   0.87396981   -3.8558341   -3.8558341   -2.5448827  0.027844205   -3.8558341    1.3109514   396900 
 1333000   0.87348506   -3.8563381   -3.8563381   -2.5461138  0.028688805   -3.8563381    1.3102243   396900 
 1334000   0.87372218   -3.8582591   -3.8582591   -2.5476792  0.028346091   -3.8582591      1.31058   396900 
 1335000   0.87296384   -3.8580291   -3.8580291   -2.5485866  0.028256302   -3.8580291    1.3094425   396900 
 1336000   0.87461143   -3.8598996   -3.8598996   -2.5479857  0.032738753   -3.8598996    1.3119138   396900 
 1337000   0.87453162   -3.8596813   -3.8596813   -2.5478872  0.035440849   -3.8596813    1.3117941   396900 
 1338000   0.87563946   -3.8619671   -3.8619671   -2.5485112  0.037137351   -3.8619671    1.3134559   396900 
 1339000   0.87567855   -3.8636736   -3.8636736   -2.5501591  0.032615784   -3.8636736    1.3135145   396900 
 1340000    0.8740212   -3.8611138   -3.8611138   -2.5500853  0.030812499   -3.8611138    1.3110285   396900 
 1341000   0.87341285   -3.8612918   -3.8612918   -2.5511759  0.027520225   -3.8612918     1.310116   396900 
 1342000   0.87421183   -3.8618087   -3.8618087   -2.5504943  0.027928313   -3.8618087    1.3113144   396900 
 1343000   0.87377172   -3.8618535   -3.8618535   -2.5511992  0.029920785   -3.8618535    1.3106543   396900 
 1344000   0.87232763    -3.860342    -3.860342   -2.5518538  0.034089833    -3.860342    1.3084881   396900 
 1345000   0.87297537   -3.8609792   -3.8609792   -2.5515194   0.03083546   -3.8609792    1.3094597   396900 
 1346000   0.87434349   -3.8625392   -3.8625392   -2.5510272   0.03484406   -3.8625392    1.3115119   396900 
 1347000   0.87333065   -3.8622314   -3.8622314   -2.5522388  0.034663746   -3.8622314    1.3099927   396900 
 1348000   0.87558278   -3.8628511   -3.8628511   -2.5494803   0.03556303   -3.8628511    1.3133709   396900 
 1349000   0.87428989   -3.8650332   -3.8650332   -2.5536017  0.031195965   -3.8650332    1.3114315   396900 
 1350000   0.87332289   -3.8661582   -3.8661582   -2.5561772  0.030046415   -3.8661582     1.309981   396900 
 1351000   0.87201681   -3.8648512   -3.8648512   -2.5568292   0.03377049   -3.8648512    1.3080219   396900 
 1352000   0.87299919   -3.8663513   -3.8663513   -2.5568558  0.029413756   -3.8663513    1.3094955   396900 
 1353000   0.87300025   -3.8648827   -3.8648827   -2.5553857  0.033529784   -3.8648827    1.3094971   396900 
 1354000   0.87313738   -3.8666063   -3.8666063   -2.5569035  0.025249488   -3.8666063    1.3097028   396900 
 1355000    0.8735616   -3.8656709   -3.8656709   -2.5553318  0.032443589   -3.8656709    1.3103391   396900 
 1356000   0.87147598   -3.8664791   -3.8664791   -2.5592685  0.030451606   -3.8664791    1.3072107   396900 
 1357000   0.87371203   -3.8708127   -3.8708127   -2.5602479  0.034165315   -3.8708127    1.3105647   396900 
 1358000   0.87299543   -3.8712952   -3.8712952   -2.5618053  0.032975293   -3.8712952    1.3094898   396900 
 1359000    0.8710753   -3.8696258   -3.8696258   -2.5630161  0.025178963   -3.8696258    1.3066097   396900 
 1360000   0.87066843   -3.8689832   -3.8689832   -2.5629839  0.023268379   -3.8689832    1.3059994   396900 
 1361000    0.8706171   -3.8683656   -3.8683656   -2.5624432  0.025998907   -3.8683656    1.3059224   396900 
 1362000    0.8722221   -3.8690952   -3.8690952   -2.5607653  0.028009839   -3.8690952    1.3083299   396900 
 1363000   0.87236949   -3.8704805   -3.8704805   -2.5619295  0.029466315   -3.8704805    1.3085509   396900 
 1364000   0.87200416   -3.8729489   -3.8729489    -2.564946  0.025759796   -3.8729489    1.3080029   396900 
 1365000   0.87204217   -3.8725083   -3.8725083   -2.5644483  0.029248151   -3.8725083      1.30806   396900 
 1366000   0.87107896   -3.8720901   -3.8720901    -2.565475  0.028879657   -3.8720901    1.3066152   396900 
 1367000   0.86931844   -3.8723838   -3.8723838   -2.5684094  0.026472999   -3.8723838    1.3039744   396900 
 1368000   0.87033482   -3.8739829   -3.8739829   -2.5684839  0.028817795   -3.8739829    1.3054989   396900 
 1369000   0.87126122   -3.8753309   -3.8753309   -2.5684424  0.032334108   -3.8753309    1.3068885   396900 
 1370000   0.87078867    -3.879321    -3.879321   -2.5731413  0.030834643    -3.879321    1.3061797   396900 
 1371000   0.87038271   -3.8793903   -3.8793903   -2.5738195  0.028472732   -3.8793903    1.3055708   396900 
 1372000    0.8695445   -3.8783371   -3.8783371   -2.5740237  0.030228905   -3.8783371    1.3043135   396900 
 1373000   0.86960707   -3.8794779   -3.8794779   -2.5750706  0.029338405   -3.8794779    1.3044073   396900 
 1374000   0.87094927     -3.88273     -3.88273   -2.5763094  0.033729079     -3.88273    1.3064206   396900 
 1375000    0.8684881   -3.8797837   -3.8797837   -2.5770548  0.030486284   -3.8797837    1.3027289   396900 
 1376000   0.87090751   -3.8818365   -3.8818365   -2.5754785  0.028075482   -3.8818365     1.306358   396900 
 1377000   0.87129355    -3.882481    -3.882481    -2.575544  0.028409307    -3.882481     1.306937   396900 
 1378000   0.87091634   -3.8818948   -3.8818948   -2.5755236  0.030778205   -3.8818948    1.3063712   396900 
 1379000   0.87223787   -3.8852224   -3.8852224   -2.5768689  0.031540066   -3.8852224    1.3083535   396900 
 1380000   0.87011449   -3.8834226   -3.8834226   -2.5782541  0.029529387   -3.8834226    1.3051684   396900 
 1381000   0.87191132   -3.8854432   -3.8854432   -2.5775795  0.028093332   -3.8854432    1.3078637   396900 
 1382000   0.86997555   -3.8845021   -3.8845021   -2.5795421  0.028876549   -3.8845021      1.30496   396900 
 1383000   0.86921841   -3.8843523   -3.8843523   -2.5805279  0.031034355   -3.8843523    1.3038243   396900 
 1384000   0.86983936     -3.88644     -3.88644   -2.5816842  0.027446798     -3.88644    1.3047558   396900 
 1385000    0.8715661    -3.887838    -3.887838   -2.5804922  0.032970623    -3.887838    1.3073459   396900 
 1386000   0.86872958   -3.8885923   -3.8885923   -2.5855013  0.026600093   -3.8885923    1.3030911   396900 
 1387000   0.87109597   -3.8919526   -3.8919526    -2.585312  0.030489088   -3.8919526    1.3066407   396900 
 1388000   0.86899017   -3.8923328   -3.8923328   -2.5888509  0.026849892   -3.8923328     1.303482   396900 
 1389000   0.86873136   -3.8930047   -3.8930047   -2.5899109  0.028172277   -3.8930047    1.3030938   396900 
 1390000   0.86938809   -3.8951764   -3.8951764   -2.5910976  0.029884957   -3.8951764    1.3040789   396900 
 1391000   0.86890834   -3.8952725   -3.8952725   -2.5919133  0.031039573   -3.8952725    1.3033592   396900 
 1392000   0.86831263   -3.8947878   -3.8947878   -2.5923221  0.030135725   -3.8947878    1.3024657   396900 
 1393000   0.86767343   -3.8965712   -3.8965712   -2.5950644  0.023733602   -3.8965712    1.3015069   396900 
 1394000   0.86750176   -3.8947672   -3.8947672   -2.5935178  0.034206933   -3.8947672    1.3012494   396900 
 1395000    0.8706187   -3.8978199   -3.8978199   -2.5918952  0.033283265   -3.8978199    1.3059248   396900 
 1396000   0.86926241   -3.8965058   -3.8965058   -2.5926155  0.038512625   -3.8965058    1.3038903   396900 
 1397000   0.86844744   -3.8981554   -3.8981554   -2.5954875  0.029235529   -3.8981554    1.3026679   396900 
 1398000   0.86704026   -3.8963073   -3.8963073   -2.5957502  0.029008843   -3.8963073    1.3005571   396900 
 1399000   0.86848276   -3.8960347   -3.8960347   -2.5933138  0.031914361   -3.8960347    1.3027209   396900 
 1400000   0.86661659   -3.8940968   -3.8940968   -2.5941752  0.025596067   -3.8940968    1.2999216   396900 
 1401000    0.8684251   -3.8969536   -3.8969536   -2.5943192  0.026554759   -3.8969536    1.3026344   396900 
 1402000    0.8681175   -3.8970036   -3.8970036   -2.5948306  0.028595061   -3.8970036     1.302173   396900 
 1403000   0.86902421   -3.8946313   -3.8946313   -2.5910982  0.034763181   -3.8946313     1.303533   396900 
 1404000   0.86780554   -3.8963959   -3.8963959   -2.5946909  0.029715769   -3.8963959     1.301705   396900 
 1405000   0.86787248   -3.8949614   -3.8949614    -2.593156  0.031578666   -3.8949614    1.3018054   396900 
 1406000   0.86804216   -3.8980668   -3.8980668   -2.5960068   0.02694907   -3.8980668      1.30206   396900 
 1407000   0.86676762   -3.8971639   -3.8971639   -2.5970158  0.031790637   -3.8971639    1.3001481   396900 
 1408000   0.86752785    -3.899783    -3.899783   -2.5984945  0.026005636    -3.899783    1.3012885   396900 
 1409000   0.86661454   -3.9001642   -3.9001642   -2.6002457  0.024219393   -3.9001642    1.2999185   396900 
 1410000   0.86832394   -3.9026599   -3.9026599   -2.6001773  0.029457238   -3.9026599    1.3024826   396900 
 1411000    0.8665859   -3.9010991   -3.9010991   -2.6012235  0.030665703   -3.9010991    1.2998756   396900 
 1412000   0.86700344   -3.9009022   -3.9009022   -2.6004003  0.024960264   -3.9009022    1.3005019   396900 
 1413000   0.86794863   -3.9011428   -3.9011428   -2.5992232  0.029728836   -3.9011428    1.3019197   396900 
 1414000   0.86540659   -3.8992083   -3.8992083   -2.6011017  0.026738476   -3.8992083    1.2981066   396900 
 1415000   0.86748124   -3.9015016   -3.9015016   -2.6002831  0.023289651   -3.9015016    1.3012186   396900 
 1416000    0.8640285    -3.896478    -3.896478   -2.6004385  0.028432215    -3.896478    1.2960395   396900 
 1417000   0.86599464   -3.8995047   -3.8995047    -2.600516  0.025675439   -3.8995047    1.2989887   396900 
 1418000   0.86663733   -3.9000675   -3.9000675   -2.6001147  0.026287074   -3.9000675    1.2999527   396900 
 1419000    0.8658314   -3.8993106   -3.8993106   -2.6005668  0.027755672   -3.8993106    1.2987438   396900 
 1420000   0.86463854   -3.8992449   -3.8992449   -2.6022903  0.029020187   -3.8992449    1.2969545   396900 
 1421000   0.86512433   -3.9002898   -3.9002898   -2.6026065  0.022894487   -3.9002898    1.2976832   396900 
 1422000   0.86647912   -3.9014101   -3.9014101   -2.6016946   0.01913891   -3.9014101    1.2997154   396900 
 1423000   0.86670119   -3.9011037   -3.9011037   -2.6010552  0.029966649   -3.9011037    1.3000485   396900 
 1424000     0.868325   -3.9054612   -3.9054612    -2.602977  0.023737059   -3.9054612    1.3024842   396900 
 1425000   0.86391835   -3.9022439   -3.9022439   -2.6063696  0.024436207   -3.9022439    1.2958743   396900 
 1426000   0.86476945   -3.9017281   -3.9017281   -2.6045772   0.02986793   -3.9017281    1.2971509   396900 
 1427000   0.86628389   -3.9050406   -3.9050406    -2.605618  0.030073104   -3.9050406    1.2994226   396900 
 1428000   0.86568837   -3.9071917   -3.9071917   -2.6086624  0.029105519   -3.9071917    1.2985293   396900 
 1429000   0.86504533   -3.9096937   -3.9096937    -2.612129  0.027103228   -3.9096937    1.2975647   396900 
 1430000   0.86277454   -3.9085458   -3.9085458   -2.6143873  0.027261008   -3.9085458    1.2941586   396900 
 1431000   0.86448697   -3.9105725   -3.9105725   -2.6138453  0.029801962   -3.9105725    1.2967272   396900 
 1432000   0.86363963    -3.911862    -3.911862   -2.6164058  0.027227804    -3.911862    1.2954562   396900 
 1433000   0.86533956   -3.9135748   -3.9135748   -2.6155688  0.026368205   -3.9135748    1.2980061   396900 
 1434000   0.86709936   -3.9155777   -3.9155777    -2.614932  0.031114849   -3.9155777    1.3006458   396900 
 1435000   0.86529812   -3.9139821   -3.9139821   -2.6160382  0.026745516   -3.9139821    1.2979439   396900 
 1436000   0.86444222   -3.9156328   -3.9156328   -2.6189727  0.025565134   -3.9156328    1.2966601   396900 
 1437000   0.86390115   -3.9146855   -3.9146855    -2.618837  0.027199916   -3.9146855    1.2958485   396900 
 1438000   0.86389545   -3.9133007   -3.9133007   -2.6174608  0.032756472   -3.9133007    1.2958399   396900 
 1439000   0.86439147   -3.9172809   -3.9172809    -2.620697  0.031310761   -3.9172809    1.2965839   396900 
 1440000   0.86221934   -3.9178672   -3.9178672   -2.6245414  0.025894898   -3.9178672    1.2933258   396900 
 1441000   0.86302432   -3.9199971   -3.9199971   -2.6254639  0.028204545   -3.9199971    1.2945332   396900 
 1442000   0.86287391   -3.9204188   -3.9204188   -2.6261112  0.030518711   -3.9204188    1.2943076   396900 
 1443000   0.86306873   -3.9212211   -3.9212211   -2.6266213  0.031128125   -3.9212211    1.2945998   396900 
 1444000   0.86421632   -3.9230524   -3.9230524   -2.6267312  0.029549052   -3.9230524    1.2963212   396900 
 1445000   0.86292718   -3.9220015   -3.9220015    -2.627614  0.032030661   -3.9220015    1.2943875   396900 
 1446000   0.86165102   -3.9217016   -3.9217016   -2.6292283  0.024906131   -3.9217016    1.2924733   396900 
 1447000   0.86244184   -3.9213598   -3.9213598   -2.6277003  0.033359606   -3.9213598    1.2936595   396900 
 1448000   0.86189347   -3.9221786   -3.9221786   -2.6293416  0.029829501   -3.9221786    1.2928369   396900 
 1449000   0.86143208   -3.9227704   -3.9227704   -2.6306255  0.032384658   -3.9227704    1.2921449   396900 
 1450000   0.86264968   -3.9234334   -3.9234334   -2.6294621  0.025246896   -3.9234334    1.2939713   396900 
 1451000   0.86227954   -3.9244899   -3.9244899   -2.6310738  0.029924815   -3.9244899     1.293416   396900 
 1452000   0.86266513   -3.9254456   -3.9254456   -2.6314512  0.029018919   -3.9254456    1.2939944   396900 
 1453000   0.86071347   -3.9248037   -3.9248037   -2.6337368  0.026801705   -3.9248037     1.291067   396900 
 1454000   0.86186492   -3.9270931   -3.9270931    -2.634299  0.027708434   -3.9270931    1.2927941   396900 
 1455000   0.86321454   -3.9289466   -3.9289466   -2.6341281  0.027945037   -3.9289466    1.2948185   396900 
 1456000   0.86076865   -3.9284825   -3.9284825   -2.6373328  0.030504853   -3.9284825    1.2911497   396900 
 1457000   0.86317617   -3.9322606   -3.9322606   -2.6374996  0.027428938   -3.9322606     1.294761   396900 
 1458000    0.8611974   -3.9300075   -3.9300075   -2.6382146  0.030447325   -3.9300075    1.2917929   396900 
 1459000   0.86117573   -3.9321674   -3.9321674   -2.6404071  0.030070667   -3.9321674    1.2917603   396900 
 1460000   0.86101813   -3.9334218   -3.9334218   -2.6418978  0.022735129   -3.9334218    1.2915239   396900 
 1461000   0.85994505    -3.932824    -3.932824   -2.6429097  0.026810402    -3.932824    1.2899143   396900 
 1462000   0.85926421    -3.932273    -3.932273     -2.64338  0.029103989    -3.932273    1.2888931   396900 
 1463000   0.85934019   -3.9321875   -3.9321875   -2.6431805  0.026692451   -3.9321875     1.289007   396900 
 1464000   0.85837401   -3.9331534   -3.9331534   -2.6455956  0.027930315   -3.9331534    1.2875578   396900 
 1465000   0.85920444   -3.9348934   -3.9348934     -2.64609  0.026462578   -3.9348934    1.2888034   396900 
 1466000   0.85973575   -3.9343924   -3.9343924   -2.6447921  0.029877847   -3.9343924    1.2896004   396900 
 1467000   0.85907653   -3.9347027   -3.9347027   -2.6460912  0.027305166   -3.9347027    1.2886115   396900 
 1468000   0.85849416   -3.9347422   -3.9347422   -2.6470042  0.028746375   -3.9347422     1.287738   396900 
 1469000   0.85998355   -3.9358647   -3.9358647   -2.6458926  0.034546851   -3.9358647    1.2899721   396900 
 1470000   0.86054324   -3.9382068   -3.9382068   -2.6473952  0.032857052   -3.9382068    1.2908116   396900 
 1471000   0.85912635   -3.9375943   -3.9375943    -2.648908   0.02701825   -3.9375943    1.2886863   396900 
 1472000   0.85975994   -3.9399502   -3.9399502   -2.6503135  0.023228614   -3.9399502    1.2896367   396900 
 1473000   0.85781282   -3.9372282   -3.9372282   -2.6505122  0.030214844   -3.9372282     1.286716   396900 
 1474000   0.85668968   -3.9376862   -3.9376862   -2.6526549   0.02302092   -3.9376862    1.2850313   396900 
 1475000   0.85932361   -3.9396565   -3.9396565   -2.6506743  0.028091987   -3.9396565    1.2889822   396900 
 1476000   0.85856755   -3.9408867   -3.9408867   -2.6530387  0.024436042   -3.9408867    1.2878481   396900 
 1477000   0.85976417   -3.9430871   -3.9430871   -2.6534441  0.024934073   -3.9430871     1.289643   396900 
 1478000   0.86042018   -3.9432871   -3.9432871     -2.65266  0.030015661   -3.9432871     1.290627   396900 
 1479000   0.85857752   -3.9431889   -3.9431889   -2.6553258  0.029034147   -3.9431889     1.287863   396900 
 1480000   0.85810869   -3.9430795   -3.9430795   -2.6559197  0.025636657   -3.9430795    1.2871598   396900 
 1481000   0.85852455   -3.9448633   -3.9448633   -2.6570797  0.029463303   -3.9448633    1.2877836   396900 
 1482000   0.85972489   -3.9479335   -3.9479335   -2.6583494  0.028362961   -3.9479335    1.2895841   396900 
 1483000   0.85820716   -3.9453044   -3.9453044   -2.6579969  0.027632234   -3.9453044    1.2873075   396900 
 1484000    0.8562383   -3.9444892   -3.9444892    -2.660135  0.026828819   -3.9444892    1.2843542   396900 
 1485000   0.85885357   -3.9481365   -3.9481365   -2.6598594   0.02189391   -3.9481365    1.2882771   396900 
 1486000   0.85807668   -3.9464808   -3.9464808    -2.659369  0.029611537   -3.9464808    1.2871118   396900 
 1487000   0.85890392   -3.9485827   -3.9485827   -2.6602301  0.024845392   -3.9485827    1.2883526   396900 
 1488000   0.85556022   -3.9469664   -3.9469664   -2.6636293  0.025728799   -3.9469664    1.2833371   396900 
 1489000    0.8571571   -3.9466299   -3.9466299   -2.6608975  0.032782275   -3.9466299    1.2857324   396900 
 1490000   0.85789316   -3.9475222   -3.9475222   -2.6606856  0.028453604   -3.9475222    1.2868365   396900 
 1491000   0.85840479   -3.9500719   -3.9500719    -2.662468  0.023278622   -3.9500719    1.2876039   396900 
 1492000   0.85839203   -3.9486716   -3.9486716   -2.6610868  0.028757321   -3.9486716    1.2875848   396900 
 1493000   0.85781137   -3.9483058   -3.9483058    -2.661592  0.029662011   -3.9483058    1.2867138   396900 
 1494000   0.85738457   -3.9478865   -3.9478865   -2.6618129  0.023842419   -3.9478865    1.2860736   396900 
 1495000   0.85681691   -3.9480203   -3.9480203   -2.6627981  0.028902289   -3.9480203    1.2852221   396900 
 1496000   0.85672026    -3.950081    -3.950081   -2.6650038  0.028471732    -3.950081    1.2850772   396900 
 1497000   0.85773352   -3.9520231   -3.9520231   -2.6654261  0.027474966   -3.9520231     1.286597   396900 
 1498000   0.85595605   -3.9493714   -3.9493714   -2.6654406    0.0277344   -3.9493714    1.2839308   396900 
 1499000   0.85744433   -3.9526459   -3.9526459   -2.6664826  0.023778815   -3.9526459    1.2861633   396900 
 1500000   0.85635307   -3.9524228   -3.9524228   -2.6678964   0.02717638   -3.9524228    1.2845264   396900 
 1501000   0.85721235   -3.9533465   -3.9533465   -2.6675312  0.025668543   -3.9533465    1.2858153   396900 
 1502000   0.85670053   -3.9535227   -3.9535227   -2.6684751  0.026411002   -3.9535227    1.2850476   396900 
 1503000   0.85679775   -3.9534488   -3.9534488   -2.6682554  0.029499271   -3.9534488    1.2851934   396900 
 1504000   0.85600051   -3.9512059   -3.9512059   -2.6672083  0.027878004   -3.9512059    1.2839975   396900 
 1505000   0.85843728   -3.9541068   -3.9541068   -2.6664541  0.034182748   -3.9541068    1.2876527   396900 
 1506000   0.85702552   -3.9518458   -3.9518458   -2.6663108  0.030366115   -3.9518458     1.285535   396900 
 1507000   0.85760004   -3.9529831   -3.9529831   -2.6665863  0.025948428   -3.9529831    1.2863968   396900 
 1508000   0.85375278    -3.950266    -3.950266   -2.6696401  0.026209753    -3.950266     1.280626   396900 
 1509000   0.85569948   -3.9524366   -3.9524366   -2.6688906  0.022690123   -3.9524366     1.283546   396900 
 1510000    0.8544394   -3.9511889   -3.9511889    -2.669533  0.022036307   -3.9511889    1.2816559   396900 
 1511000   0.85491288   -3.9522127   -3.9522127   -2.6698466  0.027433422   -3.9522127    1.2823661   396900 
 1512000    0.8556133   -3.9535312   -3.9535312   -2.6701145  0.023432933   -3.9535312    1.2834167   396900 
 1513000   0.85694729   -3.9563336   -3.9563336   -2.6709159  0.021501542   -3.9563336    1.2854177   396900 
 1514000    0.8570388   -3.9569564   -3.9569564   -2.6714014  0.026141039   -3.9569564     1.285555   396900 
 1515000    0.8560643   -3.9553626   -3.9553626   -2.6712694  0.026062176   -3.9553626    1.2840932   396900 
 1516000   0.85461995   -3.9578655   -3.9578655   -2.6759388  0.020044139   -3.9578655    1.2819267   396900 
 1517000   0.85524426    -3.958144    -3.958144   -2.6752808  0.031419333    -3.958144    1.2828632   396900 
 1518000   0.85738993   -3.9620078   -3.9620078   -2.6759261   0.02873802   -3.9620078    1.2860817   396900 
 1519000   0.85662378   -3.9612936   -3.9612936   -2.6763612  0.028842977   -3.9612936    1.2849324   396900 
 1520000   0.85712816   -3.9624977   -3.9624977   -2.6768087  0.028409073   -3.9624977     1.285689   396900 
 1521000   0.85409583   -3.9611044   -3.9611044   -2.6799639  0.028674652   -3.9611044    1.2811405   396900 
 1522000   0.85410033   -3.9630893   -3.9630893    -2.681942  0.026192212   -3.9630893    1.2811473   396900 
 1523000   0.85408284   -3.9649728   -3.9649728   -2.6838518  0.026195056   -3.9649728     1.281121   396900 
 1524000   0.85405437    -3.964214    -3.964214   -2.6831357  0.026316297    -3.964214    1.2810783   396900 
 1525000   0.85473124   -3.9650877   -3.9650877   -2.6829941   0.02984517   -3.9650877    1.2820936   396900 
 1526000    0.8542558   -3.9674814   -3.9674814   -2.6861009  0.027494278   -3.9674814    1.2813805   396900 
 1527000   0.85461191   -3.9685024   -3.9685024   -2.6865878  0.020889979   -3.9685024    1.2819146   396900 
 1528000   0.85296314   -3.9682468   -3.9682468   -2.6888053  0.022669578   -3.9682468    1.2794415   396900 
 1529000   0.85421239     -3.96781     -3.96781   -2.6864946  0.020366817     -3.96781    1.2813154   396900 
 1530000   0.85309289   -3.9679453   -3.9679453   -2.6883092  0.024703317   -3.9679453    1.2796361   396900 
 1531000     0.852861   -3.9687769   -3.9687769   -2.6894886  0.027031453   -3.9687769    1.2792883   396900 
 1532000   0.85396687   -3.9728319   -3.9728319   -2.6918848  0.023111758   -3.9728319    1.2809471   396900 
 1533000   0.85510712   -3.9745194   -3.9745194   -2.6918619  0.031402452   -3.9745194    1.2826575   396900 
 1534000   0.85336109   -3.9730441   -3.9730441   -2.6930057  0.029282037   -3.9730441    1.2800384   396900 
 1535000   0.85513041   -3.9750118   -3.9750118   -2.6923194  0.022162242   -3.9750118    1.2826924   396900 
 1536000   0.85143078   -3.9758653   -3.9758653   -2.6987224  0.020148527   -3.9758653     1.277143   396900 
 1537000   0.85304707   -3.9743449   -3.9743449   -2.6947775  0.026281279   -3.9743449    1.2795674   396900 
 1538000   0.85349739   -3.9757913   -3.9757913   -2.6955485  0.022007871   -3.9757913    1.2802429   396900 
 1539000   0.85089607    -3.972495    -3.972495   -2.6961541  0.027306569    -3.972495    1.2763409   396900 
 1540000   0.85278162   -3.9745836   -3.9745836   -2.6954144  0.025861607   -3.9745836    1.2791692   396900 
 1541000   0.85237372   -3.9754359   -3.9754359   -2.6968786  0.028323712   -3.9754359    1.2785574   396900 
 1542000   0.85245556    -3.977801    -3.977801   -2.6991209  0.024871891    -3.977801    1.2786801   396900 
 1543000   0.85305155   -3.9773714   -3.9773714   -2.6977973  0.029556224   -3.9773714    1.2795741   396900 
 1544000   0.85229269   -3.9776642   -3.9776642   -2.6992284  0.024351292   -3.9776642    1.2784358   396900 
 1545000   0.85033915   -3.9754996   -3.9754996   -2.6999941  0.023942281   -3.9754996    1.2755055   396900 
 1546000   0.85038599   -3.9757711   -3.9757711   -2.7001953  0.017256023   -3.9757711    1.2755758   396900 
 1547000   0.85048916   -3.9764434   -3.9764434   -2.7007128  0.026516393   -3.9764434    1.2757305   396900 
 1548000   0.85173438   -3.9782326   -3.9782326   -2.7006343   0.02198714   -3.9782326    1.2775983   396900 
 1549000   0.85193927   -3.9784587   -3.9784587    -2.700553  0.027429458   -3.9784587    1.2779057   396900 
 1550000   0.85000559   -3.9795313   -3.9795313   -2.7045262  0.022221113   -3.9795313    1.2750052   396900 
 1551000   0.85126802    -3.980643    -3.980643   -2.7037442  0.028966203    -3.980643    1.2768988   396900 
 1552000    0.8498059   -3.9820048   -3.9820048   -2.7072992  0.022048893   -3.9820048    1.2747056   396900 
 1553000    0.8507923   -3.9829637   -3.9829637   -2.7067784   0.02100703   -3.9829637    1.2761852   396900 
 1554000   0.84972811   -3.9819205   -3.9819205   -2.7073316  0.023470123   -3.9819205     1.274589   396900 
 1555000    0.8484268   -3.9811656   -3.9811656   -2.7085287  0.026084643   -3.9811656     1.272637   396900 
 1556000   0.85024041   -3.9828281   -3.9828281   -2.7074707  0.023493058   -3.9828281    1.2753574   396900 
 1557000    0.8497078   -3.9822103   -3.9822103   -2.7076518  0.024135346   -3.9822103    1.2745585   396900 
 1558000   0.85165322    -3.983521    -3.983521   -2.7060443  0.024337346    -3.983521    1.2774766   396900 
 1559000   0.85090083   -3.9835808   -3.9835808   -2.7072328  0.024051874   -3.9835808     1.276348   396900 
 1560000    0.8500538   -3.9827671   -3.9827671   -2.7076896  0.024158395   -3.9827671    1.2750775   396900 
 1561000   0.85115602   -3.9851091   -3.9851091   -2.7083783  0.025500913   -3.9851091    1.2767308   396900 
 1562000   0.85025539   -3.9843258   -3.9843258   -2.7089459  0.026539088   -3.9843258    1.2753799   396900 
 1563000   0.84968214   -3.9840106   -3.9840106   -2.7094906  0.025688148   -3.9840106      1.27452   396900 
 1564000   0.84933223   -3.9821957   -3.9821957   -2.7082006  0.024287928   -3.9821957    1.2739951   396900 
 1565000   0.85149763   -3.9879683   -3.9879683   -2.7107251  0.019575001   -3.9879683    1.2772432   396900 
 1566000   0.84998589   -3.9853551   -3.9853551   -2.7103795  0.026261879   -3.9853551    1.2749756   396900 
 1567000   0.84964029   -3.9867379   -3.9867379   -2.7122807  0.019676501   -3.9867379    1.2744572   396900 
 1568000   0.84955635   -3.9867228   -3.9867228   -2.7123915  0.022279031   -3.9867228    1.2743313   396900 
 1569000   0.85046264   -3.9865695   -3.9865695   -2.7108787  0.025627176   -3.9865695    1.2756907   396900 
 1570000   0.85054785   -3.9883099   -3.9883099   -2.7124914  0.026336687   -3.9883099    1.2758186   396900 
 1571000   0.85129492   -3.9895883   -3.9895883   -2.7126492  0.023616771   -3.9895883    1.2769392   396900 
 1572000   0.85035595   -3.9872953   -3.9872953   -2.7117646  0.025343605   -3.9872953    1.2755307   396900 
 1573000    0.8503911   -3.9883177   -3.9883177   -2.7127343  0.024706569   -3.9883177    1.2755834   396900 
 1574000   0.84943992    -3.990029    -3.990029   -2.7158723  0.020265329    -3.990029    1.2741567   396900 
 1575000   0.84914277   -3.9875204   -3.9875204   -2.7138094  0.024515969   -3.9875204    1.2737109   396900 
 1576000   0.84965066   -3.9889436   -3.9889436   -2.7144708  0.023689942   -3.9889436    1.2744728   396900 
 1577000   0.84828576   -3.9880908   -3.9880908   -2.7156653  0.018681879   -3.9880908    1.2724254   396900 
 1578000   0.84898362   -3.9890138   -3.9890138   -2.7155416  0.024089531   -3.9890138    1.2734722   396900 
 1579000    0.8490114   -3.9890444   -3.9890444   -2.7155305  0.023540678   -3.9890444    1.2735139   396900 
 1580000   0.85007458   -3.9893395   -3.9893395   -2.7142308  0.025884213   -3.9893395    1.2751087   396900 
 1581000   0.84763134   -3.9884569   -3.9884569   -2.7170131   0.02477088   -3.9884569    1.2714438   396900 
 1582000   0.84824227   -3.9898578   -3.9898578   -2.7174976  0.019775082   -3.9898578    1.2723602   396900 
 1583000   0.84755817   -3.9886368   -3.9886368   -2.7173028  0.024553281   -3.9886368    1.2713341   396900 
 1584000   0.84748527   -3.9906684   -3.9906684   -2.7194437  0.019291473   -3.9906684    1.2712247   396900 
 1585000    0.8470892   -3.9900072   -3.9900072   -2.7193766  0.017319593   -3.9900072    1.2706306   396900 
 1586000   0.84696593   -3.9898916   -3.9898916   -2.7194459  0.021717907   -3.9898916    1.2704457   396900 
 1587000   0.84830505   -3.9948414   -3.9948414    -2.722387  0.012491099   -3.9948414    1.2724544   396900 
 1588000   0.84759297   -3.9943079   -3.9943079   -2.7229216  0.015802314   -3.9943079    1.2713863   396900 
 1589000   0.84767262   -3.9936447   -3.9936447    -2.722139  0.024857153   -3.9936447    1.2715057   396900 
 1590000   0.84645524   -3.9923167   -3.9923167    -2.722637  0.020389694   -3.9923167    1.2696797   396900 
 1591000   0.84907287   -3.9960588   -3.9960588   -2.7224527  0.017106671   -3.9960588    1.2736061   396900 
 1592000   0.84873168   -3.9975431   -3.9975431   -2.7244488  0.014286592   -3.9975431    1.2730943   396900 
 1593000   0.85057475     -3.99797     -3.99797   -2.7221111  0.018848379     -3.99797    1.2758589   396900 
 1594000   0.85362514   -4.0009212   -4.0009212   -2.7204867  0.022986977   -4.0009212    1.2804345   396900 
 1595000   0.85418593   -4.0014547   -4.0014547    -2.720179  0.023715663   -4.0014547    1.2812757   396900 
 1596000   0.85316607   -4.0033025   -4.0033025   -2.7235567  0.021820228   -4.0033025    1.2797459   396900 
 1597000   0.85473959   -4.0081275   -4.0081275   -2.7260213  0.021281065   -4.0081275    1.2821062   396900 
 1598000   0.85700518   -4.0099785   -4.0099785   -2.7244739  0.026402956   -4.0099785    1.2855045   396900 
 1599000   0.85966142   -4.0145225   -4.0145225   -2.7250337  0.030013774   -4.0145225    1.2894889   396900 
 1600000   0.86114508   -4.0190135   -4.0190135   -2.7272991  0.033748936   -4.0190135    1.2917144   396900 
 1601000   0.85980348   -4.0229832   -4.0229832   -2.7332813  0.037572885   -4.0229832     1.289702   396900 
 1602000   0.85866935   -4.0281807   -4.0281807   -2.7401799  0.035381146   -4.0281807    1.2880008   396900 
 1603000   0.85701279   -4.0295335   -4.0295335   -2.7440175  0.033371522   -4.0295335     1.285516   396900 
 1604000   0.85634927    -4.029138    -4.029138   -2.7446173  0.034563517    -4.029138    1.2845207   396900 
 1605000   0.85520894   -4.0315428   -4.0315428   -2.7487326  0.026686261   -4.0315428    1.2828102   396900 
 1606000   0.85601317   -4.0335712   -4.0335712   -2.7495546  0.029228068   -4.0335712    1.2840165   396900 
 1607000   0.85375413   -4.0303438   -4.0303438   -2.7497159  0.034148032   -4.0303438     1.280628   396900 
 1608000   0.85387497   -4.0324545   -4.0324545   -2.7516453  0.029982918   -4.0324545    1.2808092   396900 
 1609000    0.8520216   -4.0317349   -4.0317349   -2.7537057  0.025269975   -4.0317349    1.2780292   396900 
 1610000   0.85259342   -4.0326786   -4.0326786   -2.7537917  0.025375946   -4.0326786    1.2788869   396900 
 1611000   0.85033605   -4.0319101   -4.0319101   -2.7564092   0.02580573   -4.0319101    1.2755009   396900 
 1612000   0.85231996   -4.0344067   -4.0344067   -2.7559299  0.022610351   -4.0344067    1.2784767   396900 
 1613000   0.85337938   -4.0348441   -4.0348441   -2.7547783  0.030494673   -4.0348441    1.2800659   396900 
 1614000    0.8533143    -4.037316    -4.037316   -2.7573477  0.023064758    -4.037316    1.2799682   396900 
 1615000   0.85225367   -4.0362499   -4.0362499   -2.7578726  0.033048338   -4.0362499    1.2783773   396900 
 1616000   0.85223956   -4.0391703   -4.0391703   -2.7608142  0.028371426   -4.0391703    1.2783561   396900 
 1617000   0.85022163   -4.0399507   -4.0399507   -2.7646214  0.026570205   -4.0399507    1.2753292   396900 
 1618000   0.85107993   -4.0433886   -4.0433886   -2.7667719  0.026049057   -4.0433886    1.2766167   396900 
 1619000   0.85142613   -4.0430587   -4.0430587   -2.7659227  0.030130173   -4.0430587     1.277136   396900 
 1620000   0.85101055   -4.0446461   -4.0446461   -2.7681335  0.028440754   -4.0446461    1.2765126   396900 
 1621000   0.85256799   -4.0442464   -4.0442464   -2.7653976  0.030958382   -4.0442464    1.2788488   396900 
 1622000   0.85139668   -4.0435111   -4.0435111   -2.7664193   0.03235294   -4.0435111    1.2770918   396900 
 1623000   0.85219558   -4.0454291   -4.0454291    -2.767139  0.027764167   -4.0454291    1.2782902   396900 
 1624000   0.85014818   -4.0454085   -4.0454085   -2.7701895   0.02558587   -4.0454085    1.2752191   396900 
 1625000   0.84894805   -4.0440504   -4.0440504   -2.7706316   0.02327695   -4.0440504    1.2734189   396900 
 1626000    0.8487774   -4.0434121   -4.0434121   -2.7702492  0.025233982   -4.0434121    1.2731629   396900 
 1627000   0.84818825   -4.0441602   -4.0441602   -2.7718811  0.024168452   -4.0441602    1.2722792   396900 
 1628000   0.84893825   -4.0476405   -4.0476405   -2.7742363  0.020271469   -4.0476405    1.2734042   396900 
 1629000   0.84877498    -4.044734    -4.044734   -2.7715747  0.029494644    -4.044734    1.2731593   396900 
 1630000   0.84879964   -4.0484574   -4.0484574   -2.7752612  0.029810882   -4.0484574    1.2731963   396900 
 1631000   0.85023174   -4.0504969   -4.0504969   -2.7751525  0.028181785   -4.0504969    1.2753444   396900 
 1632000   0.84961199   -4.0501309   -4.0501309   -2.7757161  0.030273686   -4.0501309    1.2744148   396900 
 1633000   0.84903743   -4.0509565   -4.0509565   -2.7774035  0.031063284   -4.0509565    1.2735529   396900 
 1634000   0.84825369   -4.0504725   -4.0504725   -2.7780952  0.033890399   -4.0504725    1.2723773   396900 
 1635000   0.84903537   -4.0508049   -4.0508049   -2.7772551  0.027922359   -4.0508049    1.2735498   396900 
 1636000   0.84795429   -4.0523361   -4.0523361   -2.7804079  0.026817756   -4.0523361    1.2719282   396900 
 1637000   0.84707719   -4.0524404   -4.0524404   -2.7818278  0.028594969   -4.0524404    1.2706126   396900 
 1638000   0.84678988   -4.0543872   -4.0543872   -2.7842056  0.031482782   -4.0543872    1.2701816   396900 
 1639000   0.84642488   -4.0573963   -4.0573963   -2.7877622   0.02619953   -4.0573963    1.2696341   396900 
 1640000   0.84736124   -4.0575579   -4.0575579   -2.7865193  0.030565825   -4.0575579    1.2710387   396900 
 1641000   0.84842287   -4.0585233   -4.0585233   -2.7858922  0.029534081   -4.0585233    1.2726311   396900 
 1642000   0.84941245   -4.0596394   -4.0596394    -2.785524  0.033576483   -4.0596394    1.2741155   396900 
 1643000   0.84725508   -4.0597698   -4.0597698   -2.7888903  0.027458377   -4.0597698    1.2708794   396900 
 1644000   0.84688708   -4.0626433   -4.0626433   -2.7923159  0.024285193   -4.0626433    1.2703274   396900 
 1645000   0.84453561   -4.0601139   -4.0601139   -2.7933136  0.023843474   -4.0601139    1.2668002   396900 
 1646000   0.84768301   -4.0641988   -4.0641988   -2.7926775  0.028437714   -4.0641988    1.2715213   396900 
 1647000   0.84733852   -4.0634956   -4.0634956   -2.7924911  0.029001895   -4.0634956    1.2710046   396900 
 1648000    0.8448634   -4.0627432   -4.0627432   -2.7954513  0.030669254   -4.0627432    1.2672919   396900 
 1649000   0.84526394   -4.0652682   -4.0652682   -2.7973755  0.027313304   -4.0652682    1.2678927   396900 
 1650000   0.84430738   -4.0646945   -4.0646945   -2.7982366  0.027710065   -4.0646945    1.2664579   396900 
 1651000    0.8447529   -4.0654594   -4.0654594   -2.7983332  0.032393719   -4.0654594    1.2671262   396900 
 1652000   0.84510385   -4.0682711   -4.0682711   -2.8006186  0.028101803   -4.0682711    1.2676526   396900 
 1653000   0.84657361    -4.072907    -4.072907   -2.8030497  0.026502712    -4.072907    1.2698572   396900 
 1654000   0.84479266   -4.0722493   -4.0722493   -2.8050635  0.025748111   -4.0722493    1.2671858   396900 
 1655000   0.84459497   -4.0732077   -4.0732077   -2.8063184  0.027944619   -4.0732077    1.2668893   396900 
 1656000   0.84612156   -4.0772658   -4.0772658   -2.8080867  0.025539996   -4.0772658    1.2691791   396900 
 1657000   0.84624563   -4.0774746   -4.0774746   -2.8081093  0.031186624   -4.0774746    1.2693652   396900 
 1658000   0.84570327   -4.0779789   -4.0779789   -2.8094272  0.030341969   -4.0779789    1.2685517   396900 
 1659000   0.84392891   -4.0801271   -4.0801271   -2.8142369  0.026784287   -4.0801271    1.2658902   396900 
 1660000   0.84223186   -4.0774683   -4.0774683   -2.8141237  0.029580755   -4.0774683    1.2633446   396900 
 1661000   0.84335313   -4.0801891   -4.0801891   -2.8151626  0.027165086   -4.0801891    1.2650265   396900 
 1662000   0.84384373     -4.08252     -4.08252   -2.8167575  0.027446721     -4.08252    1.2657624   396900 
 1663000   0.84360502   -4.0807825   -4.0807825   -2.8153782  0.032985279   -4.0807825    1.2654043   396900 
 1664000    0.8429753   -4.0812246   -4.0812246   -2.8167648  0.029483698   -4.0812246    1.2644598   396900 
 1665000   0.84261185   -4.0800621   -4.0800621   -2.8161475  0.032742002   -4.0800621    1.2639146   396900 
 1666000   0.84267396   -4.0832535   -4.0832535   -2.8192457  0.028823149   -4.0832535    1.2640078   396900 
 1667000   0.83988472    -4.079427    -4.079427   -2.8196031  0.027887138    -4.079427    1.2598239   396900 
 1668000   0.84213202   -4.0829484   -4.0829484   -2.8197536  0.022386349   -4.0829484    1.2631948   396900 
 1669000   0.84324968   -4.0832399   -4.0832399   -2.8183686  0.029161354   -4.0832399    1.2648713   396900 
 1670000   0.84292067   -4.0834639   -4.0834639   -2.8190861  0.027311687   -4.0834639    1.2643778   396900 
 1671000   0.84237911   -4.0827684   -4.0827684   -2.8192029  0.029496239   -4.0827684    1.2635655   396900 
 1672000   0.84249254    -4.084453    -4.084453   -2.8207174  0.026913146    -4.084453    1.2637356   396900 
 1673000   0.84320899   -4.0853674   -4.0853674    -2.820557  0.027228863   -4.0853674    1.2648103   396900 
 1674000   0.84120762   -4.0843546   -4.0843546   -2.8225464    0.0263101   -4.0843546    1.2618082   396900 
 1675000   0.84170457   -4.0867688   -4.0867688   -2.8242151   0.02878759   -4.0867688    1.2625537   396900 
 1676000   0.84179343   -4.0858047   -4.0858047   -2.8231177  0.033018695   -4.0858047     1.262687   396900 
 1677000   0.84142148   -4.0865888   -4.0865888   -2.8244598  0.026990111   -4.0865888     1.262129   396900 
 1678000   0.83938937    -4.086942    -4.086942   -2.8278611  0.026118088    -4.086942    1.2590809   396900 
 1679000   0.84111027   -4.0881422   -4.0881422   -2.8264799  0.019431757   -4.0881422    1.2616622   396900 
 1680000   0.84059088   -4.0876432   -4.0876432   -2.8267601  0.026923922   -4.0876432    1.2608831   396900 
 1681000   0.83981443   -4.0868333   -4.0868333   -2.8271148  0.028293275   -4.0868333    1.2597185   396900 
 1682000   0.84026788   -4.0897417   -4.0897417    -2.829343  0.025685922   -4.0897417    1.2603986   396900 
 1683000    0.8392915   -4.0889018   -4.0889018   -2.8299677  0.022794339   -4.0889018    1.2589341   396900 
 1684000   0.83845353   -4.0890841   -4.0890841    -2.831407  0.028936433   -4.0890841    1.2576771   396900 
 1685000   0.84038126   -4.0900357   -4.0900357    -2.829467  0.033393442   -4.0900357    1.2605687   396900 
 1686000   0.84030265   -4.0931896   -4.0931896   -2.8327388  0.029063216   -4.0931896    1.2604508   396900 
 1687000   0.84042897   -4.0949989   -4.0949989   -2.8343586  0.027210749   -4.0949989    1.2606403   396900 
 1688000   0.84061288   -4.0945759   -4.0945759   -2.8336597  0.028270649   -4.0945759    1.2609161   396900 
 1689000   0.83898738   -4.0940145   -4.0940145   -2.8355366  0.028718187   -4.0940145    1.2584779   396900 
 1690000   0.83909981    -4.094475    -4.094475   -2.8358284  0.027099042    -4.094475    1.2586465   396900 
 1691000   0.83815359   -4.0938613   -4.0938613   -2.8366341  0.027424723   -4.0938613    1.2572272   396900 
 1692000   0.83953104   -4.0954887   -4.0954887   -2.8361954  0.023799727   -4.0954887    1.2592934   396900 
 1693000   0.83937566   -4.0958916   -4.0958916   -2.8368313  0.027492563   -4.0958916    1.2590603   396900 
 1694000   0.83757075   -4.0936961   -4.0936961   -2.8373432  0.026226853   -4.0936961     1.256353   396900 
 1695000   0.83956956   -4.0953929   -4.0953929   -2.8360417  0.029845194   -4.0953929    1.2593512   396900 
 1696000   0.83908338   -4.0964901   -4.0964901   -2.8378682  0.021847033   -4.0964901    1.2586219   396900 
 1697000   0.84010669   -4.0967806   -4.0967806   -2.8366238   0.02390575   -4.0967806    1.2601569   396900 
 1698000   0.84138905   -4.0988044   -4.0988044    -2.836724   0.02559033   -4.0988044    1.2620804   396900 
 1699000    0.8393689   -4.0974083   -4.0974083   -2.8383581  0.026741215   -4.0974083    1.2590502   396900 
 1700000   0.83832579   -4.0981407   -4.0981407   -2.8406551  0.026069119   -4.0981407    1.2574855   396900 
 1701000   0.83821368   -4.0987122   -4.0987122   -2.8413949  0.027637623   -4.0987122    1.2573174   396900 
 1702000    0.8383824   -4.0996351   -4.0996351   -2.8420646  0.027843854   -4.0996351    1.2575704   396900 
 1703000   0.83724597   -4.0992316   -4.0992316   -2.8433658  0.025196442   -4.0992316    1.2558658   396900 
 1704000   0.83755933   -4.1006663   -4.1006663   -2.8443305   0.02665832   -4.1006663    1.2563358   396900 
 1705000   0.83833189    -4.102682    -4.102682   -2.8451874  0.023101309    -4.102682    1.2574947   396900 
 1706000   0.83737922    -4.101585    -4.101585   -2.8455193  0.023866098    -4.101585    1.2560657   396900 
 1707000   0.83893202   -4.1038246   -4.1038246   -2.8454298  0.023354571   -4.1038246    1.2583949   396900 
 1708000   0.83913683   -4.1045452   -4.1045452   -2.8458432   0.02760165   -4.1045452    1.2587021   396900 
 1709000   0.83847389   -4.1072482   -4.1072482   -2.8495406   0.02594176   -4.1072482    1.2577077   396900 
 1710000   0.83762551   -4.1075932   -4.1075932   -2.8511581  0.031040738   -4.1075932    1.2564351   396900 
 1711000   0.83707022   -4.1065961   -4.1065961   -2.8509939  0.027830718   -4.1065961    1.2556022   396900 
 1712000   0.83756317   -4.1070701   -4.1070701   -2.8507285  0.029870344   -4.1070701    1.2563416   396900 
 1713000   0.83917801   -4.1098013   -4.1098013   -2.8510375  0.026924071   -4.1098013    1.2587638   396900 
 1714000     0.838441    -4.106703    -4.106703   -2.8490446  0.034367371    -4.106703    1.2576583   396900 
 1715000   0.83764404   -4.1098183   -4.1098183   -2.8533554  0.028045618   -4.1098183    1.2564629   396900 
 1716000   0.83623313   -4.1097661   -4.1097661   -2.8554196  0.025715108   -4.1097661    1.2543465   396900 
 1717000   0.83712679    -4.112129    -4.112129    -2.856442  0.025146586    -4.112129     1.255687   396900 
 1718000   0.83735612   -4.1116069   -4.1116069   -2.8555759  0.026121274   -4.1116069     1.256031   396900 
 1719000   0.83556116   -4.1105155   -4.1105155    -2.857177  0.021728318   -4.1105155    1.2533386   396900 
 1720000   0.83536157   -4.1117419   -4.1117419   -2.8587027  0.025962664   -4.1117419    1.2530392   396900 
 1721000   0.83611731   -4.1114757   -4.1114757   -2.8573029  0.028489825   -4.1114757    1.2541728   396900 
 1722000   0.83529891    -4.112737    -4.112737   -2.8597918  0.028373728    -4.112737    1.2529452   396900 
 1723000   0.83678777   -4.1166084   -4.1166084   -2.8614299  0.028069094   -4.1166084    1.2551785   396900 
 1724000   0.83745404   -4.1174013   -4.1174013   -2.8612234  0.031800168   -4.1174013    1.2561779   396900 
 1725000    0.8371575   -4.1173357   -4.1173357   -2.8616026  0.030491182   -4.1173357    1.2557331   396900 
 1726000   0.83604002   -4.1183283   -4.1183283   -2.8642715  0.026173651   -4.1183283    1.2540569   396900 
 1727000   0.83659014   -4.1169456   -4.1169456   -2.8620635  0.025483753   -4.1169456    1.2548821   396900 
 1728000   0.83586751   -4.1171682   -4.1171682   -2.8633701  0.027286325   -4.1171682    1.2537981   396900 
 1729000   0.83637509   -4.1193186   -4.1193186   -2.8647592  0.027049026   -4.1193186    1.2545595   396900 
 1730000   0.83455137   -4.1173269   -4.1173269    -2.865503   0.02745357   -4.1173269    1.2518239   396900 
 1731000    0.8332814   -4.1170489   -4.1170489     -2.86713  0.023862737   -4.1170489     1.249919   396900 
 1732000    0.8365024   -4.1201611   -4.1201611   -2.8654107  0.021565472   -4.1201611    1.2547504   396900 
 1733000   0.83633978   -4.1208012   -4.1208012   -2.8662946  0.027620499   -4.1208012    1.2545065   396900 
 1734000    0.8345705   -4.1185533   -4.1185533   -2.8667007  0.029547765   -4.1185533    1.2518526   396900 
 1735000   0.83496429   -4.1217848   -4.1217848   -2.8693415  0.025298429   -4.1217848    1.2524433   396900 
 1736000   0.83520106   -4.1201137   -4.1201137   -2.8673152  0.030075394   -4.1201137    1.2527984   396900 
 1737000   0.83467091   -4.1232209   -4.1232209   -2.8712177  0.022645844   -4.1232209    1.2520032   396900 
 1738000   0.83486197   -4.1233359   -4.1233359    -2.871046  0.024053965   -4.1233359    1.2522898   396900 
 1739000    0.8344048   -4.1230652   -4.1230652   -2.8714611  0.022941897   -4.1230652     1.251604   396900 
 1740000   0.83438522   -4.1233455   -4.1233455   -2.8717709  0.024328923   -4.1233455    1.2515747   396900 
 1741000   0.83502984   -4.1254449   -4.1254449   -2.8729033  0.023177318   -4.1254449    1.2525416   396900 
 1742000   0.83344171   -4.1241166   -4.1241166   -2.8739572  0.033692545   -4.1241166    1.2501594   396900 
 1743000   0.83229219    -4.125339    -4.125339   -2.8769039   0.02806817    -4.125339    1.2484351   396900 
 1744000   0.83417279   -4.1277594   -4.1277594   -2.8765034  0.025768109   -4.1277594     1.251256   396900 
 1745000   0.83331548   -4.1267377   -4.1267377   -2.8767676  0.020970853   -4.1267377    1.2499701   396900 
 1746000   0.83360097   -4.1279254   -4.1279254   -2.8775271  0.026258964   -4.1279254    1.2503983   396900 
 1747000   0.83319252    -4.127415    -4.127415   -2.8776293  0.028677945    -4.127415    1.2497856   396900 
 1748000   0.83322258   -4.1283279   -4.1283279   -2.8784972  0.024764549   -4.1283279    1.2498307   396900 
 1749000   0.83247405   -4.1302703   -4.1302703   -2.8815624   0.02204053   -4.1302703    1.2487079   396900 
 1750000   0.83257058   -4.1294765   -4.1294765   -2.8806238  0.019771182   -4.1294765    1.2488527   396900 
 1751000   0.82917942   -4.1279688   -4.1279688   -2.8842028  0.023012944   -4.1279688     1.243766   396900 
 1752000   0.83083009   -4.1297716   -4.1297716   -2.8835296  0.018418983   -4.1297716     1.246242   396900 
 1753000   0.83185875   -4.1298299   -4.1298299   -2.8820449  0.021902938   -4.1298299     1.247785   396900 
 1754000   0.83151105    -4.128064    -4.128064   -2.8808005  0.026561935    -4.128064    1.2472634   396900 
 1755000   0.83238951   -4.1309355   -4.1309355   -2.8823544  0.023059568   -4.1309355    1.2485811   396900 
 1756000   0.83102982   -4.1319542   -4.1319542   -2.8854126  0.024351215   -4.1319542    1.2465416   396900 
 1757000   0.83211553   -4.1351877   -4.1351877   -2.8870175  0.021411264   -4.1351877    1.2481702   396900 
 1758000   0.83280983   -4.1353412   -4.1353412   -2.8861296  0.025873561   -4.1353412    1.2492116   396900 
 1759000   0.83243816   -4.1384442   -4.1384442   -2.8897901  0.026120811   -4.1384442    1.2486541   396900 
 1760000   0.83198748   -4.1388201   -4.1388201    -2.890842  0.024038297   -4.1388201    1.2479781   396900 
 1761000   0.83233378   -4.1401104   -4.1401104   -2.8916128  0.024283248   -4.1401104    1.2484975   396900 
 1762000   0.83196452   -4.1411344   -4.1411344   -2.8931908  0.023793044   -4.1411344    1.2479436   396900 
 1763000   0.83119253   -4.1415977   -4.1415977   -2.8948121  0.025955449   -4.1415977    1.2467856   396900 
 1764000    0.8295181    -4.139427    -4.139427    -2.895153  0.024738846    -4.139427     1.244274   396900 
 1765000   0.82922643   -4.1391885   -4.1391885    -2.895352  0.028330992   -4.1391885    1.2438365   396900 
 1766000    0.8302208   -4.1431238   -4.1431238   -2.8977957  0.022751091   -4.1431238    1.2453281   396900 
 1767000   0.83183931   -4.1442396   -4.1442396   -2.8964838  0.030954499   -4.1442396    1.2477558   396900 
 1768000   0.83045664   -4.1430038   -4.1430038    -2.897322  0.029891757   -4.1430038    1.2456818   396900 
 1769000   0.83033054   -4.1438503   -4.1438503   -2.8983576  0.026174274   -4.1438503    1.2454927   396900 
 1770000    0.8300773   -4.1436383   -4.1436383   -2.8985255  0.026504497   -4.1436383    1.2451128   396900 
 1771000   0.83029045   -4.1458824   -4.1458824   -2.9004499  0.020614985   -4.1458824    1.2454325   396900 
 1772000   0.82996035   -4.1456991   -4.1456991   -2.9007617  0.024268825   -4.1456991    1.2449374   396900 
 1773000   0.82862477   -4.1453485   -4.1453485   -2.9024145  0.022963597   -4.1453485     1.242934   396900 
 1774000   0.82748896   -4.1454392   -4.1454392   -2.9042089  0.022185513   -4.1454392    1.2412303   396900 
 1775000   0.82884126    -4.145661    -4.145661   -2.9024022  0.022603266    -4.145661    1.2432588   396900 
 1776000   0.82851461   -4.1465926   -4.1465926   -2.9038239  0.020923899   -4.1465926    1.2427688   396900 
 1777000   0.82774811   -4.1460784   -4.1460784   -2.9044593  0.027731418   -4.1460784     1.241619   396900 
 1778000   0.82878513   -4.1499569   -4.1499569   -2.9067824   0.01932463   -4.1499569    1.2431746   396900 
 1779000   0.82819655    -4.148888    -4.148888   -2.9065963  0.024501934    -4.148888    1.2422917   396900 
 1780000   0.82758684   -4.1490791   -4.1490791   -2.9077019  0.026173598   -4.1490791    1.2413771   396900 
 1781000   0.82824739   -4.1515966   -4.1515966   -2.9092286  0.021795582   -4.1515966     1.242368   396900 
 1782000   0.82697473   -4.1519918   -4.1519918   -2.9115328  0.026097428   -4.1519918     1.240459   396900 
 1783000    0.8281801   -4.1564637   -4.1564637   -2.9141967  0.021622651   -4.1564637     1.242267   396900 
 1784000   0.82802986   -4.1551813   -4.1551813   -2.9131397  0.024539443   -4.1551813    1.2420417   396900 
 1785000   0.82913336   -4.1549351   -4.1549351   -2.9112382  0.029659141   -4.1549351    1.2436969   396900 
 1786000   0.82869168   -4.1553032   -4.1553032   -2.9122688  0.021687384   -4.1553032    1.2430344   396900 
 1787000   0.82779955   -4.1557449   -4.1557449   -2.9140487   0.02393747   -4.1557449    1.2416962   396900 
 1788000   0.82718935   -4.1565297   -4.1565297   -2.9157488  0.027438296   -4.1565297    1.2407809   396900 
 1789000   0.83005537   -4.1589075   -4.1589075   -2.9138276  0.024029888   -4.1589075    1.2450799   396900 
 1790000   0.82893534   -4.1586077   -4.1586077   -2.9152078  0.029755061   -4.1586077    1.2433999   396900 
 1791000   0.82877266   -4.1586212   -4.1586212   -2.9154654  0.023703262   -4.1586212    1.2431559   396900 
 1792000   0.82858267   -4.1585072   -4.1585072   -2.9156363  0.021101225   -4.1585072    1.2428709   396900 
 1793000   0.82811934   -4.1582086   -4.1582086   -2.9160328    0.0214516   -4.1582086    1.2421759   396900 
 1794000   0.82793528   -4.1583633   -4.1583633   -2.9164635  0.022515534   -4.1583633    1.2418998   396900 
 1795000   0.82689097   -4.1565166   -4.1565166   -2.9161832  0.023393356   -4.1565166    1.2403333   396900 
 1796000   0.82754708   -4.1581544   -4.1581544   -2.9168369  0.021696146   -4.1581544    1.2413175   396900 
 1797000   0.82579835   -4.1573547   -4.1573547   -2.9186602  0.019941854   -4.1573547    1.2386944   396900 
 1798000    0.8261691   -4.1583181   -4.1583181   -2.9190676  0.021769589   -4.1583181    1.2392505   396900 
 1799000   0.82484558   -4.1560706   -4.1560706   -2.9188053  0.018589669   -4.1560706    1.2372652   396900 
 1800000    0.8259885   -4.1577941   -4.1577941   -2.9188144  0.022191049   -4.1577941    1.2389796   396900 
 1801000   0.82894044   -4.1613399   -4.1613399   -2.9179323  0.025866317   -4.1613399    1.2434075   396900 
 1802000   0.82686221    -4.160732    -4.160732   -2.9204418  0.028545244    -4.160732    1.2402902   396900 
 1803000   0.82762453   -4.1621601   -4.1621601   -2.9207265  0.025946092   -4.1621601    1.2414337   396900 
 1804000   0.82728368   -4.1638382   -4.1638382   -2.9229159  0.027024777   -4.1638382    1.2409224   396900 
 1805000   0.82721509   -4.1634465   -4.1634465    -2.922627  0.024593004   -4.1634465    1.2408195   396900 
 1806000   0.82604007   -4.1644112   -4.1644112   -2.9253542  0.020351788   -4.1644112     1.239057   396900 
 1807000   0.82589506   -4.1660202   -4.1660202   -2.9271807  0.014993644   -4.1660202    1.2388395   396900 
 1808000   0.82476758   -4.1639559   -4.1639559   -2.9268077  0.021203376   -4.1639559    1.2371483   396900 
 1809000   0.82707819   -4.1671409   -4.1671409   -2.9265268  0.020915793   -4.1671409    1.2406142   396900 
 1810000   0.82533957   -4.1654054   -4.1654054   -2.9273991   0.02285267   -4.1654054    1.2380062   396900 
 1811000   0.82605684    -4.165796    -4.165796   -2.9267138  0.026207976    -4.165796    1.2390821   396900 
 1812000   0.82704114   -4.1683811   -4.1683811   -2.9278226  0.023020674   -4.1683811    1.2405586   396900 
 1813000   0.82543658   -4.1667605   -4.1667605   -2.9286088  0.022731166   -4.1667605    1.2381517   396900 
 1814000   0.82480042   -4.1691199   -4.1691199   -2.9319224  0.020385549   -4.1691199    1.2371975   396900 
 1815000   0.82532528   -4.1689942   -4.1689942   -2.9310095  0.022028672   -4.1689942    1.2379848   396900 
 1816000   0.82499022   -4.1681639   -4.1681639   -2.9306817  0.028302048   -4.1681639    1.2374822   396900 
 1817000   0.82425482   -4.1696477   -4.1696477   -2.9332686  0.020971856   -4.1696477    1.2363791   396900 
 1818000   0.82460148   -4.1704411   -4.1704411    -2.933542  0.020992286   -4.1704411    1.2368991   396900 
 1819000   0.82444058   -4.1707554   -4.1707554   -2.9340977  0.021325525   -4.1707554    1.2366578   396900 
 1820000   0.82574704   -4.1730233   -4.1730233   -2.9344058  0.022825102   -4.1730233    1.2386174   396900 
 1821000   0.82401784    -4.173558    -4.173558   -2.9375344  0.024609942    -4.173558    1.2360236   396900 
 1822000   0.82551874   -4.1758154   -4.1758154   -2.9375404  0.019526153   -4.1758154     1.238275   396900 
 1823000   0.82450954   -4.1739943   -4.1739943   -2.9372331  0.023360353   -4.1739943    1.2367612   396900 
 1824000   0.82371226    -4.173822    -4.173822   -2.9382568   0.02264737    -4.173822    1.2355653   396900 
 1825000   0.82254371   -4.1753726   -4.1753726   -2.9415601  0.024127727   -4.1753726    1.2338125   396900 
 1826000   0.82230832   -4.1766377   -4.1766377   -2.9431783  0.017224126   -4.1766377    1.2334594   396900 
 1827000   0.82363219   -4.1791531   -4.1791531   -2.9437079  0.019354295   -4.1791531    1.2354452   396900 
 1828000   0.82275312   -4.1786044   -4.1786044   -2.9444778  0.020024087   -4.1786044    1.2341266   396900 
 1829000     0.822637   -4.1785602   -4.1785602   -2.9446078  0.019714151   -4.1785602    1.2339524   396900 
 1830000   0.82356917   -4.1803003   -4.1803003   -2.9449497  0.024666091   -4.1803003    1.2353506   396900 
 1831000   0.82461017   -4.1791199   -4.1791199   -2.9422077  0.023035157   -4.1791199    1.2369121   396900 
 1832000   0.82450625   -4.1783258   -4.1783258   -2.9415696  0.025764546   -4.1783258    1.2367563   396900 
 1833000   0.82204739   -4.1789403   -4.1789403   -2.9458723  0.023310398   -4.1789403     1.233068   396900 
 1834000   0.82307582   -4.1815488   -4.1815488   -2.9469382  0.020502506   -4.1815488    1.2346106   396900 
 1835000   0.82321533   -4.1792734   -4.1792734   -2.9444535  0.021517396   -4.1792734    1.2348199   396900 
 1836000   0.82271665   -4.1806298   -4.1806298   -2.9465579  0.020705897   -4.1806298    1.2340719   396900 
 1837000   0.82191341   -4.1785782   -4.1785782   -2.9457112   0.02203936   -4.1785782     1.232867   396900 
 1838000   0.82384143   -4.1816724   -4.1816724   -2.9459133  0.023794571   -4.1816724     1.235759   396900 
 1839000   0.82248031   -4.1820124   -4.1820124   -2.9482951  0.021004008   -4.1820124    1.2337174   396900 
 1840000   0.82297517   -4.1837229   -4.1837229   -2.9492632    0.0222706   -4.1837229    1.2344596   396900 
 1841000   0.82332064   -4.1833077   -4.1833077   -2.9483299  0.022631172   -4.1833077    1.2349778   396900 
 1842000   0.82295176   -4.1822552   -4.1822552   -2.9478307  0.023887735   -4.1822552    1.2344245   396900 
 1843000   0.82315025   -4.1851482   -4.1851482   -2.9504259  0.023508806   -4.1851482    1.2347223   396900 
 1844000   0.82265891   -4.1868134   -4.1868134   -2.9528281  0.013953958   -4.1868134    1.2339853   396900 
 1845000   0.82164562   -4.1834668   -4.1834668   -2.9510015  0.024147254   -4.1834668    1.2324653   396900 
 1846000   0.82279466   -4.1846932   -4.1846932   -2.9505044   0.01901018   -4.1846932    1.2341889   396900 
 1847000   0.82134371   -4.1859596   -4.1859596   -2.9539471  0.025002687   -4.1859596    1.2320125   396900 
 1848000   0.82053817   -4.1871359   -4.1871359   -2.9563318  0.019852672   -4.1871359    1.2308042   396900 
 1849000   0.82192338   -4.1889688   -4.1889688   -2.9560868  0.018893402   -4.1889688     1.232882   396900 
 1850000   0.82140068   -4.1868106   -4.1868106   -2.9547127  0.023566297   -4.1868106    1.2320979   396900 
 1851000   0.82240507   -4.1868118   -4.1868118   -2.9532073  0.028025586   -4.1868118    1.2336045   396900 
 1852000   0.82208668   -4.1901785   -4.1901785   -2.9570516  0.023341658   -4.1901785    1.2331269   396900 
 1853000   0.82130492   -4.1894006   -4.1894006   -2.9574463  0.026722945   -4.1894006    1.2319543   396900 
 1854000   0.82114487   -4.1905754   -4.1905754   -2.9588612  0.021447766   -4.1905754    1.2317142   396900 
 1855000   0.82105669   -4.1909795   -4.1909795   -2.9593976  0.019598336   -4.1909795    1.2315819   396900 
 1856000   0.82087236     -4.19126     -4.19126   -2.9599546  0.019377027     -4.19126    1.2313054   396900 
 1857000   0.81841967   -4.1907869   -4.1907869   -2.9631605  0.018798213   -4.1907869    1.2276264   396900 
 1858000   0.81875444   -4.1916074   -4.1916074   -2.9634788   0.01501179   -4.1916074    1.2281286   396900 
 1859000   0.81943105   -4.1926806   -4.1926806   -2.9635371  0.019009483   -4.1926806    1.2291435   396900 
 1860000    0.8211404   -4.1939382   -4.1939382   -2.9622307  0.022742217   -4.1939382    1.2317075   396900 
 1861000   0.82067684   -4.1919043   -4.1919043   -2.9608922  0.028482097   -4.1919043    1.2310122   396900 
 1862000   0.82029642   -4.1958506   -4.1958506   -2.9654091  0.026021781   -4.1958506    1.2304415   396900 
 1863000   0.82002484   -4.1986436   -4.1986436   -2.9686095  0.020271213   -4.1986436    1.2300342   396900 
 1864000    0.8191412   -4.1989298   -4.1989298   -2.9702211  0.019013177   -4.1989298    1.2287087   396900 
 1865000   0.81901668     -4.19885     -4.19885   -2.9703281   0.01974555     -4.19885    1.2285219   396900 
 1866000   0.81970056   -4.2003695   -4.2003695   -2.9708217  0.029620514   -4.2003695    1.2295477   396900 
 1867000   0.81876165   -4.2010487   -4.2010487   -2.9729093  0.029744997   -4.2010487    1.2281394   396900 
 1868000   0.82066314   -4.2022718   -4.2022718   -2.9712802  0.026076829   -4.2022718    1.2309916   396900 
 1869000   0.81879106   -4.2003448   -4.2003448   -2.9721613  0.023721424   -4.2003448    1.2281835   396900 
 1870000   0.81927564     -4.20098     -4.20098   -2.9720696  0.025565497     -4.20098    1.2289104   396900 
 1871000   0.81853919   -4.2025005   -4.2025005   -2.9746948  0.023098864   -4.2025005    1.2278057   396900 
 1872000   0.81867446   -4.2035307   -4.2035307   -2.9755221  0.021223974   -4.2035307    1.2280086   396900 
 1873000   0.81869962   -4.2047893   -4.2047893    -2.976743  0.018816215   -4.2047893    1.2280463   396900 
 1874000    0.8174625   -4.2041958   -4.2041958   -2.9780052  0.024375981   -4.2041958    1.2261907   396900 
 1875000   0.81749654   -4.2046973   -4.2046973   -2.9784556  0.025119141   -4.2046973    1.2262417   396900 
 1876000   0.81957275   -4.2061911   -4.2061911   -2.9768351  0.025022629   -4.2061911     1.229356   396900 
 1877000   0.81872939   -4.2072464   -4.2072464   -2.9791554  0.020418336   -4.2072464     1.228091   396900 
 1878000   0.81707522   -4.2058133   -4.2058133   -2.9802035   0.02140644   -4.2058133    1.2256097   396900 
 1879000   0.81787003    -4.205019    -4.205019   -2.9782171  0.023394927    -4.205019     1.226802   396900 
 1880000    0.8168827   -4.2054434   -4.2054434   -2.9801224    0.0222248   -4.2054434     1.225321   396900 
 1881000   0.81630469   -4.2055439   -4.2055439     -2.98109  0.016507483   -4.2055439    1.2244539   396900 
 1882000   0.81810039   -4.2073133   -4.2073133   -2.9801658  0.019433364   -4.2073133    1.2271475   396900 
 1883000   0.81807248   -4.2091422   -4.2091422   -2.9820365  0.019033907   -4.2091422    1.2271056   396900 
 1884000   0.81820374   -4.2086065   -4.2086065    -2.981304  0.023033818   -4.2086065    1.2273025   396900 
 1885000   0.81762533   -4.2093795   -4.2093795   -2.9829446  0.019657635   -4.2093795    1.2264349   396900 
 1886000    0.8172946   -4.2113662   -4.2113662   -2.9854273  0.020265547   -4.2113662    1.2259388   396900 
 1887000   0.81709115   -4.2108812   -4.2108812   -2.9852476  0.020084168   -4.2108812    1.2256336   396900 
 1888000   0.81601869   -4.2110894   -4.2110894   -2.9870645  0.014946401   -4.2110894     1.224025   396900 
 1889000   0.81616275   -4.2097849   -4.2097849   -2.9855439  0.018003264   -4.2097849     1.224241   396900 
 1890000   0.81834694   -4.2106794   -4.2106794   -2.9831621  0.022830382   -4.2106794    1.2275173   396900 
 1891000   0.81833437    -4.213806    -4.213806   -2.9863076  0.020572105    -4.213806    1.2274985   396900 
 1892000   0.81692996   -4.2130181   -4.2130181   -2.9876262  0.024399312   -4.2130181    1.2253919   396900 
 1893000   0.81651661   -4.2116288   -4.2116288    -2.986857  0.024011966   -4.2116288    1.2247718   396900 
 1894000   0.81696998   -4.2157025   -4.2157025   -2.9902506  0.020038158   -4.2157025    1.2254519   396900 
 1895000   0.81651077   -4.2149758   -4.2149758   -2.9902127  0.016210383   -4.2149758    1.2247631   396900 
 1896000   0.81657964   -4.2155396   -4.2155396   -2.9906732  0.021098315   -4.2155396    1.2248664   396900 
 1897000   0.81646371   -4.2171785   -4.2171785    -2.992486  0.020207716   -4.2171785    1.2246925   396900 
 1898000   0.81649056   -4.2190645   -4.2190645   -2.9943317  0.018931923   -4.2190645    1.2247328   396900 
 1899000   0.81631866    -4.219336    -4.219336   -2.9948611  0.022317719    -4.219336    1.2244749   396900 
 1900000   0.81747244     -4.22163     -4.22163   -2.9954245  0.024157653     -4.22163    1.2262056   396900 
 1901000   0.81669882   -4.2220874   -4.2220874   -2.9970422  0.026479094   -4.2220874    1.2250451   396900 
 1902000   0.81492995   -4.2218586   -4.2218586   -2.9994667  0.023319338   -4.2218586    1.2223919   396900 
 1903000   0.81605729    -4.222989    -4.222989   -2.9989062  0.019581925    -4.222989    1.2240829   396900 
 1904000   0.81373716   -4.2190372   -4.2190372   -2.9984345  0.023229388   -4.2190372    1.2206027   396900 
 1905000   0.81407576   -4.2215277   -4.2215277   -3.0004172  0.018671877   -4.2215277    1.2211106   396900 
 1906000   0.81631048   -4.2240922   -4.2240922   -2.9996295  0.023644631   -4.2240922    1.2244626   396900 
 1907000   0.81593366   -4.2254801   -4.2254801   -3.0015827  0.025313477   -4.2254801    1.2238974   396900 
 1908000   0.81516828   -4.2273532   -4.2273532   -3.0046039  0.019324142   -4.2273532    1.2227493   396900 
 1909000   0.81568709   -4.2267252   -4.2267252   -3.0031977  0.020692356   -4.2267252    1.2235275   396900 
 1910000   0.81425642   -4.2280788   -4.2280788   -3.0066972  0.023203653   -4.2280788    1.2213816   396900 
 1911000   0.81653141   -4.2271846   -4.2271846   -3.0023906  0.026892315   -4.2271846     1.224794   396900 
 1912000   0.81448843   -4.2262742   -4.2262742   -3.0045447  0.020772474   -4.2262742    1.2217296   396900 
 1913000   0.81272752   -4.2246621   -4.2246621   -3.0055739   0.02490356   -4.2246621    1.2190882   396900 
 1914000    0.8149051   -4.2292413   -4.2292413   -3.0068867   0.01638462   -4.2292413    1.2223546   396900 
 1915000   0.81310235   -4.2273732   -4.2273732   -3.0077228  0.016339737   -4.2273732    1.2196505   396900 
 1916000   0.81532892   -4.2296985   -4.2296985   -3.0067082  0.018067858   -4.2296985    1.2229903   396900 
 1917000   0.81600364   -4.2307776   -4.2307776   -3.0067752  0.019562818   -4.2307776    1.2240024   396900 
 1918000   0.81382506   -4.2289306   -4.2289306   -3.0081961  0.018672715   -4.2289306    1.2207345   396900 
 1919000    0.8137958   -4.2304137   -4.2304137   -3.0097231  0.017702276   -4.2304137    1.2206906   396900 
 1920000   0.81301888   -4.2300642   -4.2300642   -3.0105389  0.018811187   -4.2300642    1.2195252   396900 
 1921000   0.81161465   -4.2300446   -4.2300446   -3.0126257  0.021384423   -4.2300446    1.2174189   396900 
 1922000   0.81340624   -4.2300455   -4.2300455   -3.0099392  0.020294084   -4.2300455    1.2201063   396900 
 1923000   0.81294802   -4.2326477   -4.2326477   -3.0132287  0.018374573   -4.2326477     1.219419   396900 
 1924000    0.8117187   -4.2335788   -4.2335788   -3.0160038  0.021332878   -4.2335788     1.217575   396900 
 1925000   0.81318219   -4.2349271   -4.2349271   -3.0151569  0.022401918   -4.2349271    1.2197702   396900 
 1926000   0.81323902   -4.2350764   -4.2350764    -3.015221   0.02307669   -4.2350764    1.2198555   396900 
 1927000   0.81333595   -4.2361526   -4.2361526   -3.0161517   0.02087796   -4.2361526    1.2200009   396900 
 1928000   0.81195413   -4.2389541   -4.2389541    -3.021026  0.019889797   -4.2389541    1.2179281   396900 
 1929000   0.81344075   -4.2397121   -4.2397121    -3.019554  0.020336136   -4.2397121    1.2201581   396900 
 1930000   0.81136475   -4.2388515   -4.2388515   -3.0218074  0.020335422   -4.2388515    1.2170441   396900 
 1931000   0.81112532   -4.2388999   -4.2388999   -3.0222149  0.024473699   -4.2388999    1.2166849   396900 
 1932000   0.81113313   -4.2404648   -4.2404648   -3.0237682  0.023219825   -4.2404648    1.2166966   396900 
 1933000   0.81424975   -4.2440286   -4.2440286    -3.022657  0.017714658   -4.2440286    1.2213716   396900 
 1934000   0.80979874   -4.2408096   -4.2408096   -3.0261146  0.021281433   -4.2408096    1.2146951   396900 
 1935000   0.81075438   -4.2433573   -4.2433573   -3.0272288  0.019509791   -4.2433573    1.2161285   396900 
 1936000   0.81033629   -4.2449441   -4.2449441   -3.0294427  0.021798336   -4.2449441    1.2155014   396900 
 1937000   0.80978225   -4.2462296   -4.2462296   -3.0315593  0.017411948   -4.2462296    1.2146703   396900 
 1938000   0.81100893   -4.2470011   -4.2470011   -3.0304908  0.020655352   -4.2470011    1.2165103   396900 
 1939000   0.81154851   -4.2470522   -4.2470522   -3.0297325  0.023798125   -4.2470522    1.2173197   396900 
 1940000   0.81111796   -4.2480854   -4.2480854   -3.0314115  0.029474004   -4.2480854    1.2166739   396900 
 1941000   0.81057384   -4.2485889   -4.2485889   -3.0327312  0.020821391   -4.2485889    1.2158577   396900 
 1942000   0.80990591   -4.2473894   -4.2473894   -3.0325336  0.021773902   -4.2473894    1.2148558   396900 
 1943000   0.81108283   -4.2492735   -4.2492735   -3.0326523  0.024654242   -4.2492735    1.2166212   396900 
 1944000   0.81226397   -4.2514093   -4.2514093   -3.0330164  0.024793442   -4.2514093    1.2183929   396900 
 1945000   0.81081163   -4.2492637   -4.2492637   -3.0330493  0.025258106   -4.2492637    1.2162144   396900 
 1946000   0.81068949   -4.2506314   -4.2506314   -3.0346002  0.021683889   -4.2506314    1.2160312   396900 
 1947000   0.81116912   -4.2510994   -4.2510994   -3.0343488  0.020397042   -4.2510994    1.2167506   396900 
 1948000   0.81070661   -4.2477983   -4.2477983   -3.0317414  0.025815651   -4.2477983    1.2160568   396900 
 1949000   0.80990882    -4.249281    -4.249281   -3.0344209  0.020073566    -4.249281    1.2148602   396900 
 1950000   0.80982038   -4.2511768   -4.2511768   -3.0364493  0.018170742   -4.2511768    1.2147275   396900 
 1951000   0.80830035   -4.2487462   -4.2487462   -3.0362987  0.021515112   -4.2487462    1.2124475   396900 
 1952000   0.81044663   -4.2527086   -4.2527086   -3.0370417  0.018338569   -4.2527086    1.2156669   396900 
 1953000   0.81076237    -4.252532    -4.252532   -3.0363915   0.02220281    -4.252532    1.2161405   396900 
 1954000   0.80980485   -4.2511824   -4.2511824   -3.0364781  0.023974136   -4.2511824    1.2147042   396900 
 1955000   0.80929849   -4.2539042   -4.2539042   -3.0399595  0.020251971   -4.2539042    1.2139447   396900 
 1956000    0.8105838   -4.2555533   -4.2555533   -3.0396807  0.020440913   -4.2555533    1.2158726   396900 
 1957000   0.80973205    -4.254651    -4.254651    -3.040056  0.021123039    -4.254651     1.214595   396900 
 1958000   0.81050197   -4.2565862   -4.2565862   -3.0408364  0.019702396   -4.2565862    1.2157499   396900 
 1959000   0.81102721   -4.2564148   -4.2564148   -3.0398771  0.020760732   -4.2564148    1.2165377   396900 
 1960000   0.80965508   -4.2558812   -4.2558812   -3.0414017  0.019070452   -4.2558812    1.2144796   396900 
 1961000     0.808936   -4.2566532   -4.2566532   -3.0432522  0.019477691   -4.2566532    1.2134009   396900 
 1962000   0.80882552   -4.2564693   -4.2564693   -3.0432341   0.02300035   -4.2564693    1.2132352   396900 
 1963000   0.80942391   -4.2569595   -4.2569595   -3.0428267  0.021854902   -4.2569595    1.2141328   396900 
 1964000   0.81013805   -4.2589803   -4.2589803   -3.0437763  0.022708584   -4.2589803     1.215204   396900 
 1965000   0.80824914   -4.2578264   -4.2578264   -3.0454558  0.023441514   -4.2578264    1.2123707   396900 
 1966000   0.80776913   -4.2584642   -4.2584642   -3.0468136  0.022084639   -4.2584642    1.2116506   396900 
 1967000   0.80839782   -4.2613967   -4.2613967    -3.048803  0.017205185   -4.2613967    1.2125937   396900 
 1968000   0.80881065   -4.2615725   -4.2615725   -3.0483596  0.018938956   -4.2615725    1.2132129   396900 
 1969000   0.81026773   -4.2629856   -4.2629856   -3.0475871  0.019125386   -4.2629856    1.2153985   396900 
 1970000   0.80794605   -4.2633447   -4.2633447   -3.0514287   0.01943012   -4.2633447     1.211916   396900 
 1971000   0.80803368    -4.264641    -4.264641   -3.0525935  0.017688879    -4.264641    1.2120475   396900 
 1972000   0.80688854   -4.2650187   -4.2650187    -3.054689   0.01930004   -4.2650187    1.2103298   396900 
 1973000   0.80908321   -4.2660905   -4.2660905   -3.0524688  0.021475786   -4.2660905    1.2136218   396900 
 1974000   0.80707435    -4.266648    -4.266648   -3.0560395  0.015591875    -4.266648    1.2106085   396900 
 1975000   0.80684499   -4.2696868   -4.2696868   -3.0594223  0.016567124   -4.2696868    1.2102644   396900 
 1976000   0.80729337   -4.2672238   -4.2672238   -3.0562868  0.024833423   -4.2672238     1.210937   396900 
 1977000   0.80671105   -4.2654558   -4.2654558   -3.0553923  0.022140519   -4.2654558    1.2100635   396900 
 1978000   0.80673206   -4.2663212   -4.2663212   -3.0562261  0.016058776   -4.2663212     1.210095   396900 
 1979000   0.80689089   -4.2691372   -4.2691372   -3.0588039  0.015535475   -4.2691372    1.2103333   396900 
 1980000   0.80738522   -4.2681563   -4.2681563   -3.0570815  0.021521928   -4.2681563    1.2110748   396900 
 1981000   0.80743435   -4.2692822   -4.2692822   -3.0581337  0.022465171   -4.2692822    1.2111485   396900 
 1982000   0.80600927   -4.2701047   -4.2701047   -3.0610938   0.02146119   -4.2701047    1.2090109   396900 
 1983000   0.80875794   -4.2705031   -4.2705031   -3.0573692  0.022311978   -4.2705031    1.2131338   396900 
 1984000   0.80870901     -4.27033     -4.27033   -3.0572695  0.024808914     -4.27033    1.2130605   396900 
 1985000   0.80728585   -4.2699229   -4.2699229   -3.0589972   0.02294625   -4.2699229    1.2109257   396900 
 1986000   0.80559761   -4.2698106   -4.2698106   -3.0614172   0.02312235   -4.2698106    1.2083934   396900 
 1987000   0.80570359   -4.2711184   -4.2711184   -3.0625661    0.0205516   -4.2711184    1.2085523   396900 
 1988000    0.8077137   -4.2729193   -4.2729193   -3.0613518  0.022551144   -4.2729193    1.2115675   396900 
 1989000   0.80674303   -4.2753187   -4.2753187   -3.0652072  0.017055765   -4.2753187    1.2101115   396900 
 1990000    0.8051044   -4.2751982   -4.2751982   -3.0675447  0.015583148   -4.2751982    1.2076536   396900 
 1991000   0.80455234   -4.2778876   -4.2778876   -3.0710622  0.017052022   -4.2778876    1.2068255   396900 
 1992000   0.80471832   -4.2764526   -4.2764526   -3.0693782  0.016552094   -4.2764526    1.2070744   396900 
 1993000   0.80478762   -4.2777315   -4.2777315   -3.0705531   0.01971183   -4.2777315    1.2071784   396900 
 1994000   0.80569857   -4.2765948   -4.2765948     -3.06805  0.021925644   -4.2765948    1.2085448   396900 
 1995000   0.80520022   -4.2769135   -4.2769135   -3.0691162  0.023618267   -4.2769135    1.2077973   396900 
 1996000   0.80504521   -4.2771803   -4.2771803   -3.0696155  0.019203521   -4.2771803    1.2075648   396900 
 1997000   0.80411116    -4.279265    -4.279265   -3.0731013  0.015901589    -4.279265    1.2061637   396900 
 1998000   0.80233158   -4.2777218   -4.2777218   -3.0742275  0.017983147   -4.2777218    1.2034943   396900 
 1999000   0.80511475   -4.2802861   -4.2802861    -3.072617  0.010763992   -4.2802861    1.2076691   396900 
 2000000   0.80490423   -4.2850686   -4.2850686   -3.0777153  0.011166222   -4.2850686    1.2073533   396900 
 2001000   0.80384573   -4.2818517   -4.2818517   -3.0760861  0.021025264   -4.2818517    1.2057655   396900 
 2002000    0.8061253   -4.2843143   -4.2843143   -3.0751294  0.017764161   -4.2843143    1.2091849   396900 
 2003000   0.80566301   -4.2846244   -4.2846244   -3.0761329  0.022492514   -4.2846244    1.2084915   396900 
 2004000   0.80500277   -4.2837889   -4.2837889   -3.0762878  0.022486805   -4.2837889    1.2075011   396900 
 2005000   0.80522432   -4.2860899   -4.2860899   -3.0782565   0.02153333   -4.2860899    1.2078334   396900 
 2006000   0.80264122   -4.2849157   -4.2849157    -3.080957  0.021282436   -4.2849157    1.2039588   396900 
 2007000   0.80284065    -4.284997    -4.284997    -3.080739   0.02165029    -4.284997    1.2042579   396900 
 2008000   0.80271411    -4.285329    -4.285329   -3.0812609  0.021529346    -4.285329    1.2040681   396900 
 2009000    0.8037046   -4.2868339   -4.2868339     -3.08128  0.020826362   -4.2868339    1.2055539   396900 
 2010000   0.80611705    -4.288484    -4.288484   -3.0793115  0.017397036    -4.288484    1.2091725   396900 
 2011000   0.80299309   -4.2874119   -4.2874119   -3.0829253  0.023147114   -4.2874119    1.2044866   396900 
 2012000   0.80501984   -4.2883665   -4.2883665   -3.0808398  0.017029927   -4.2883665    1.2075267   396900 
 2013000   0.80524635   -4.2871006   -4.2871006   -3.0792341  0.022080494   -4.2871006    1.2078665   396900 
 2014000   0.80515404   -4.2869476   -4.2869476   -3.0792196  0.020424007   -4.2869476     1.207728   396900 
 2015000   0.80283405   -4.2864246   -4.2864246   -3.0821765  0.020462304   -4.2864246     1.204248   396900 
 2016000   0.80287027   -4.2851545   -4.2851545   -3.0808521  0.019437231   -4.2851545    1.2043024   396900 
 2017000   0.80283144   -4.2870815   -4.2870815   -3.0828374  0.019102269   -4.2870815    1.2042441   396900 
 2018000   0.80241753   -4.2853602   -4.2853602    -3.081737  0.018519712   -4.2853602    1.2036233   396900 
 2019000   0.80300221   -4.2853377   -4.2853377   -3.0808375  0.020598126   -4.2853377    1.2045003   396900 
 2020000    0.8022518   -4.2865452   -4.2865452   -3.0831705  0.017026267   -4.2865452    1.2033747   396900 
 2021000   0.80117158   -4.2866269   -4.2866269   -3.0848726  0.016086124   -4.2866269    1.2017543   396900 
 2022000   0.80323828   -4.2881338   -4.2881338   -3.0832794  0.015495925   -4.2881338    1.2048544   396900 
 2023000   0.80115181   -4.2880756   -4.2880756    -3.086351    0.0212037   -4.2880756    1.2017247   396900 
 2024000   0.80304692   -4.2932934   -4.2932934    -3.088726  0.012289514   -4.2932934    1.2045673   396900 
 2025000   0.80214901   -4.2930267   -4.2930267   -3.0898062  0.018301792   -4.2930267    1.2032205   396900 
 2026000   0.80095392   -4.2926986   -4.2926986   -3.0912707  0.018715633   -4.2926986    1.2014279   396900 
 2027000   0.80054027   -4.2918291   -4.2918291   -3.0910217  0.021117253   -4.2918291    1.2008074   396900 
 2028000   0.80229749   -4.2955722   -4.2955722    -3.092129  0.011968843   -4.2955722    1.2034432   396900 
 2029000   0.80389622   -4.2983478   -4.2983478   -3.0925065  0.013908102   -4.2983478    1.2058413   396900 
 2030000   0.80301408   -4.2977827   -4.2977827   -3.0932646  0.021608178   -4.2977827    1.2045181   396900 
 2031000   0.80213334   -4.2968418   -4.2968418   -3.0936449  0.019664096   -4.2968418     1.203197   396900 
 2032000   0.80197029   -4.2974574   -4.2974574    -3.094505  0.015834556   -4.2974574    1.2029524   396900 
 2033000   0.80305814   -4.2984933   -4.2984933   -3.0939092  0.018458586   -4.2984933    1.2045842   396900 
 2034000   0.80281571   -4.2969793   -4.2969793   -3.0927588  0.023302655   -4.2969793    1.2042205   396900 
 2035000   0.80267311   -4.2990255   -4.2990255   -3.0950188  0.022286778   -4.2990255    1.2040066   396900 
 2036000   0.80151144   -4.2994749   -4.2994749   -3.0972108  0.019188235   -4.2994749    1.2022641   396900 
 2037000   0.80139103   -4.2992402   -4.2992402   -3.0971567  0.016924759   -4.2992402    1.2020835   396900 
 2038000   0.80114264   -4.2977947   -4.2977947   -3.0960838  0.016399567   -4.2977947    1.2017109   396900 
 2039000   0.80079274   -4.2996237   -4.2996237   -3.0984376  0.014980895   -4.2996237    1.2011861   396900 
 2040000   0.80008649   -4.3007963   -4.3007963   -3.1006696  0.016255497   -4.3007963    1.2001267   396900 
 2041000   0.80077167   -4.3024454   -4.3024454   -3.1012909   0.01663446   -4.3024454    1.2011545   396900 
 2042000   0.80066904   -4.3030508   -4.3030508   -3.1020503   0.02280268   -4.3030508    1.2010005   396900 
 2043000   0.80107223   -4.3036843   -4.3036843    -3.102079  0.020807856   -4.3036843    1.2016053   396900 
 2044000   0.80088715   -4.3045708   -4.3045708   -3.1032431   0.01906627   -4.3045708    1.2013277   396900 
 2045000    0.7998519    -4.305281    -4.305281   -3.1055062  0.018750526    -4.305281    1.1997748   396900 
 2046000   0.80075998   -4.3066732   -4.3066732   -3.1055363  0.019289853   -4.3066732    1.2011369   396900 
 2047000   0.79929486    -4.306366    -4.306366   -3.1074267  0.016643215    -4.306366    1.1989393   396900 
 2048000   0.80030654   -4.3084729   -4.3084729   -3.1080161  0.015070157   -4.3084729    1.2004568   396900 
 2049000    0.7996688   -4.3070162   -4.3070162    -3.107516  0.019767119   -4.3070162    1.1995002   396900 
 2050000   0.79890104   -4.3094052   -4.3094052   -3.1110566  0.015700034   -4.3094052    1.1983485   396900 
 2051000   0.79956725   -4.3092226   -4.3092226   -3.1098748  0.017036639   -4.3092226    1.1993479   396900 
 2052000   0.79808783   -4.3085724   -4.3085724   -3.1114436  0.015336093   -4.3085724    1.1971287   396900 
 2053000   0.79833888   -4.3080094   -4.3080094   -3.1105041  0.016274158   -4.3080094    1.1975053   396900 
 2054000   0.79766306   -4.3083736   -4.3083736    -3.111882  0.016911232   -4.3083736    1.1964916   396900 
 2055000   0.79774327   -4.3091472   -4.3091472   -3.1125353   0.01805151   -4.3091472    1.1966119   396900 
 2056000   0.79919902   -4.3108549   -4.3108549   -3.1120594  0.021261318   -4.3108549    1.1987955   396900 
 2057000   0.79955024   -4.3125179   -4.3125179   -3.1131955  0.019511993   -4.3125179    1.1993223   396900 
 2058000   0.79773115   -4.3121961   -4.3121961   -3.1156024  0.019717953   -4.3121961    1.1965937   396900 
 2059000   0.79818966   -4.3126767   -4.3126767   -3.1153952  0.018916259   -4.3126767    1.1972815   396900 
 2060000    0.7990769   -4.3143417   -4.3143417   -3.1157294  0.016745225   -4.3143417    1.1986123   396900 
 2061000   0.79699531   -4.3141149   -4.3141149    -3.118625  0.019696995   -4.3141149    1.1954899   396900 
 2062000   0.79762875    -4.315579    -4.315579   -3.1191389  0.016614827    -4.315579    1.1964401   396900 
 2063000   0.79780408   -4.3161336   -4.3161336   -3.1194305  0.018149333   -4.3161336    1.1967031   396900 
 2064000   0.79694853    -4.316349    -4.316349   -3.1209293  0.015378867    -4.316349    1.1954198   396900 
 2065000   0.79686259   -4.3171613   -4.3171613   -3.1218704  0.017545714   -4.3171613    1.1952909   396900 
 2066000   0.79763679   -4.3202064   -4.3202064   -3.1237542  0.013699228   -4.3202064    1.1964522   396900 
 2067000   0.79596073   -4.3155714   -4.3155714   -3.1216333  0.016791108   -4.3155714    1.1939381   396900 
 2068000   0.79750039   -4.3179961   -4.3179961   -3.1217485  0.016720612   -4.3179961    1.1962476   396900 
 2069000   0.79764001   -4.3187885   -4.3187885   -3.1223314  0.019239276   -4.3187885     1.196457   396900 
 2070000   0.79820338   -4.3202453   -4.3202453   -3.1229432  0.020921931   -4.3202453    1.1973021   396900 
 2071000   0.79868875   -4.3189198   -4.3189198   -3.1208897  0.024387479   -4.3189198    1.1980301   396900 
 2072000   0.79816499   -4.3184194   -4.3184194    -3.121175  0.020067799   -4.3184194    1.1972445   396900 
 2073000   0.79776346   -4.3198909   -4.3198909   -3.1232487   0.01870268   -4.3198909    1.1966422   396900 
 2074000   0.79741549   -4.3207231   -4.3207231   -3.1246029  0.015693788   -4.3207231    1.1961202   396900 
 2075000   0.79826276   -4.3211102   -4.3211102   -3.1237191  0.022166729   -4.3211102    1.1973911   396900 
 2076000   0.79735401   -4.3212494   -4.3212494   -3.1252213   0.02014411   -4.3212494     1.196028   396900 
 2077000   0.79448101   -4.3226816   -4.3226816   -3.1309631  0.017370503   -4.3226816    1.1917185   396900 
 2078000    0.7953504   -4.3229482   -4.3229482   -3.1299256  0.018929762   -4.3229482    1.1930226   396900 
 2079000   0.79544141   -4.3237882   -4.3237882   -3.1306291  0.024114113   -4.3237882    1.1931591   396900 
 2080000   0.79534694   -4.3223282   -4.3223282   -3.1293108  0.024617569   -4.3223282    1.1930174   396900 
 2081000   0.79522365   -4.3231748   -4.3231748   -3.1303424  0.016549217   -4.3231748    1.1928325   396900 
 2082000   0.79710216   -4.3261036   -4.3261036   -3.1304534  0.014312319   -4.3261036    1.1956502   396900 
 2083000   0.79621605   -4.3239037   -4.3239037   -3.1295826  0.021463837   -4.3239037    1.1943211   396900 
 2084000   0.79620708   -4.3239464   -4.3239464   -3.1296388  0.018700416   -4.3239464    1.1943076   396900 
 2085000   0.79641578   -4.3266006   -4.3266006   -3.1319799  0.012584362   -4.3266006    1.1946207   396900 
 2086000   0.79535931   -4.3237861   -4.3237861   -3.1307502  0.018891341   -4.3237861     1.193036   396900 
 2087000   0.79561755   -4.3248642   -4.3248642   -3.1314409  0.014123438   -4.3248642    1.1934233   396900 
 2088000   0.79347858   -4.3229224   -4.3229224   -3.1327076  0.017556406   -4.3229224    1.1902149   396900 
 2089000   0.79535756   -4.3242793   -4.3242793    -3.131246   0.01660901   -4.3242793    1.1930333   396900 
 2090000   0.79503096   -4.3259888   -4.3259888   -3.1334453  0.013269111   -4.3259888    1.1925434   396900 
 2091000   0.79544151    -4.326242    -4.326242   -3.1330827  0.018409282    -4.326242    1.1931593   396900 
 2092000   0.79642947   -4.3280919   -4.3280919   -3.1334507  0.017584464   -4.3280919    1.1946412   396900 
 2093000   0.79509988   -4.3275772   -4.3275772   -3.1349304  0.019900431   -4.3275772    1.1926468   396900 
 2094000   0.79455211   -4.3289956   -4.3289956   -3.1371704  0.020418028   -4.3289956    1.1918252   396900 
 2095000   0.79545895   -4.3315712   -4.3315712   -3.1383858  0.017742019   -4.3315712    1.1931854   396900 
 2096000   0.79571124   -4.3331723   -4.3331723   -3.1396084  0.015978122   -4.3331723    1.1935639   396900 
 2097000   0.79425653   -4.3327026   -4.3327026   -3.1413208  0.016825989   -4.3327026    1.1913818   396900 
 2098000   0.79528424   -4.3328776   -4.3328776   -3.1399543  0.021099352   -4.3328776    1.1929234   396900 
 2099000   0.79596012   -4.3345815   -4.3345815   -3.1406444   0.01915337   -4.3345815    1.1939372   396900 
 2100000   0.79536061   -4.3340148   -4.3340148   -3.1409769  0.016578296   -4.3340148    1.1930379   396900 
 2101000   0.79386666   -4.3330372   -4.3330372   -3.1422402  0.023236304   -4.3330372     1.190797   396900 
 2102000   0.79373183   -4.3348165   -4.3348165   -3.1442217  0.015469284   -4.3348165    1.1905947   396900 
 2103000   0.79420551   -4.3344638   -4.3344638   -3.1431586  0.013031879   -4.3344638    1.1913053   396900 
 2104000   0.79314845   -4.3340871   -4.3340871   -3.1443675  0.017768697   -4.3340871    1.1897197   396900 
 2105000   0.79358192   -4.3353497   -4.3353497   -3.1449798  0.021331872   -4.3353497    1.1903699   396900 
 2106000   0.79618125   -4.3392003   -4.3392003   -3.1449314  0.014950666   -4.3392003    1.1942689   396900 
 2107000   0.79498205   -4.3397096   -4.3397096   -3.1472395  0.015760754   -4.3397096    1.1924701   396900 
 2108000   0.79398364   -4.3394791   -4.3394791   -3.1485066  0.015404901   -4.3394791    1.1909725   396900 
 2109000   0.79462706   -4.3405944   -4.3405944   -3.1486568  0.018684972   -4.3405944    1.1919376   396900 
 2110000   0.79241527   -4.3374893   -4.3374893   -3.1488694   0.02227058   -4.3374893    1.1886199   396900 
 2111000   0.79169139   -4.3377964   -4.3377964   -3.1502623  0.022243903   -4.3377964    1.1875341   396900 
 2112000   0.79283573   -4.3378941   -4.3378941   -3.1486435  0.014138239   -4.3378941    1.1892506   396900 
 2113000   0.79240631   -4.3385745   -4.3385745    -3.149968  0.015439607   -4.3385745    1.1886065   396900 
 2114000   0.79296317   -4.3385345   -4.3385345   -3.1490928  0.016910786   -4.3385345    1.1894418   396900 
 2115000   0.79352734   -4.3383072   -4.3383072   -3.1480192  0.017013189   -4.3383072     1.190288   396900 
 2116000   0.79338305   -4.3402016   -4.3402016   -3.1501301  0.017177834   -4.3402016    1.1900716   396900 
 2117000   0.79175663   -4.3404547   -4.3404547   -3.1528228  0.016048333   -4.3404547     1.187632   396900 
 2118000    0.7941505   -4.3429153   -4.3429153   -3.1516925   0.01814121   -4.3429153    1.1912227   396900 
 2119000   0.79211963   -4.3407075   -4.3407075    -3.152531  0.016049823   -4.3407075    1.1881765   396900 
 2120000   0.79354709   -4.3413457   -4.3413457   -3.1510281   0.01915613   -4.3413457    1.1903176   396900 
 2121000   0.79298061   -4.3419954   -4.3419954   -3.1525275  0.019022943   -4.3419954    1.1894679   396900 
 2122000   0.79220229   -4.3420209   -4.3420209   -3.1537205  0.015541397   -4.3420209    1.1883004   396900 
 2123000   0.79200848   -4.3436731   -4.3436731   -3.1556633  0.012566954   -4.3436731    1.1880097   396900 
 2124000   0.79132543   -4.3452394   -4.3452394   -3.1582542 0.0090284734   -4.3452394    1.1869852   396900 
 2125000   0.79314704   -4.3458369   -4.3458369   -3.1561194   0.01142698   -4.3458369    1.1897176   396900 
 2126000   0.79245802    -4.344903    -4.344903    -3.156219  0.017352418    -4.344903     1.188684   396900 
 2127000    0.7918051   -4.3442423   -4.3442423   -3.1565376  0.021342337   -4.3442423    1.1877047   396900 
 2128000    0.7909289   -4.3439944   -4.3439944    -3.157604  0.014268078   -4.3439944    1.1863904   396900 
 2129000   0.79210689   -4.3459039   -4.3459039   -3.1577466   0.01952984   -4.3459039    1.1881573   396900 
 2130000   0.79248767   -4.3475951   -4.3475951   -3.1588666   0.01699018   -4.3475951    1.1887285   396900 
 2131000   0.79142645   -4.3468011   -4.3468011   -3.1596644  0.014604467   -4.3468011    1.1871367   396900 
 2132000   0.79140566   -4.3464246   -4.3464246   -3.1593191  0.015813271   -4.3464246    1.1871055   396900 
 2133000   0.79249085   -4.3493056   -4.3493056   -3.1605723  0.012571561   -4.3493056    1.1887333   396900 
 2134000   0.79110535   -4.3477308   -4.3477308   -3.1610757  0.018035118   -4.3477308     1.186655   396900 
 2135000   0.79060791   -4.3473195   -4.3473195   -3.1614106  0.020833455   -4.3473195    1.1859089   396900 
 2136000   0.79133328   -4.3493958   -4.3493958   -3.1623989  0.019588043   -4.3493958    1.1869969   396900 
 2137000   0.79005076   -4.3488978   -4.3488978   -3.1638247  0.019804758   -4.3488978    1.1850732   396900 
 2138000   0.79164007   -4.3534258   -4.3534258   -3.1659687  0.014570283   -4.3534258    1.1874571   396900 
 2139000    0.7904421   -4.3532918   -4.3532918   -3.1676316   0.01861376   -4.3532918    1.1856602   396900 
 2140000   0.78983558    -4.353487    -4.353487   -3.1687366  0.014659718    -4.353487    1.1847504   396900 
 2141000   0.79069361   -4.3552525   -4.3552525   -3.1692151  0.015293459   -4.3552525    1.1860374   396900 
 2142000   0.79024325   -4.3549944   -4.3549944   -3.1696325  0.021123068   -4.3549944    1.1853619   396900 
 2143000   0.79017697    -4.357566    -4.357566   -3.1723035  0.018931068    -4.357566    1.1852625   396900 
 2144000     0.790812   -4.3570851   -4.3570851   -3.1708701  0.020671142   -4.3570851     1.186215   396900 
 2145000   0.78942597   -4.3565031   -4.3565031   -3.1723671  0.022071028   -4.3565031     1.184136   396900 
 2146000   0.78796375   -4.3556739   -4.3556739   -3.1737312  0.015309341   -4.3556739    1.1819426   396900 
 2147000   0.78822383   -4.3560391   -4.3560391   -3.1737063  0.013027573   -4.3560391    1.1823328   396900 
 2148000   0.78952914   -4.3573616   -4.3573616   -3.1730708  0.010333169   -4.3573616    1.1842907   396900 
 2149000   0.78890837   -4.3565558   -4.3565558   -3.1731962  0.014281217   -4.3565558    1.1833596   396900 
 2150000   0.78878824   -4.3578252   -4.3578252   -3.1746459  0.013911891   -4.3578252    1.1831794   396900 
 2151000   0.78840547   -4.3580377   -4.3580377   -3.1754325  0.014498928   -4.3580377    1.1826052   396900 
 2152000   0.78931141   -4.3598107   -4.3598107   -3.1758466  0.010105483   -4.3598107    1.1839641   396900 
 2153000   0.78931969   -4.3594254   -4.3594254   -3.1754489  0.016996718   -4.3594254    1.1839765   396900 
 2154000   0.78863374   -4.3621934   -4.3621934   -3.1792458  0.012379444   -4.3621934    1.1829476   396900 
 2155000   0.78837732   -4.3621696   -4.3621696   -3.1796066  0.017844846   -4.3621696     1.182563   396900 
 2156000   0.78719855    -4.361361    -4.361361   -3.1805661  0.018373499    -4.361361    1.1807949   396900 
 2157000   0.78865989   -4.3632258   -4.3632258    -3.180239  0.017467695   -4.3632258    1.1829869   396900 
 2158000   0.78746852    -4.363364    -4.363364   -3.1821642  0.016612244    -4.363364    1.1811998   396900 
 2159000   0.78743582   -4.3650392   -4.3650392   -3.1838885  0.014545641   -4.3650392    1.1811507   396900 
 2160000   0.78720877    -4.365677    -4.365677   -3.1848668  0.014119827    -4.365677    1.1808102   396900 
 2161000   0.78746668   -4.3668066   -4.3668066   -3.1856096  0.013996744   -4.3668066     1.181197   396900 
 2162000   0.78793521   -4.3685481   -4.3685481   -3.1866482  0.015621684   -4.3685481    1.1818998   396900 
 2163000   0.78880526   -4.3685725   -4.3685725   -3.1853676  0.014602976   -4.3685725    1.1832049   396900 
 2164000   0.78604315   -4.3675352   -4.3675352   -3.1884734  0.015392146   -4.3675352    1.1790618   396900 
 2165000   0.78695176   -4.3688507   -4.3688507    -3.188426  0.014986704   -4.3688507    1.1804247   396900 
 2166000   0.78848863   -4.3699762   -4.3699762   -3.1872462  0.017593562   -4.3699762      1.18273   396900 
 2167000   0.78821884   -4.3714821   -4.3714821   -3.1891568  0.015472399   -4.3714821    1.1823253   396900 
 2168000    0.7886253   -4.3713628   -4.3713628   -3.1884278  0.017508145   -4.3713628     1.182935   396900 
 2169000   0.78655754   -4.3703262   -4.3703262   -3.1904928   0.02156704   -4.3703262    1.1798333   396900 
 2170000   0.78625558   -4.3732609   -4.3732609   -3.1938805  0.014194784   -4.3732609    1.1793804   396900 
 2171000   0.78552975   -4.3742277   -4.3742277   -3.1959361  0.011608879   -4.3742277    1.1782917   396900 
 2172000     0.786794   -4.3754073   -4.3754073   -3.1952193  0.012633843   -4.3754073     1.180188   396900 
 2173000    0.7867595   -4.3768127   -4.3768127   -3.1966764  0.012241042   -4.3768127    1.1801363   396900 
 2174000    0.7857589   -4.3768783   -4.3768783   -3.1982429  0.014350663   -4.3768783    1.1786354   396900 
 2175000   0.78467301   -4.3759495   -4.3759495    -3.198943  0.017228896   -4.3759495    1.1770066   396900 
 2176000   0.78741834   -4.3782968   -4.3782968   -3.1971722  0.019684149   -4.3782968    1.1811245   396900 
 2177000   0.78863585   -4.3811508   -4.3811508      -3.1982  0.019374594   -4.3811508    1.1829508   396900 
 2178000   0.78722346   -4.3794918   -4.3794918   -3.1986596  0.020571036   -4.3794918    1.1808322   396900 
 2179000   0.78561126   -4.3785424   -4.3785424   -3.2001285  0.022241672   -4.3785424    1.1784139   396900 
 2180000   0.78695989   -4.3823126   -4.3823126   -3.2018757  0.011218246   -4.3823126    1.1804369   396900 
 2181000   0.78435988   -4.3801447   -4.3801447   -3.2036078  0.017120046   -4.3801447    1.1765369   396900 
 2182000   0.78456814   -4.3791831   -4.3791831   -3.2023339  0.013872031   -4.3791831    1.1768492   396900 
 2183000   0.78667177   -4.3806167   -4.3806167   -3.2006121   0.01368232   -4.3806167    1.1800047   396900 
 2184000   0.78674121   -4.3795757   -4.3795757   -3.1994668  0.011219733   -4.3795757    1.1801088   396900 
 2185000   0.78577608   -4.3765095   -4.3765095   -3.1978483  0.015240276   -4.3765095    1.1786612   396900 
 2186000   0.78573358   -4.3819651   -4.3819651   -3.2033677 0.0091726062   -4.3819651    1.1785974   396900 
 2187000   0.78636294   -4.3813405   -4.3813405    -3.201799  0.013471953   -4.3813405    1.1795414   396900 
 2188000   0.78556072    -4.381739    -4.381739   -3.2034009  0.022187591    -4.381739    1.1783381   396900 
 2189000   0.78886475   -4.3847285   -4.3847285   -3.2014343  0.023791086   -4.3847285    1.1832941   396900 
 2190000   0.78850688   -4.3865719   -4.3865719   -3.2038146  0.017621753   -4.3865719    1.1827573   396900 
 2191000   0.78603252   -4.3850136   -4.3850136   -3.2059678   0.01615234   -4.3850136    1.1790458   396900 
 2192000   0.78428086   -4.3866835   -4.3866835   -3.2102652  0.016043726   -4.3866835    1.1764183   396900 
 2193000   0.78258471   -4.3846401   -4.3846401    -3.210766  0.015041265   -4.3846401    1.1738741   396900 
 2194000   0.78532055   -4.3846354   -4.3846354   -3.2066576   0.01722885   -4.3846354    1.1779779   396900 
 2195000   0.78559029   -4.3845781   -4.3845781   -3.2061956  0.018026443   -4.3845781    1.1783825   396900 
 2196000   0.78477208   -4.3854906   -4.3854906   -3.2083355  0.013501106   -4.3854906    1.1771552   396900 
 2197000   0.78411728   -4.3844333   -4.3844333   -3.2082604  0.015509202   -4.3844333     1.176173   396900 
 2198000   0.78458313   -4.3846014   -4.3846014   -3.2077297  0.014413318   -4.3846014    1.1768717   396900 
 2199000   0.78597769    -4.384913    -4.384913   -3.2059494  0.014603021    -4.384913    1.1789636   396900 
 2200000   0.78458863   -4.3861023   -4.3861023   -3.2092224  0.012235822   -4.3861023      1.17688   396900 
 2201000   0.78485222   -4.3865073   -4.3865073   -3.2092319  0.012996788   -4.3865073    1.1772754   396900 
 2202000   0.78345373   -4.3848271   -4.3848271   -3.2096494    0.0164139   -4.3848271    1.1751776   396900 
 2203000   0.78493125   -4.3866763   -4.3866763   -3.2092823  0.014900311   -4.3866763    1.1773939   396900 
 2204000   0.78373955   -4.3881451   -4.3881451   -3.2125387   0.01453735   -4.3881451    1.1756064   396900 
 2205000   0.78362013   -4.3906492   -4.3906492    -3.215222  0.012592107   -4.3906492    1.1754272   396900 
 2206000   0.78532495   -4.3911474   -4.3911474    -3.213163 0.0097495069   -4.3911474    1.1779845   396900 
 2207000   0.78322329   -4.3870915   -4.3870915   -3.2122595  0.020770753   -4.3870915     1.174832   396900 
 2208000   0.78367856   -4.3887744   -4.3887744   -3.2132595  0.018528423   -4.3887744    1.1755149   396900 
 2209000   0.78262324   -4.3883946   -4.3883946   -3.2144627  0.019271037   -4.3883946    1.1739319   396900 
 2210000   0.78152503   -4.3910528   -4.3910528   -3.2187683  0.013189425   -4.3910528    1.1722846   396900 
 2211000   0.78347234   -4.3932021   -4.3932021   -3.2179966 0.0090109867   -4.3932021    1.1752056   396900 
 2212000   0.78286777   -4.3935966   -4.3935966   -3.2192979  0.014303972   -4.3935966    1.1742987   396900 
 2213000   0.78260262   -4.3947508   -4.3947508   -3.2208499  0.011705353   -4.3947508     1.173901   396900 
 2214000   0.78171792   -4.3956344   -4.3956344   -3.2230605  0.014185941   -4.3956344    1.1725739   396900 
 2215000   0.78297007   -4.3985707   -4.3985707   -3.2241186  0.010408557   -4.3985707    1.1744521   396900 
 2216000   0.78383471   -4.3974048   -4.3974048   -3.2216557  0.019295353   -4.3974048    1.1757491   396900 
 2217000   0.78350602   -4.3978153   -4.3978153   -3.2225592   0.01816222   -4.3978153    1.1752561   396900 
 2218000   0.78222823   -4.3986222   -4.3986222   -3.2252828  0.016982319   -4.3986222    1.1733394   396900 
 2219000   0.78202003   -4.3987019   -4.3987019   -3.2256748  0.016443595   -4.3987019    1.1730271   396900 
 2220000   0.78101802   -4.3966761   -4.3966761    -3.225152  0.016950759   -4.3966761    1.1715241   396900 
 2221000   0.78090132   -4.3978097   -4.3978097   -3.2264606  0.015020138   -4.3978097     1.171349   396900 
 2222000   0.78011624   -4.3970646   -4.3970646   -3.2268932  0.011429057   -4.3970646    1.1701714   396900 
 2223000   0.78101707   -4.3990245   -4.3990245   -3.2275018   0.01061991   -4.3990245    1.1715227   396900 
 2224000   0.78282694   -4.4010864   -4.4010864    -3.226849  0.015717824   -4.4010864    1.1742375   396900 
 2225000   0.78151815   -4.3993934   -4.3993934   -3.2271191  0.020238128   -4.3993934    1.1722743   396900 
 2226000   0.78255392   -4.4006568   -4.4006568   -3.2268289  0.018987618   -4.4006568    1.1738279   396900 
 2227000    0.7834931   -4.4028149   -4.4028149   -3.2275782  0.013948917   -4.4028149    1.1752367   396900 
 2228000    0.7817816   -4.4017146   -4.4017146   -3.2290451  0.018415824   -4.4017146    1.1726695   396900 
 2229000   0.78215373   -4.4035859   -4.4035859   -3.2303582 0.0078213834   -4.4035859    1.1732276   396900 
 2230000   0.78098309   -4.4038679   -4.4038679   -3.2323962  0.010327235   -4.4038679    1.1714717   396900 
 2231000   0.77830514    -4.401228    -4.401228   -3.2337733  0.016507561    -4.401228    1.1674548   396900 
 2232000    0.7799185   -4.4043657   -4.4043657   -3.2344909  0.013405417   -4.4043657    1.1698748   396900 
 2233000   0.77946545   -4.4034783   -4.4034783   -3.2342831  0.014414199   -4.4034783    1.1691952   396900 
 2234000    0.7807144   -4.4076348   -4.4076348   -3.2365661 0.0068580699   -4.4076348    1.1710687   396900 
 2235000   0.77895592   -4.4057101   -4.4057101   -3.2372791 0.0096915257   -4.4057101    1.1684309   396900 
 2236000     0.780308   -4.4079605   -4.4079605   -3.2375014  0.012804328   -4.4079605    1.1704591   396900 
 2237000    0.7802896   -4.4097721   -4.4097721   -3.2393407  0.012509876   -4.4097721    1.1704314   396900 
 2238000   0.77911815   -4.4077788   -4.4077788   -3.2391045  0.016884015   -4.4077788    1.1686743   396900 
 2239000   0.78000333   -4.4101625   -4.4101625   -3.2401604  0.015687194   -4.4101625     1.170002   396900 
 2240000    0.7786599   -4.4107455   -4.4107455   -3.2427586  0.016614902   -4.4107455    1.1679869   396900 
 2241000   0.77805881    -4.409925    -4.409925   -3.2428398  0.013692202    -4.409925    1.1670853   396900 
 2242000   0.78040496   -4.4133141   -4.4133141   -3.2427096  0.017142951   -4.4133141    1.1706045   396900 
 2243000    0.7810534   -4.4138667   -4.4138667   -3.2422896  0.019934952   -4.4138667    1.1715772   396900 
 2244000   0.77715383   -4.4132518   -4.4132518    -3.247524  0.016638149   -4.4132518    1.1657278   396900 
 2245000   0.77688295   -4.4133447   -4.4133447   -3.2480233  0.013566952   -4.4133447    1.1653215   396900 
 2246000   0.77725739   -4.4155903   -4.4155903   -3.2497072  0.011298339   -4.4155903    1.1658831   396900 
 2247000   0.77838001   -4.4154468   -4.4154468   -3.2478797  0.019131765   -4.4154468    1.1675671   396900 
 2248000   0.77693189   -4.4145019   -4.4145019    -3.249107  0.013745597   -4.4145019    1.1653949   396900 
 2249000   0.77826246   -4.4155472   -4.4155472   -3.2481565  0.015849282   -4.4155472    1.1673907   396900 
 2250000   0.77871382   -4.4156563   -4.4156563   -3.2475885  0.013434735   -4.4156563    1.1680678   396900 
 2251000   0.77760544   -4.4141727   -4.4141727   -3.2477675  0.019507871   -4.4141727    1.1664052   396900 
 2252000   0.78045326   -4.4165916   -4.4165916   -3.2459147  0.018149613   -4.4165916    1.1706769   396900 
 2253000   0.77849766   -4.4174057   -4.4174057   -3.2496622   0.01533605   -4.4174057    1.1677435   396900 
 2254000   0.77729047   -4.4183365   -4.4183365   -3.2524038  0.013380629   -4.4183365    1.1659328   396900 
 2255000   0.77778468   -4.4168217   -4.4168217   -3.2501476  0.015638053   -4.4168217    1.1666741   396900 
 2256000   0.77666769   -4.4177571   -4.4177571   -3.2527585  0.015088958   -4.4177571    1.1649986   396900 
 2257000   0.77660286   -4.4194956   -4.4194956   -3.2545943 0.0099956543   -4.4194956    1.1649014   396900 
 2258000   0.77698433   -4.4213011   -4.4213011   -3.2558275  0.012246379   -4.4213011    1.1654736   396900 
 2259000   0.77572751   -4.4200551   -4.4200551   -3.2564668  0.012560748   -4.4200551    1.1635883   396900 
 2260000   0.77740853   -4.4197485   -4.4197485   -3.2536387   0.01780839   -4.4197485    1.1661099   396900 
 2261000   0.77733483   -4.4199481   -4.4199481   -3.2539488  0.015999746   -4.4199481    1.1659993   396900 
 2262000   0.77657705   -4.4196738   -4.4196738   -3.2548112   0.01590589   -4.4196738    1.1648626   396900 
 2263000   0.77653209   -4.4217434   -4.4217434   -3.2569482 0.0086833903   -4.4217434    1.1647952   396900 
 2264000     0.777098   -4.4223761   -4.4223761   -3.2567321   0.01215725   -4.4223761    1.1656441   396900 
 2265000   0.77824094   -4.4231285   -4.4231285   -3.2557701  0.012137145   -4.4231285    1.1673585   396900 
 2266000   0.77699138   -4.4231089   -4.4231089   -3.2576248  0.015753602   -4.4231089    1.1654841   396900 
 2267000   0.77624681   -4.4212294   -4.4212294   -3.2568621  0.014974768   -4.4212294    1.1643673   396900 
 2268000   0.77735564   -4.4235896   -4.4235896   -3.2575591  0.011585393   -4.4235896    1.1660305   396900 
 2269000    0.7757997   -4.4245256   -4.4245256    -3.260829  0.016671085   -4.4245256    1.1636966   396900 
 2270000   0.77719812   -4.4255456   -4.4255456   -3.2597514   0.01414877   -4.4255456    1.1657942   396900 
 2271000    0.7760686    -4.425483    -4.425483    -3.261383  0.012528161    -4.425483       1.1641   396900 
 2272000   0.77626535   -4.4264407   -4.4264407   -3.2620456 0.0088794349   -4.4264407    1.1643951   396900 
 2273000   0.77539522   -4.4243616   -4.4243616   -3.2612717  0.012405563   -4.4243616    1.1630899   396900 
 2274000   0.77542783    -4.425125    -4.425125   -3.2619862  0.011033809    -4.425125    1.1631388   396900 
 2275000   0.77528954    -4.424697    -4.424697   -3.2617656  0.017504633    -4.424697    1.1629314   396900 
 2276000   0.77695445   -4.4261076   -4.4261076   -3.2606789  0.015358971   -4.4261076    1.1654287   396900 
 2277000   0.77770209   -4.4260301   -4.4260301   -3.2594799  0.020127098   -4.4260301    1.1665502   396900 
 2278000   0.77768931   -4.4258957   -4.4258957   -3.2593646  0.019573166   -4.4258957     1.166531   396900 
 2279000   0.77692798   -4.4261947   -4.4261947   -3.2608056  0.013332511   -4.4261947     1.165389   396900 
 2280000   0.77445236   -4.4259229   -4.4259229   -3.2642473  0.017536153   -4.4259229    1.1616756   396900 
 2281000    0.7756011   -4.4294872   -4.4294872   -3.2660885  0.012479494   -4.4294872    1.1633987   396900 
 2282000   0.77372288   -4.4282509   -4.4282509   -3.2676696  0.012372281   -4.4282509    1.1605814   396900 
 2283000   0.77644713   -4.4302686   -4.4302686   -3.2656008  0.016956458   -4.4302686    1.1646678   396900 
 2284000   0.77594495   -4.4293132   -4.4293132   -3.2653987  0.019828456   -4.4293132    1.1639145   396900 
 2285000   0.77634524   -4.4314071   -4.4314071   -3.2668922  0.017097643   -4.4314071    1.1645149   396900 
 2286000   0.77636468   -4.4319003   -4.4319003   -3.2673562  0.018502919   -4.4319003    1.1645441   396900 
 2287000   0.77445499   -4.4326368   -4.4326368   -3.2709573   0.01303408   -4.4326368    1.1616796   396900 
 2288000    0.7747028   -4.4333183   -4.4333183   -3.2712671 0.0097757548   -4.4333183    1.1620513   396900 
 2289000   0.77519958   -4.4339188   -4.4339188   -3.2711223  0.016106975   -4.4339188    1.1627964   396900 
 2290000   0.77439565   -4.4347735   -4.4347735    -3.273183   0.01480169   -4.4347735    1.1615905   396900 
 2291000   0.77294552    -4.433213    -4.433213   -3.2737976  0.012785563    -4.433213    1.1594154   396900 
 2292000   0.77351249   -4.4341852   -4.4341852   -3.2739193  0.012594507   -4.4341852    1.1602658   396900 
 2293000   0.77503415   -4.4351033   -4.4351033    -3.272555  0.017799842   -4.4351033    1.1625483   396900 
 2294000   0.77641824   -4.4373363   -4.4373363   -3.2727118  0.016888028   -4.4373363    1.1646244   396900 
 2295000   0.77644174   -4.4374049   -4.4374049   -3.2727453  0.012738958   -4.4374049    1.1646597   396900 
 2296000   0.77569319   -4.4375432   -4.4375432   -3.2740064  0.014375196   -4.4375432    1.1635369   396900 
 2297000   0.77417166   -4.4362988   -4.4362988   -3.2750442  0.013028545   -4.4362988    1.1612546   396900 
 2298000   0.77240164   -4.4353027   -4.4353027   -3.2767032  0.015589172   -4.4353027    1.1585995   396900 
 2299000   0.77359106   -4.4378437   -4.4378437   -3.2774601 0.0072163308   -4.4378437    1.1603837   396900 
 2300000   0.77260158   -4.4379257   -4.4379257   -3.2790263 0.0072520925   -4.4379257    1.1588994   396900 
 2301000   0.77244663   -4.4387329   -4.4387329   -3.2800659  0.010638751   -4.4387329     1.158667   396900 
 2302000   0.77453861   -4.4398291   -4.4398291   -3.2780241  0.014728183   -4.4398291     1.161805   396900 
 2303000   0.77479942   -4.4425111   -4.4425111   -3.2803149  0.015854389   -4.4425111    1.1621962   396900 
 2304000   0.77335959   -4.4417238   -4.4417238   -3.2816874  0.013122683   -4.4417238    1.1600365   396900 
 2305000   0.77373707   -4.4414074   -4.4414074   -3.2808047  0.016959365   -4.4414074    1.1606027   396900 
 2306000   0.77566908   -4.4459791   -4.4459791   -3.2824784  0.016101527   -4.4459791    1.1635007   396900 
 2307000   0.77327091   -4.4442519   -4.4442519   -3.2843485  0.013936357   -4.4442519    1.1599034   396900 
 2308000   0.77327527    -4.443878    -4.443878    -3.283968  0.013093638    -4.443878      1.15991   396900 
 2309000   0.77252205   -4.4450219   -4.4450219   -3.2862418  0.017931379   -4.4450219    1.1587802   396900 
 2310000    0.7731169   -4.4470751   -4.4470751   -3.2874027   0.01467475   -4.4470751    1.1596724   396900 
 2311000   0.77402995   -4.4493227   -4.4493227   -3.2882807  0.013475552   -4.4493227     1.161042   396900 
 2312000   0.77096497   -4.4438737   -4.4438737   -3.2874292  0.019898374   -4.4438737    1.1564445   396900 
 2313000   0.77446378   -4.4464926   -4.4464926   -3.2847998  0.015106861   -4.4464926    1.1616927   396900 
 2314000   0.77227055   -4.4451637   -4.4451637   -3.2867608  0.012984171   -4.4451637    1.1584029   396900 
 2315000    0.7725649   -4.4452652   -4.4452652   -3.2864208  0.014809316   -4.4452652    1.1588444   396900 
 2316000   0.77323012   -4.4480994   -4.4480994   -3.2882572  0.012262076   -4.4480994    1.1598423   396900 
 2317000   0.77190139   -4.4458902   -4.4458902    -3.288041  0.017956722   -4.4458902    1.1578492   396900 
 2318000   0.77325692   -4.4473491   -4.4473491   -3.2874666  0.011909072   -4.4473491    1.1598825   396900 
 2319000   0.77225159   -4.4472225   -4.4472225   -3.2888481  0.015434224   -4.4472225    1.1583745   396900 
 2320000   0.77349284   -4.4466938   -4.4466938   -3.2864574  0.018154476   -4.4466938    1.1602363   396900 
 2321000   0.77411653   -4.4477493   -4.4477493   -3.2865775  0.010979315   -4.4477493    1.1611719   396900 
 2322000   0.77307466   -4.4472094   -4.4472094   -3.2876003  0.013463433   -4.4472094    1.1596091   396900 
 2323000   0.77226821   -4.4469316   -4.4469316   -3.2885322  0.010817394   -4.4469316    1.1583994   396900 
 2324000      0.77242   -4.4487919   -4.4487919   -3.2901648  0.015887696   -4.4487919    1.1586271   396900 
 2325000   0.77190901   -4.4493422   -4.4493422   -3.2914816  0.014883829   -4.4493422    1.1578606   396900 
 2326000   0.77329598   -4.4501234   -4.4501234   -3.2901824  0.014603123   -4.4501234     1.159941   396900 
 2327000   0.77287036   -4.4503632   -4.4503632   -3.2910606 0.0058295587   -4.4503632    1.1593026   396900 
 2328000      0.77191   -4.4498726   -4.4498726   -3.2920105  0.014416643   -4.4498726    1.1578621   396900 
 2329000   0.77115309   -4.4511031   -4.4511031   -3.2943764  0.013469644   -4.4511031    1.1567267   396900 
 2330000    0.7712617   -4.4516577   -4.4516577   -3.2947681  0.010607413   -4.4516577    1.1568896   396900 
 2331000   0.77174565   -4.4523184   -4.4523184   -3.2947028  0.013264084   -4.4523184    1.1576156   396900 
 2332000   0.77142594   -4.4515926   -4.4515926   -3.2944567  0.013688856   -4.4515926     1.157136   396900 
 2333000   0.77096191   -4.4512903   -4.4512903   -3.2948504  0.017559965   -4.4512903      1.15644   396900 
 2334000   0.77157249   -4.4528798   -4.4528798   -3.2955239  0.018507755   -4.4528798    1.1573558   396900 
 2335000     0.771104   -4.4570906   -4.4570906   -3.3004375  0.011547601   -4.4570906    1.1566531   396900 
 2336000   0.76844901   -4.4533466   -4.4533466    -3.300676  0.010313478   -4.4533466    1.1526706   396900 
 2337000   0.76926099    -4.454753    -4.454753   -3.3008644 0.0084945473    -4.454753    1.1538886   396900 
 2338000   0.77102629   -4.4580767   -4.4580767   -3.3015402  0.011287997   -4.4580767    1.1565365   396900 
 2339000   0.77064045   -4.4594984   -4.4594984   -3.3035407   0.01486245   -4.4594984    1.1559578   396900 
 2340000   0.77033878   -4.4596924   -4.4596924   -3.3041871  0.013943213   -4.4596924    1.1555053   396900 
 2341000   0.77134077   -4.4618725   -4.4618725   -3.3048642  0.010935318   -4.4618725    1.1570082   396900 
 2342000   0.76906759   -4.4603929   -4.4603929   -3.3067944  0.017164648   -4.4603929    1.1535985   396900 
 2343000   0.77010757   -4.4607707   -4.4607707   -3.3056123  0.021084667   -4.4607707    1.1551584   396900 
 2344000   0.76928136   -4.4615497   -4.4615497   -3.3076306  0.019341923   -4.4615497    1.1539191   396900 
 2345000   0.76953121   -4.4633425   -4.4633425   -3.3090486  0.013734922   -4.4633425    1.1542939   396900 
 2346000   0.76898306   -4.4624652   -4.4624652   -3.3089935  0.013191967   -4.4624652    1.1534717   396900 
 2347000   0.77072417    -4.463516    -4.463516   -3.3074326  0.016303009    -4.463516    1.1560833   396900 
 2348000   0.76941078   -4.4638798   -4.4638798   -3.3097666   0.01505199   -4.4638798    1.1541133   396900 
 2349000   0.76989934    -4.463491    -4.463491   -3.3086449   0.01428317    -4.463491    1.1548461   396900 
 2350000   0.76974437   -4.4625824   -4.4625824   -3.3079688  0.014962071   -4.4625824    1.1546136   396900 
 2351000   0.76931551   -4.4646779   -4.4646779   -3.3107075 0.0092245707   -4.4646779    1.1539704   396900 
 2352000   0.76754614   -4.4648731   -4.4648731   -3.3135568 0.0095545712   -4.4648731    1.1513163   396900 
 2353000   0.76735091   -4.4658317   -4.4658317   -3.3148082  0.011239481   -4.4658317    1.1510235   396900 
 2354000   0.76888977   -4.4653916   -4.4653916   -3.3120599  0.017258631   -4.4653916    1.1533318   396900 
 2355000   0.76848777   -4.4685375   -4.4685375   -3.3158087  0.012995473   -4.4685375    1.1527288   396900 
 2356000   0.76842422   -4.4709166   -4.4709166   -3.3182832  0.014216827   -4.4709166    1.1526334   396900 
 2357000   0.76852898   -4.4722133   -4.4722133   -3.3194227  0.017339446   -4.4722133    1.1527906   396900 
 2358000   0.76933669   -4.4731108   -4.4731108   -3.3191086  0.016368863   -4.4731108    1.1540021   396900 
 2359000   0.76842588   -4.4738262   -4.4738262   -3.3211903  0.019242944   -4.4738262    1.1526359   396900 
 2360000   0.76842514   -4.4753274   -4.4753274   -3.3226925  0.013214241   -4.4753274    1.1526348   396900 
 2361000   0.76907251   -4.4740424   -4.4740424   -3.3204365  0.015812105   -4.4740424    1.1536059   396900 
 2362000   0.76860842   -4.4739025   -4.4739025   -3.3209928  0.013917375   -4.4739025    1.1529097   396900 
 2363000   0.76727149    -4.474234    -4.474234   -3.3233296 0.0091780575    -4.474234    1.1509043   396900 
 2364000   0.76653263    -4.472174    -4.472174    -3.322378  0.015454562    -4.472174     1.149796   396900 
 2365000   0.76729316   -4.4732517   -4.4732517   -3.3223148  0.010185051   -4.4732517    1.1509368   396900 
 2366000     0.765622   -4.4734614   -4.4734614   -3.3250313 0.0068629346   -4.4734614    1.1484301   396900 
 2367000   0.76636118   -4.4741803   -4.4741803   -3.3246414 0.0081389998   -4.4741803    1.1495389   396900 
 2368000   0.76684627   -4.4729525   -4.4729525    -3.322686   0.01620191   -4.4729525    1.1502665   396900 
 2369000   0.76720621   -4.4742552   -4.4742552   -3.3234488  0.013526716   -4.4742552    1.1508064   396900 
 2370000   0.76549953   -4.4743023   -4.4743023   -3.3260559  0.008639365   -4.4743023    1.1482464   396900 
 2371000   0.76529476   -4.4740478   -4.4740478   -3.3261085 0.0071910919   -4.4740478    1.1479392   396900 
 2372000   0.76716804    -4.475444    -4.475444   -3.3246948 0.0093189499    -4.475444    1.1507492   396900 
 2373000   0.76660763   -4.4749872   -4.4749872   -3.3250786  0.011187975   -4.4749872    1.1499085   396900 
 2374000   0.76586692   -4.4769387   -4.4769387   -3.3281412   0.01226994   -4.4769387    1.1487975   396900 
 2375000   0.76726582   -4.4790295   -4.4790295   -3.3281336  0.014359735   -4.4790295    1.1508958   396900 
 2376000   0.76625084   -4.4795408   -4.4795408   -3.3301675  0.014193454   -4.4795408    1.1493734   396900 
 2377000   0.76633483    -4.481308    -4.481308   -3.3318086  0.011764866    -4.481308    1.1494994   396900 
 2378000    0.7661898   -4.4824896   -4.4824896   -3.3332078 0.0064158766   -4.4824896    1.1492818   396900 
 2379000   0.76354084   -4.4801371   -4.4801371   -3.3348287  0.012145605   -4.4801371    1.1453084   396900 
 2380000   0.76414077   -4.4801728   -4.4801728   -3.3339645   0.01181311   -4.4801728    1.1462083   396900 
 2381000   0.76547197   -4.4809945   -4.4809945   -3.3327895   0.01536691   -4.4809945    1.1482051   396900 
 2382000   0.76507639   -4.4810949   -4.4810949   -3.3334832  0.013069436   -4.4810949    1.1476117   396900 
 2383000   0.76571659   -4.4837655   -4.4837655   -3.3351935  0.011696358   -4.4837655     1.148572   396900 
 2384000   0.76492542    -4.482929    -4.482929   -3.3355437  0.015135307    -4.482929    1.1473852   396900 
 2385000   0.76466497    -4.485195    -4.485195   -3.3382004 0.0081279319    -4.485195    1.1469946   396900 
 2386000   0.76583029   -4.4859558   -4.4859558   -3.3372133   0.01519651   -4.4859558    1.1487425   396900 
 2387000   0.76529593   -4.4848902   -4.4848902   -3.3369492  0.014014776   -4.4848902     1.147941   396900 
 2388000   0.76537812   -4.4864957   -4.4864957   -3.3384314  0.011949581   -4.4864957    1.1480643   396900 
 2389000   0.76454244   -4.4875185   -4.4875185   -3.3407078  0.016054377   -4.4875185    1.1468108   396900 
 2390000    0.7646917   -4.4868019   -4.4868019   -3.3397672  0.015879079   -4.4868019    1.1470347   396900 
 2391000   0.76501518   -4.4879898   -4.4879898   -3.3404699  0.015581465   -4.4879898    1.1475199   396900 
 2392000   0.76362993   -4.4867972   -4.4867972   -3.3413552   0.01646756   -4.4867972     1.145442   396900 
 2393000   0.76451197    -4.486555    -4.486555   -3.3397899  0.012625081    -4.486555    1.1467651   396900 
 2394000    0.7630698   -4.4878137   -4.4878137   -3.3432119   0.01409378   -4.4878137    1.1446018   396900 
 2395000   0.76341013   -4.4904314   -4.4904314   -3.3453191  0.010708035   -4.4904314    1.1451123   396900 
 2396000   0.76466534   -4.4905853   -4.4905853   -3.3435902  0.019045652   -4.4905853    1.1469951   396900 
 2397000   0.76353845   -4.4907965   -4.4907965   -3.3454917  0.016415394   -4.4907965    1.1453048   396900 
 2398000    0.7643739   -4.4928189   -4.4928189   -3.3462609  0.016891075   -4.4928189     1.146558   396900 
 2399000   0.76334841   -4.4940209   -4.4940209   -3.3490011  0.016069841   -4.4940209    1.1450197   396900 
 2400000   0.76287475   -4.4939364   -4.4939364   -3.3496271  0.012764044   -4.4939364    1.1443092   396900 
 2401000   0.76225095   -4.4947743   -4.4947743   -3.3514008 0.0093106756   -4.4947743    1.1433735   396900 
 2402000   0.76183385   -4.4967426   -4.4967426   -3.3539948 0.0097344815   -4.4967426    1.1427479   396900 
 2403000   0.76102282   -4.4942092   -4.4942092   -3.3526778  0.016194983   -4.4942092    1.1415314   396900 
 2404000   0.76232458    -4.495035    -4.495035   -3.3515511   0.01470122    -4.495035     1.143484   396900 
 2405000   0.76217709   -4.4980494   -4.4980494   -3.3547867  0.010152421   -4.4980494    1.1432627   396900 
 2406000   0.76122748   -4.4960747   -4.4960747   -3.3542364 0.0095244023   -4.4960747    1.1418383   396900 
 2407000   0.76145295    -4.496771    -4.496771   -3.3545944 0.0089833656    -4.496771    1.1421766   396900 
 2408000   0.76157145   -4.4964455   -4.4964455   -3.3540912  0.013010872   -4.4964455    1.1423543   396900 
 2409000   0.76306674    -4.497302    -4.497302   -3.3527048  0.010723255    -4.497302    1.1445972   396900 
 2410000   0.76197098    -4.496549    -4.496549   -3.3535954  0.016045381    -4.496549    1.1429536   396900 
 2411000   0.76179919   -4.4979368   -4.4979368   -3.3552409 0.0093863391   -4.4979368    1.1426959   396900 
 2412000   0.76144535   -4.4966668   -4.4966668   -3.3545016  0.012229332   -4.4966668    1.1421652   396900 
 2413000    0.7608878   -4.4961411   -4.4961411   -3.3548123  0.014982048   -4.4961411    1.1413288   396900 
 2414000   0.76113016   -4.4974822   -4.4974822   -3.3557898  0.012245026   -4.4974822    1.1416924   396900 
 2415000   0.76202685   -4.4974607   -4.4974607   -3.3544233  0.016552052   -4.4974607    1.1430374   396900 
 2416000   0.76283184   -4.5021254   -4.5021254   -3.3578806  0.012122718   -4.5021254    1.1442449   396900 
 2417000   0.76248919   -4.5011588   -4.5011588   -3.3574279  0.016815575   -4.5011588    1.1437309   396900 
 2418000   0.76347407   -4.5033523   -4.5033523   -3.3581441 0.0093896345   -4.5033523    1.1452082   396900 
 2419000   0.76088587   -4.5005358   -4.5005358   -3.3592099  0.015265062   -4.5005358    1.1413259   396900 
 2420000   0.76208626   -4.5020847   -4.5020847   -3.3589582  0.015625895   -4.5020847    1.1431265   396900 
 2421000   0.76055067     -4.50142     -4.50142   -3.3605969  0.019125901     -4.50142    1.1408231   396900 
 2422000   0.76148865   -4.5044055   -4.5044055   -3.3621754  0.012690637   -4.5044055    1.1422301   396900 
 2423000   0.76098848   -4.5036186   -4.5036186   -3.3621388  0.018453194   -4.5036186    1.1414798   396900 
 2424000   0.76101635    -4.504464    -4.504464   -3.3629424  0.010475336    -4.504464    1.1415217   396900 
 2425000   0.76120855   -4.5031219   -4.5031219    -3.361312     0.010891   -4.5031219      1.14181   396900 
 2426000   0.76078847   -4.5026462   -4.5026462   -3.3614664  0.011392931   -4.5026462    1.1411798   396900 
 2427000   0.76142384   -4.5033558   -4.5033558    -3.361223  0.012053049   -4.5033558    1.1421329   396900 
 2428000   0.76195324   -4.5043738   -4.5043738   -3.3614468 0.0096132544   -4.5043738     1.142927   396900 
 2429000   0.75989842   -4.5042812   -4.5042812   -3.3644365 0.0089925664   -4.5042812    1.1398448   396900 
 2430000   0.76033888   -4.5064199   -4.5064199   -3.3659145 0.0039938265   -4.5064199    1.1405054   396900 
 2431000   0.76088336   -4.5043383   -4.5043383   -3.3630162    0.0182897   -4.5043383    1.1413222   396900 
 2432000   0.76066512    -4.506786    -4.506786   -3.3657912  0.016819958    -4.506786    1.1409948   396900 
 2433000   0.76089004   -4.5077624   -4.5077624   -3.3664302  0.015301714   -4.5077624    1.1413322   396900 
 2434000   0.75987599    -4.507325    -4.507325   -3.3675139  0.019919435    -4.507325    1.1398111   396900 
 2435000    0.7613566   -4.5086521   -4.5086521   -3.3666201    0.0122159   -4.5086521     1.142032   396900 
 2436000   0.76005926   -4.5100514   -4.5100514   -3.3699654  0.010707905   -4.5100514     1.140086   396900 
 2437000    0.7602554   -4.5109884   -4.5109884   -3.3706081   0.01075336   -4.5109884    1.1403802   396900 
 2438000   0.76165347   -4.5116108   -4.5116108   -3.3691335 0.0084018801   -4.5116108    1.1424773   396900 
 2439000    0.7600734   -4.5109596   -4.5109596   -3.3708524  0.012658285   -4.5109596    1.1401072   396900 
 2440000   0.76099197   -4.5137853   -4.5137853   -3.3723002  0.011910188   -4.5137853    1.1414851   396900 
 2441000   0.75973098   -4.5131713   -4.5131713   -3.3735777  0.013283461   -4.5131713    1.1395936   396900 
 2442000   0.75951123   -4.5117778   -4.5117778   -3.3725138  0.014189719   -4.5117778     1.139264   396900 
 2443000   0.76052885   -4.5147785   -4.5147785   -3.3739881 0.0099252283   -4.5147785    1.1407904   396900 
 2444000    0.7595796   -4.5141143   -4.5141143   -3.3747478  0.014786192   -4.5141143    1.1393665   396900 
 2445000   0.75854969   -4.5129188   -4.5129188   -3.3750971   0.01219412   -4.5129188    1.1378217   396900 
 2446000   0.75729425   -4.5146312   -4.5146312   -3.3786926 0.0098723183   -4.5146312    1.1359385   396900 
 2447000   0.75761924   -4.5163692   -4.5163692   -3.3799432 0.0072801105   -4.5163692     1.136426   396900 
 2448000   0.75676995   -4.5153002   -4.5153002   -3.3801481  0.014372081   -4.5153002    1.1351521   396900 
 2449000   0.75870704   -4.5195691   -4.5195691   -3.3815114  0.013708242   -4.5195691    1.1380577   396900 
 2450000   0.75870639   -4.5195985   -4.5195985   -3.3815418  0.015115227   -4.5195985    1.1380567   396900 
 2451000    0.7576555   -4.5182248   -4.5182248   -3.3817444  0.018294007   -4.5182248    1.1364804   396900 
 2452000    0.7582166   -4.5204547   -4.5204547   -3.3831326  0.013727406   -4.5204547     1.137322   396900 
 2453000   0.75955962   -4.5214026   -4.5214026   -3.3820661  0.016179976   -4.5214026    1.1393366   396900 
 2454000   0.75888535   -4.5209212   -4.5209212   -3.3825961  0.012502664   -4.5209212    1.1383252   396900 
 2455000   0.75713603   -4.5195626   -4.5195626   -3.3838614  0.017290025   -4.5195626    1.1357012   396900 
 2456000   0.75749367    -4.519591    -4.519591   -3.3833534   0.01331329    -4.519591    1.1362376   396900 
 2457000   0.75800391   -4.5198511   -4.5198511   -3.3828481 0.0099930822   -4.5198511     1.137003   396900 
 2458000   0.75708331   -4.5186738   -4.5186738   -3.3830516  0.011450465   -4.5186738    1.1356221   396900 
 2459000   0.75767452   -4.5202224   -4.5202224   -3.3837135 0.0081902244   -4.5202224    1.1365089   396900 
 2460000   0.75677223   -4.5179486   -4.5179486   -3.3827931  0.014597605   -4.5179486    1.1351555   396900 
 2461000   0.75736406   -4.5188426   -4.5188426   -3.3827993  0.014230131   -4.5188426    1.1360432   396900 
 2462000   0.75557755   -4.5177323   -4.5177323   -3.3843688  0.010555818   -4.5177323    1.1333635   396900 
 2463000   0.75625117   -4.5191182   -4.5191182   -3.3847443  0.011021995   -4.5191182    1.1343739   396900 
 2464000   0.75598163   -4.5194961   -4.5194961   -3.3855265 0.0085557488   -4.5194961    1.1339696   396900 
 2465000   0.75763089   -4.5232792   -4.5232792   -3.3868357 0.0094600181   -4.5232792    1.1364435   396900 
 2466000   0.75775137   -4.5249941   -4.5249941   -3.3883699  0.011553869   -4.5249941    1.1366242   396900 
 2467000   0.75803073   -4.5237286   -4.5237286   -3.3866854  0.016746653   -4.5237286    1.1370432   396900 
 2468000   0.75788711   -4.5268526   -4.5268526   -3.3900248  0.015935008   -4.5268526    1.1368278   396900 
 2469000   0.75548028   -4.5254077   -4.5254077   -3.3921902  0.010314036   -4.5254077    1.1332176   396900 
 2470000   0.75351466    -4.525776    -4.525776   -3.3955069  0.012252281    -4.525776    1.1302691   396900 
 2471000   0.75678368   -4.5299781   -4.5299781   -3.3948055  0.014542221   -4.5299781    1.1351727   396900 
 2472000   0.75648657   -4.5302922   -4.5302922   -3.3955652  0.012891611   -4.5302922     1.134727   396900 
 2473000   0.75706218    -4.531144    -4.531144   -3.3955536  0.016773891    -4.531144    1.1355904   396900 
 2474000   0.75632405   -4.5294995   -4.5294995   -3.3950163   0.01583907   -4.5294995    1.1344832   396900 
 2475000    0.7571002   -4.5300967   -4.5300967   -3.3944492  0.017800506   -4.5300967    1.1356474   396900 
 2476000   0.75617724   -4.5303115   -4.5303115   -3.3960485  0.014293312   -4.5303115     1.134263   396900 
 2477000   0.75445523   -4.5316761   -4.5316761   -3.3999961  0.014487226   -4.5316761      1.13168   396900 
 2478000   0.75497448    -4.533581    -4.533581   -3.4011221  0.014004563    -4.533581    1.1324589   396900 
 2479000   0.75380071   -4.5326286   -4.5326286   -3.4019304  0.013801321   -4.5326286    1.1306982   396900 
 2480000   0.75405232   -4.5339187   -4.5339187   -3.4028431  0.010643099   -4.5339187    1.1310756   396900 
 2481000   0.75484045   -4.5340075   -4.5340075   -3.4017497  0.016913916   -4.5340075    1.1322578   396900 
 2482000   0.75538384   -4.5367559   -4.5367559    -3.403683   0.01136134   -4.5367559    1.1330729   396900 
 2483000   0.75451042    -4.537477    -4.537477   -3.4057142  0.010696807    -4.537477    1.1317628   396900 
 2484000    0.7552425   -4.5367469   -4.5367469    -3.403886  0.012558912   -4.5367469    1.1328609   396900 
 2485000   0.75519446   -4.5383988   -4.5383988     -3.40561  0.013129628   -4.5383988    1.1327888   396900 
 2486000   0.75361852   -4.5384478   -4.5384478   -3.4080228  0.012214446   -4.5384478    1.1304249   396900 
 2487000    0.7548639   -4.5387965   -4.5387965   -3.4065035  0.014151192   -4.5387965     1.132293   396900 
 2488000   0.75357763   -4.5391286   -4.5391286    -3.408765  0.016471238   -4.5391286    1.1303636   396900 
 2489000   0.75383788   -4.5426644   -4.5426644   -3.4119105  0.015231306   -4.5426644     1.130754   396900 
 2490000    0.7547146   -4.5427612   -4.5427612   -3.4106922 0.0081905422   -4.5427612     1.132069   396900 
 2491000   0.75284002   -4.5411112   -4.5411112   -3.4118541  0.011893142   -4.5411112    1.1292572   396900 
 2492000   0.75510678   -4.5430232   -4.5430232   -3.4103659  0.011952279   -4.5430232    1.1326573   396900 
 2493000   0.75392366   -4.5416921   -4.5416921   -3.4108095  0.014816892   -4.5416921    1.1308826   396900 
 2494000   0.75420922   -4.5424601   -4.5424601   -3.4111491 0.0092860733   -4.5424601     1.131311   396900 
 2495000   0.75152607   -4.5408045   -4.5408045   -3.4135183 0.0075672799   -4.5408045    1.1272863   396900 
 2496000   0.75316686   -4.5401012   -4.5401012   -3.4103537  0.013446857   -4.5401012    1.1297474   396900 
 2497000   0.75348468   -4.5415432   -4.5415432    -3.411319   0.01487777   -4.5415432    1.1302242   396900 
 2498000   0.75343196   -4.5398443   -4.5398443   -3.4096992  0.020649964   -4.5398443    1.1301451   396900 
 2499000    0.7534928   -4.5428154   -4.5428154    -3.412579  0.011702871   -4.5428154    1.1302363   396900 
 2500000    0.7528441   -4.5435238   -4.5435238   -3.4142605 0.0095584558   -4.5435238    1.1292633   396900 
 2501000   0.75256725   -4.5410588   -4.5410588   -3.4122108  0.013427551   -4.5410588     1.128848   396900 
 2502000   0.75236045   -4.5400627   -4.5400627   -3.4115248    0.0121023   -4.5400627    1.1285378   396900 
 2503000   0.75431863   -4.5430153   -4.5430153   -3.4115402 0.0051758938   -4.5430153    1.1314751   396900 
 2504000   0.75246029   -4.5414326   -4.5414326    -3.412745  0.005814893   -4.5414326    1.1286876   396900 
 2505000   0.75175054   -4.5409284   -4.5409284   -3.4133054  0.012678565   -4.5409284     1.127623   396900 
 2506000   0.75285486   -4.5428202   -4.5428202   -3.4135407 0.0055813339   -4.5428202    1.1292794   396900 
 2507000   0.75349027   -4.5428713   -4.5428713   -3.4126388  0.010747812   -4.5428713    1.1302326   396900 
 2508000   0.75245344   -4.5429401   -4.5429401   -3.4142628  0.017717588   -4.5429401    1.1286773   396900 
 2509000   0.75235915   -4.5458907   -4.5458907   -3.4173549  0.013727138   -4.5458907    1.1285359   396900 
 2510000   0.75322297   -4.5471346   -4.5471346    -3.417303  0.013970096   -4.5471346    1.1298316   396900 
 2511000   0.75242082   -4.5480917   -4.5480917   -3.4194633  0.011106175   -4.5480917    1.1286284   396900 
 2512000   0.75124507    -4.545831    -4.545831   -3.4189662  0.012812604    -4.545831    1.1268648   396900 
 2513000   0.75224383   -4.5456853   -4.5456853   -3.4173224  0.012645962   -4.5456853    1.1283629   396900 
 2514000   0.75075618   -4.5458579   -4.5458579   -3.4197265  0.014126331   -4.5458579    1.1261314   396900 
 2515000   0.75072818   -4.5493059   -4.5493059   -3.4232165 0.0052043444   -4.5493059    1.1260894   396900 
 2516000   0.75150152   -4.5496011   -4.5496011   -3.4223517  0.012078786   -4.5496011    1.1272494   396900 
 2517000    0.7525486   -4.5505319   -4.5505319   -3.4217118  0.012860056   -4.5505319    1.1288201   396900 
 2518000   0.75037318   -4.5498055   -4.5498055   -3.4242486  0.017111223   -4.5498055    1.1255569   396900 
 2519000    0.7513549   -4.5541607   -4.5541607   -3.4271311  0.010357266   -4.5541607    1.1270295   396900 
 2520000    0.7510427   -4.5548718   -4.5548718   -3.4283105  0.011904387   -4.5548718    1.1265612   396900 
 2521000   0.74919793   -4.5538903   -4.5538903   -3.4300963  0.013468486   -4.5538903    1.1237941   396900 
 2522000   0.75128235   -4.5572609   -4.5572609   -3.4303402  0.010242801   -4.5572609    1.1269207   396900 
 2523000    0.7517525   -4.5595246   -4.5595246   -3.4318987  0.011989698   -4.5595246    1.1276259   396900 
 2524000   0.75155277   -4.5581905   -4.5581905   -3.4308641  0.019507416   -4.5581905    1.1273263   396900 
 2525000    0.7510122   -4.5585449   -4.5585449   -3.4320294  0.013814223   -4.5585449    1.1265155   396900 
 2526000   0.75038767   -4.5583189   -4.5583189   -3.4327402  0.015663608   -4.5583189    1.1255787   396900 
 2527000   0.74991755   -4.5570758   -4.5570758   -3.4322023  0.018515412   -4.5570758    1.1248735   396900 
 2528000   0.75015759   -4.5570893   -4.5570893   -3.4318558  0.012994774   -4.5570893    1.1252335   396900 
 2529000   0.75047128   -4.5576805   -4.5576805   -3.4319765  0.010628375   -4.5576805    1.1257041   396900 
 2530000   0.74865147   -4.5561428   -4.5561428   -3.4331684  0.011334456   -4.5561428    1.1229744   396900 
 2531000    0.7501621   -4.5575117   -4.5575117   -3.4322714 0.0090592629   -4.5575117    1.1252403   396900 
 2532000   0.74996067   -4.5565818   -4.5565818   -3.4316436  0.011414595   -4.5565818    1.1249382   396900 
 2533000    0.7482842   -4.5551688   -4.5551688   -3.4327453  0.010907193   -4.5551688    1.1224235   396900 
 2534000   0.75082674   -4.5594806   -4.5594806   -3.4332434 0.0028947729   -4.5594806    1.1262373   396900 
 2535000   0.74874044   -4.5565773   -4.5565773   -3.4334695  0.013650344   -4.5565773    1.1231078   396900 
 2536000   0.75123445   -4.5594427   -4.5594427   -3.4325939  0.012928103   -4.5594427    1.1268488   396900 
 2537000   0.75017569   -4.5590676   -4.5590676   -3.4338069 0.0085250344   -4.5590676    1.1252607   396900 
 2538000   0.74969701   -4.5581392   -4.5581392   -3.4335966  0.014862349   -4.5581392    1.1245427   396900 
 2539000   0.74942347   -4.5596213   -4.5596213   -3.4354889  0.013599121   -4.5596213    1.1241324   396900 
 2540000    0.7501956   -4.5615962   -4.5615962   -3.4363057 0.0087567105   -4.5615962    1.1252906   396900 
 2541000   0.74934625   -4.5606291   -4.5606291   -3.4366125  0.012458675   -4.5606291    1.1240165   396900 
 2542000   0.74938693   -4.5608354   -4.5608354   -3.4367579  0.011603031   -4.5608354    1.1240776   396900 
 2543000   0.74894922   -4.5618364   -4.5618364   -3.4384154 0.0075653305   -4.5618364     1.123421   396900 
 2544000   0.74937542   -4.5611891   -4.5611891   -3.4371288  0.010701921   -4.5611891    1.1240603   396900 
 2545000   0.74873645   -4.5636809   -4.5636809   -3.4405791 0.0096146633   -4.5636809    1.1231018   396900 
 2546000   0.74852609   -4.5657716   -4.5657716   -3.4429853  0.008424458   -4.5657716    1.1227863   396900 
 2547000   0.74766834   -4.5642804   -4.5642804   -3.4427807  0.010803293   -4.5642804    1.1214997   396900 
 2548000   0.74797204   -4.5668596   -4.5668596   -3.4449044 0.0095133293   -4.5668596    1.1219552   396900 
 2549000   0.74794622   -4.5687837   -4.5687837   -3.4468672 0.0097109179   -4.5687837    1.1219165   396900 
 2550000   0.74719214   -4.5666271   -4.5666271   -3.4458417   0.01975359   -4.5666271    1.1207854   396900 
 2551000    0.7484812   -4.5685823   -4.5685823   -3.4458633  0.016883009   -4.5685823     1.122719   396900 
 2552000    0.7479509    -4.570799    -4.570799   -3.4488754  0.012057931    -4.570799    1.1219235   396900 
 2553000   0.74966701   -4.5719746   -4.5719746   -3.4474769   0.01166021   -4.5719746    1.1244977   396900 
 2554000   0.74797113   -4.5706938   -4.5706938   -3.4487399  0.010737288   -4.5706938    1.1219539   396900 
 2555000   0.74792011   -4.5719811   -4.5719811   -3.4501038  0.010231019   -4.5719811    1.1218773   396900 
 2556000   0.74707046   -4.5727755   -4.5727755   -3.4521726 0.0090511241   -4.5727755    1.1206029   396900 
 2557000    0.7472041   -4.5733693   -4.5733693    -3.452566 0.0045744349   -4.5733693    1.1208033   396900 
 2558000   0.74693501   -4.5724472   -4.5724472   -3.4520475 0.0071609461   -4.5724472    1.1203997   396900 
 2559000   0.74761986   -4.5722724   -4.5722724   -3.4508454   0.01258433   -4.5722724     1.121427   396900 
 2560000   0.74752197   -4.5739332   -4.5739332    -3.452653  0.012112776   -4.5739332    1.1212801   396900 
 2561000   0.74740144   -4.5727019   -4.5727019   -3.4516026  0.010705498   -4.5727019    1.1210993   396900 
 2562000   0.74728156   -4.5729468   -4.5729468   -3.4520273 0.0095216547   -4.5729468    1.1209195   396900 
 2563000   0.74593502   -4.5731329   -4.5731329   -3.4542332 0.0075736487   -4.5731329    1.1188997   396900 
 2564000    0.7483464   -4.5754022   -4.5754022   -3.4528855  0.006985092   -4.5754022    1.1225168   396900 
 2565000   0.74743768   -4.5749777   -4.5749777    -3.453824  0.011855874   -4.5749777    1.1211537   396900 
 2566000   0.74628295   -4.5753086   -4.5753086    -3.455887 0.0082846377   -4.5753086    1.1194216   396900 
 2567000   0.74562457   -4.5742762   -4.5742762   -3.4558421  0.011307612   -4.5742762     1.118434   396900 
 2568000   0.74609666   -4.5745038   -4.5745038   -3.4553617  0.011212142   -4.5745038    1.1191422   396900 
 2569000   0.74627851   -4.5749992   -4.5749992   -3.4555843    0.0125508   -4.5749992    1.1194149   396900 
 2570000   0.74520217   -4.5740678   -4.5740678   -3.4562674 0.0093420839   -4.5740678    1.1178004   396900 
 2571000   0.74478809   -4.5741206   -4.5741206   -3.4569413 0.0082669994   -4.5741206    1.1171793   396900 
 2572000   0.74384883   -4.5750372   -4.5750372   -3.4592668  0.010072898   -4.5750372    1.1157704   396900 
 2573000   0.74580141   -4.5785531   -4.5785531   -3.4598538 0.0075506854   -4.5785531    1.1186993   396900 
 2574000   0.74591931   -4.5772728   -4.5772728   -3.4583966  0.013307028   -4.5772728    1.1188761   396900 
 2575000   0.74560223   -4.5779268   -4.5779268   -3.4595263  0.010222354   -4.5779268    1.1184005   396900 
 2576000    0.7433962   -4.5769743   -4.5769743   -3.4618828 0.0070303684   -4.5769743    1.1150915   396900 
 2577000   0.74499425   -4.5795156   -4.5795156    -3.462027 0.0083863345   -4.5795156    1.1174886   396900 
 2578000   0.74669349   -4.5820509   -4.5820509   -3.4620135  0.013005094   -4.5820509    1.1200374   396900 
 2579000   0.74558589   -4.5804946   -4.5804946   -3.4621186  0.013951239   -4.5804946     1.118376   396900 
 2580000   0.74455864   -4.5807715   -4.5807715   -3.4639364  0.017039575   -4.5807715    1.1168351   396900 
 2581000   0.74528878   -4.5836606   -4.5836606   -3.4657303 0.0097276811   -4.5836606    1.1179304   396900 
 2582000    0.7440096    -4.583507    -4.583507   -3.4674955 0.0090670308    -4.583507    1.1160116   396900 
 2583000   0.74330186   -4.5824348   -4.5824348   -3.4674848  0.013634926   -4.5824348      1.11495   396900 
 2584000   0.74347462   -4.5824417   -4.5824417   -3.4672326  0.014193906   -4.5824417    1.1152091   396900 
 2585000   0.74377108   -4.5834545   -4.5834545   -3.4678006 0.0091450211   -4.5834545    1.1156538   396900 
 2586000   0.74480145   -4.5860306   -4.5860306   -3.4688312 0.0088454147   -4.5860306    1.1171994   396900 
 2587000   0.74310593   -4.5851187   -4.5851187   -3.4704626 0.0090891149   -4.5851187    1.1146561   396900 
 2588000   0.74489139   -4.5865976   -4.5865976   -3.4692634 0.0097143522   -4.5865976    1.1173343   396900 
 2589000   0.74422821   -4.5866682   -4.5866682   -3.4703287 0.0050460036   -4.5866682    1.1163395   396900 
 2590000   0.74331343   -4.5846123   -4.5846123   -3.4696449  0.010575181   -4.5846123    1.1149673   396900 
 2591000   0.74417597   -4.5873222   -4.5873222    -3.471061 0.0074956152   -4.5873222    1.1162611   396900 
 2592000   0.74334974   -4.5875659   -4.5875659   -3.4725441  0.010086473   -4.5875659    1.1150218   396900 
 2593000   0.74403031   -4.5876296   -4.5876296   -3.4715869 0.0090499345   -4.5876296    1.1160427   396900 
 2594000   0.74360641   -4.5876926   -4.5876926   -3.4722858  0.011042416   -4.5876926    1.1154068   396900 
 2595000   0.74364746   -4.5888839   -4.5888839   -3.4734156  0.010544754   -4.5888839    1.1154684   396900 
 2596000   0.74276704   -4.5896008   -4.5896008    -3.475453  0.010770826   -4.5896008    1.1141477   396900 
 2597000   0.74394466   -4.5904144   -4.5904144   -3.4745002  0.013511035   -4.5904144    1.1159142   396900 
 2598000   0.74169486   -4.5892436   -4.5892436   -3.4767042   0.01013754   -4.5892436    1.1125395   396900 
 2599000   0.74239031   -4.5901285   -4.5901285   -3.4765459 0.0073733853   -4.5901285    1.1135827   396900 
 2600000   0.74311132   -4.5943492   -4.5943492   -3.4796851  0.005223967   -4.5943492    1.1146642   396900 
 2601000    0.7419859   -4.5930369   -4.5930369   -3.4800609 0.0043235266   -4.5930369     1.112976   396900 
 2602000   0.74185973    -4.593175    -4.593175   -3.4803882  0.007575483    -4.593175    1.1127868   396900 
 2603000   0.74026437   -4.5913273   -4.5913273   -3.4809335  0.012426563   -4.5913273    1.1103938   396900 
 2604000   0.74332039   -4.5939864   -4.5939864   -3.4790086  0.014563923   -4.5939864    1.1149778   396900 
 2605000   0.74236439   -4.5923429   -4.5923429   -3.4787991  0.014772062   -4.5923429    1.1135438   396900 
 2606000   0.74200989   -4.5937491   -4.5937491    -3.480737  0.012803997   -4.5937491     1.113012   396900 
 2607000   0.74048264     -4.59269     -4.59269   -3.4819688  0.010716671     -4.59269    1.1107212   396900 
 2608000   0.74092893   -4.5945348   -4.5945348   -3.4831442 0.0049111264   -4.5945348    1.1113906   396900 
 2609000    0.7414462   -4.5937412   -4.5937412   -3.4815747  0.010831028   -4.5937412    1.1121665   396900 
 2610000   0.74168905   -4.5953327   -4.5953327   -3.4828019  0.011681929   -4.5953327    1.1125308   396900 
 2611000   0.74177965   -4.5946277   -4.5946277    -3.481961  0.011376939   -4.5946277    1.1126667   396900 
 2612000   0.74188665   -4.5965329   -4.5965329   -3.4837057  0.011012856   -4.5965329    1.1128272   396900 
 2613000   0.74183665   -4.5979307   -4.5979307   -3.4851785 0.0079690418   -4.5979307    1.1127522   396900 
 2614000   0.74014799   -4.5975207   -4.5975207   -3.4873015 0.0088343394   -4.5975207    1.1102192   396900 
 2615000   0.74072949   -4.5980567   -4.5980567   -3.4869653  0.010139599   -4.5980567    1.1110914   396900 
 2616000   0.74117094   -4.6003522   -4.6003522   -3.4885986  0.012259285   -4.6003522    1.1117536   396900 
 2617000   0.74135012   -4.6017349   -4.6017349   -3.4897126  0.010479553   -4.6017349    1.1120224   396900 
 2618000    0.7414012    -4.601354    -4.601354    -3.489255  0.015086672    -4.601354     1.112099   396900 
 2619000    0.7395512    -4.598798    -4.598798    -3.489474  0.014985399    -4.598798     1.109324   396900 
 2620000   0.73962755   -4.6001771   -4.6001771   -3.4907386  0.013188184   -4.6001771    1.1094385   396900 
 2621000   0.73982089   -4.6022194   -4.6022194   -3.4924908  0.010052508   -4.6022194    1.1097285   396900 
 2622000   0.73915536   -4.6004033   -4.6004033    -3.491673  0.015310516   -4.6004033    1.1087302   396900 
 2623000   0.74012993    -4.603254    -4.603254   -3.4930619  0.013573558    -4.603254    1.1101921   396900 
 2624000   0.74116088   -4.6038498   -4.6038498   -3.4921113    0.0101811   -4.6038498    1.1117385   396900 
 2625000    0.7401709    -4.603203    -4.603203   -3.4929494 0.0066576235    -4.603203    1.1102536   396900 
 2626000   0.74015461   -4.6030741   -4.6030741    -3.492845  0.010380429   -4.6030741    1.1102291   396900 
 2627000   0.74110785   -4.6035112   -4.6035112   -3.4918522  0.013524719   -4.6035112     1.111659   396900 
 2628000   0.73986458   -4.6040637   -4.6040637   -3.4942696  0.012041777   -4.6040637    1.1097941   396900 
 2629000   0.74064927   -4.6061266   -4.6061266   -3.4951555 0.0074440121   -4.6061266    1.1109711   396900 
 2630000   0.73957952   -4.6051618   -4.6051618   -3.4957953  0.012854611   -4.6051618    1.1093665   396900 
 2631000    0.7398008   -4.6053473   -4.6053473   -3.4956489  0.011924984   -4.6053473    1.1096984   396900 
 2632000    0.7396628   -4.6060209   -4.6060209   -3.4965295  0.010811792   -4.6060209    1.1094914   396900 
 2633000    0.7415973   -4.6093411   -4.6093411    -3.496948  0.010392871   -4.6093411    1.1123931   396900 
 2634000   0.73911075   -4.6100419   -4.6100419   -3.5013786 0.0099022854   -4.6100419    1.1086633   396900 
 2635000   0.73991768   -4.6113403   -4.6113403   -3.5014665 0.0080181218   -4.6113403    1.1098737   396900 
 2636000   0.73811306   -4.6101857   -4.6101857   -3.5030189 0.0083724728   -4.6101857    1.1071668   396900 
 2637000   0.73701419    -4.611753    -4.611753   -3.5062345 0.0049513321    -4.611753    1.1055185   396900 
 2638000   0.73877953   -4.6129413   -4.6129413   -3.5047748  0.011940889   -4.6129413    1.1081665   396900 
 2639000   0.73885167   -4.6132334   -4.6132334   -3.5049587  0.012760294   -4.6132334    1.1082747   396900 
 2640000   0.73837988   -4.6122784   -4.6122784   -3.5047114  0.011900894   -4.6122784     1.107567   396900 
 2641000   0.73784536    -4.612127    -4.612127   -3.5053618  0.013883519    -4.612127    1.1067652   396900 
 2642000   0.73890519   -4.6150758   -4.6150758   -3.5067208   0.01008309   -4.6150758     1.108355   396900 
 2643000   0.73701855   -4.6139443   -4.6139443   -3.5084193  0.010313323   -4.6139443     1.105525   396900 
 2644000   0.73675903    -4.614206    -4.614206   -3.5090702  0.013349849    -4.614206    1.1051358   396900 
 2645000   0.73733652   -4.6142035   -4.6142035   -3.5082015  0.015769691   -4.6142035     1.106002   396900 
 2646000   0.73869151   -4.6179364   -4.6179364    -3.509902 0.0062788052   -4.6179364    1.1080345   396900 
 2647000   0.73723297   -4.6167956   -4.6167956   -3.5109489   0.00814994   -4.6167956    1.1058467   396900 
 2648000   0.73792074   -4.6184754   -4.6184754   -3.5115971 0.0086521481   -4.6184754    1.1068783   396900 
 2649000   0.73772793    -4.619326    -4.619326   -3.5127369  0.010949066    -4.619326    1.1065891   396900 
 2650000   0.73812934   -4.6184469   -4.6184469   -3.5112557  0.013449473   -4.6184469    1.1071912   396900 
 2651000   0.73657617   -4.6201046   -4.6201046   -3.5152431 0.0088753369   -4.6201046    1.1048615   396900 
 2652000   0.73685145   -4.6192634   -4.6192634   -3.5139891  0.012170811   -4.6192634    1.1052744   396900 
 2653000    0.7368139   -4.6202285   -4.6202285   -3.5150104  0.012308854   -4.6202285    1.1052181   396900 
 2654000    0.7362426   -4.6192308   -4.6192308   -3.5148697  0.011368374   -4.6192308    1.1043611   396900 
 2655000   0.73610346   -4.6196647   -4.6196647   -3.5155123  0.012468589   -4.6196647    1.1041524   396900 
 2656000   0.73574652   -4.6208496   -4.6208496   -3.5172326  0.012311805   -4.6208496     1.103617   396900 
 2657000   0.73628001   -4.6224191   -4.6224191   -3.5180019 0.0094323086   -4.6224191    1.1044172   396900 
 2658000   0.73683045   -4.6227149   -4.6227149    -3.517472  0.012761962   -4.6227149    1.1052429   396900 
 2659000   0.73643643   -4.6231942   -4.6231942   -3.5185424  0.010718424   -4.6231942    1.1046519   396900 
 2660000   0.73705039   -4.6221751   -4.6221751   -3.5166023  0.013938211   -4.6221751    1.1055728   396900 
 2661000   0.73791613   -4.6248387   -4.6248387   -3.5179673  0.010688668   -4.6248387    1.1068714   396900 
 2662000   0.73611257    -4.624029    -4.624029   -3.5198629  0.010639139    -4.624029    1.1041661   396900 
 2663000   0.73646109   -4.6248787   -4.6248787   -3.5201899 0.0062599209   -4.6248787    1.1046889   396900 
 2664000    0.7368949   -4.6255909   -4.6255909   -3.5202513 0.0084460635   -4.6255909    1.1053396   396900 
 2665000   0.73606469   -4.6244351   -4.6244351   -3.5203409 0.0071013945   -4.6244351    1.1040943   396900 
 2666000   0.73603462     -4.62529     -4.62529   -3.5212408 0.0082848689     -4.62529    1.1040492   396900 
 2667000     0.735964   -4.6256121   -4.6256121   -3.5216689 0.0090703588   -4.6256121    1.1039432   396900 
 2668000   0.73500422   -4.6252144   -4.6252144   -3.5227109 0.0081967144   -4.6252144    1.1025035   396900 
 2669000   0.73526568   -4.6247719   -4.6247719   -3.5218762  0.008686383   -4.6247719    1.1028957   396900 
 2670000   0.73562876   -4.6257027   -4.6257027   -3.5222623 0.0079737909   -4.6257027    1.1034404   396900 
 2671000    0.7350574   -4.6260253   -4.6260253   -3.5234419 0.0061154274   -4.6260253    1.1025833   396900 
 2672000    0.7352788   -4.6254204   -4.6254204    -3.522505 0.0060530044   -4.6254204    1.1029154   396900 
 2673000   0.73656605   -4.6282435   -4.6282435   -3.5233972  0.006082753   -4.6282435    1.1048463   396900 
 2674000   0.73531601   -4.6274768   -4.6274768   -3.5245056 0.0055623363   -4.6274768    1.1029712   396900 
 2675000   0.73598845   -4.6287827   -4.6287827   -3.5248028  0.007511138   -4.6287827    1.1039799   396900 
 2676000   0.73548914   -4.6304894   -4.6304894   -3.5272585  0.012884284   -4.6304894    1.1032309   396900 
 2677000   0.73487473   -4.6307473   -4.6307473    -3.528438  0.010422628   -4.6307473    1.1023093   396900 
 2678000    0.7352888   -4.6321967   -4.6321967   -3.5292663 0.0061103654   -4.6321967    1.1029304   396900 
 2679000   0.73533134   -4.6320938   -4.6320938   -3.5290996  0.012230792   -4.6320938    1.1029942   396900 
 2680000    0.7354342   -4.6319853   -4.6319853   -3.5288368  0.012897255   -4.6319853    1.1031485   396900 
 2681000   0.73506279   -4.6306534   -4.6306534    -3.528062  0.019039277   -4.6306534    1.1025914   396900 
 2682000   0.73527851   -4.6320994   -4.6320994   -3.5291844   0.01260809   -4.6320994     1.102915   396900 
 2683000   0.73595106   -4.6341007   -4.6341007   -3.5301769  0.011590912   -4.6341007    1.1039238   396900 
 2684000   0.73348127   -4.6328209   -4.6328209   -3.5326017 0.0074258013   -4.6328209    1.1002191   396900 
 2685000   0.73143057    -4.633667    -4.633667    -3.536524 0.0093112898    -4.633667    1.0971431   396900 
 2686000   0.73459427   -4.6330317   -4.6330317   -3.5311431  0.012311869   -4.6330317    1.1018886   396900 
 2687000    0.7361624   -4.6353331   -4.6353331   -3.5310923  0.011635429   -4.6353331    1.1042408   396900 
 2688000   0.73512535   -4.6358148   -4.6358148   -3.5331296  0.012003618   -4.6358148    1.1026853   396900 
 2689000   0.73428015   -4.6368644   -4.6368644   -3.5354469 0.0065038196   -4.6368644    1.1014174   396900 
 2690000   0.73306675   -4.6358336   -4.6358336   -3.5362362 0.0098760255   -4.6358336    1.0995974   396900 
 2691000    0.7338455   -4.6372753   -4.6372753   -3.5365099 0.0093160532   -4.6372753    1.1007655   396900 
 2692000   0.73358839   -4.6369924   -4.6369924   -3.5366126  0.011857692   -4.6369924    1.1003798   396900 
 2693000   0.73346296   -4.6375681   -4.6375681   -3.5373764  0.012178884   -4.6375681    1.1001917   396900 
 2694000   0.73384994   -4.6388002   -4.6388002    -3.538028  0.010522255   -4.6388002    1.1007721   396900 
 2695000   0.73312279   -4.6398418   -4.6398418   -3.5401604 0.0092574622   -4.6398418    1.0996814   396900 
 2696000   0.73234926   -4.6393323   -4.6393323   -3.5408111  0.015547382   -4.6393323    1.0985211   396900 
 2697000   0.73293616   -4.6399095   -4.6399095   -3.5405081  0.013417222   -4.6399095    1.0994015   396900 
 2698000   0.73354932   -4.6430891   -4.6430891   -3.5427679  0.006447043   -4.6430891    1.1003212   396900 
 2699000   0.73203029   -4.6419245   -4.6419245   -3.5438818  0.011599931   -4.6419245    1.0980427   396900 
 2700000    0.7341062   -4.6437948   -4.6437948   -3.5426383 0.0068015662   -4.6437948    1.1011565   396900 
 2701000   0.73140389   -4.6422158   -4.6422158   -3.5451127 0.0062174502   -4.6422158    1.0971031   396900 
 2702000   0.73044494   -4.6425284   -4.6425284   -3.5468637 0.0080858999   -4.6425284    1.0956647   396900 
 2703000   0.73109237   -4.6425386   -4.6425386   -3.5459029 0.0069213586   -4.6425386    1.0966358   396900 
 2704000   0.73095174   -4.6434983   -4.6434983   -3.5470735 0.0089222445   -4.6434983    1.0964248   396900 
 2705000   0.73107685   -4.6452809   -4.6452809   -3.5486684 0.0040971172   -4.6452809    1.0966125   396900 
 2706000   0.73342246   -4.6463009   -4.6463009     -3.54617 0.0078439278   -4.6463009    1.1001309   396900 
 2707000   0.73271924   -4.6457142   -4.6457142   -3.5466381 0.0068039812   -4.6457142    1.0990761   396900 
 2708000   0.73110539   -4.6431535   -4.6431535   -3.5464982   0.01024443   -4.6431535    1.0966553   396900 
 2709000   0.73140927   -4.6427208   -4.6427208   -3.5456096 0.0077101847   -4.6427208    1.0971111   396900 
 2710000    0.7302013   -4.6418743   -4.6418743   -3.5465751 0.0074466594   -4.6418743    1.0952992   396900 
 2711000   0.73060618    -4.644157    -4.644157   -3.5482505 0.0095124079    -4.644157    1.0959065   396900 
 2712000   0.73195269     -4.64467     -4.64467   -3.5467437  0.011211899     -4.64467    1.0979263   396900 
 2713000   0.73158653   -4.6463145   -4.6463145   -3.5489375  0.010112398   -4.6463145     1.097377   396900 
 2714000   0.73097307   -4.6474556   -4.6474556   -3.5509987 0.0054272552   -4.6474556    1.0964568   396900 
 2715000   0.73221991   -4.6483842   -4.6483842   -3.5500571  0.008341477   -4.6483842    1.0983271   396900 
 2716000   0.73041991    -4.648456    -4.648456   -3.5528289  0.009560266    -4.648456    1.0956271   396900 
 2717000   0.73212456   -4.6503091   -4.6503091    -3.552125   0.01022015   -4.6503091    1.0981841   396900 
 2718000   0.73016346   -4.6488768   -4.6488768   -3.5536343  0.011248945   -4.6488768    1.0952424   396900 
 2719000   0.73051061   -4.6494405   -4.6494405   -3.5536773  0.010769144   -4.6494405    1.0957632   396900 
 2720000    0.7317761   -4.6500524   -4.6500524    -3.552391  0.010338452   -4.6500524    1.0976614   396900 
 2721000   0.73121895   -4.6495012   -4.6495012   -3.5526755  0.010923285   -4.6495012    1.0968257   396900 
 2722000    0.7320595   -4.6519221   -4.6519221   -3.5538356 0.0099658606   -4.6519221    1.0980865   396900 
 2723000   0.73122083   -4.6524512   -4.6524512   -3.5556227 0.0051171596   -4.6524512    1.0968285   396900 
 2724000   0.73052701   -4.6512122   -4.6512122   -3.5554245  0.010925487   -4.6512122    1.0957877   396900 
 2725000   0.72845321   -4.6488376   -4.6488376   -3.5561605 0.0099350516   -4.6488376    1.0926771   396900 
 2726000   0.72977154   -4.6521412   -4.6521412   -3.5574866 0.0075280327   -4.6521412    1.0946546   396900 
 2727000   0.73126328   -4.6526868   -4.6526868   -3.5557947  0.010885976   -4.6526868    1.0968922   396900 
 2728000   0.72904878   -4.6540365   -4.6540365   -3.5604661 0.0088879119   -4.6540365    1.0935704   396900 
 2729000   0.73054712   -4.6563974   -4.6563974   -3.5605795  0.010617758   -4.6563974    1.0958179   396900 
 2730000   0.72949136   -4.6563227   -4.6563227   -3.5620884 0.0088837734   -4.6563227    1.0942343   396900 
 2731000   0.72889302   -4.6562752   -4.6562752   -3.5629384  0.013218193   -4.6562752    1.0933368   396900 
 2732000   0.72984114   -4.6563556   -4.6563556   -3.5615967 0.0091043595   -4.6563556    1.0947589   396900 
 2733000   0.72889116   -4.6537069   -4.6537069   -3.5603729  0.009830147   -4.6537069     1.093334   396900 
 2734000   0.73069334   -4.6584367   -4.6584367   -3.5623995 0.0088766394   -4.6584367    1.0960373   396900 
 2735000   0.72894371   -4.6566558   -4.6566558    -3.563243  0.010930498   -4.6566558    1.0934128   396900 
 2736000   0.72795385    -4.657187    -4.657187   -3.5652589  0.010592199    -4.657187     1.091928   396900 
 2737000    0.7274704   -4.6585025   -4.6585025   -3.5672997 0.0054315812   -4.6585025    1.0912029   396900 
 2738000   0.72861291   -4.6604039   -4.6604039   -3.5674873 0.0049166479   -4.6604039    1.0929166   396900 
 2739000   0.72948153   -4.6606276   -4.6606276    -3.566408 0.0047866693   -4.6606276    1.0942195   396900 
 2740000   0.72770065   -4.6591096   -4.6591096   -3.5675614 0.0073259753   -4.6591096    1.0915482   396900 
 2741000   0.72826662   -4.6615965   -4.6615965   -3.5691993 0.0078631671   -4.6615965    1.0923972   396900 
 2742000   0.72840053   -4.6602727   -4.6602727   -3.5676747  0.013706648   -4.6602727     1.092598   396900 
 2743000   0.72795746   -4.6618505   -4.6618505    -3.569917  0.010727664   -4.6618505    1.0919334   396900 
 2744000   0.72926301   -4.6615531   -4.6615531   -3.5676613  0.010454109   -4.6615531    1.0938918   396900 
 2745000    0.7296651   -4.6633189   -4.6633189   -3.5688241  0.011832468   -4.6633189    1.0944949   396900 
 2746000   0.72870726   -4.6644584   -4.6644584   -3.5714003 0.0056470331   -4.6644584    1.0930581   396900 
 2747000   0.72772153   -4.6643932   -4.6643932   -3.5728136  0.006410388   -4.6643932    1.0915795   396900 
 2748000   0.72816058   -4.6633947   -4.6633947   -3.5711565  0.011488998   -4.6633947    1.0922381   396900 
 2749000   0.72821974   -4.6645552   -4.6645552   -3.5722283 0.0093388521   -4.6645552    1.0923269   396900 
 2750000   0.72964278   -4.6657235   -4.6657235   -3.5712621 0.0077778203   -4.6657235    1.0944614   396900 
 2751000   0.72778557   -4.6654011   -4.6654011   -3.5737255  0.010864719   -4.6654011    1.0916756   396900 
 2752000   0.72713592    -4.665176    -4.665176   -3.5744749 0.0091216763    -4.665176    1.0907011   396900 
 2753000     0.727015     -4.66542     -4.66542   -3.5749003  0.011182725     -4.66542    1.0905197   396900 
 2754000   0.72641238   -4.6644211   -4.6644211   -3.5748052 0.0093190604   -4.6644211    1.0896158   396900 
 2755000   0.72739482   -4.6655058   -4.6655058   -3.5744163  0.008337412   -4.6655058    1.0910895   396900 
 2756000   0.72712662   -4.6672755   -4.6672755   -3.5765883 0.0053784441   -4.6672755    1.0906872   396900 
 2757000   0.72653281   -4.6667095   -4.6667095    -3.576913 0.0081853188   -4.6667095    1.0897965   396900 
 2758000    0.7273522   -4.6688265   -4.6688265    -3.577801 0.0068559398   -4.6688265    1.0910256   396900 
 2759000   0.72608957   -4.6661373   -4.6661373   -3.5770057 0.0088842843   -4.6661373    1.0891316   396900 
 2760000   0.72695822    -4.667956    -4.667956   -3.5775214 0.0050215671    -4.667956    1.0904346   396900 
 2761000   0.72805329   -4.6696663   -4.6696663   -3.5775891 0.0082837126   -4.6696663    1.0920772   396900 
 2762000   0.72551802   -4.6678139   -4.6678139   -3.5795396  0.011610692   -4.6678139    1.0882743   396900 
 2763000   0.72604452    -4.670095    -4.670095    -3.581031  0.010379325    -4.670095     1.089064   396900 
 2764000   0.72667595   -4.6711997   -4.6711997   -3.5811885 0.0056031317   -4.6711997    1.0900112   396900 
 2765000   0.72476877   -4.6707489   -4.6707489   -3.5835985 0.0081962236   -4.6707489    1.0871504   396900 
 2766000   0.72658653   -4.6730413   -4.6730413   -3.5831643 0.0029891154   -4.6730413    1.0898771   396900 
 2767000   0.72514655   -4.6711292   -4.6711292   -3.5834121 0.0091526496   -4.6711292    1.0877171   396900 
 2768000   0.72604859   -4.6727169   -4.6727169   -3.5836467 0.0097958506   -4.6727169    1.0890701   396900 
 2769000   0.72670032   -4.6732118   -4.6732118    -3.583164 0.0090476818   -4.6732118    1.0900477   396900 
 2770000   0.72642589   -4.6723603   -4.6723603   -3.5827242 0.0093503934   -4.6723603    1.0896361   396900 
 2771000   0.72558501     -4.67373     -4.67373   -3.5853553 0.0084635195     -4.67373    1.0883748   396900 
 2772000   0.72614784   -4.6725048   -4.6725048   -3.5832858  0.011675164   -4.6725048     1.089219   396900 
 2773000   0.72694365   -4.6750186   -4.6750186   -3.5846058 0.0076346723   -4.6750186    1.0904127   396900 
 2774000   0.72574452   -4.6749588   -4.6749588   -3.5863447 0.0057793009   -4.6749588     1.088614   396900 
 2775000   0.72294904   -4.6716865   -4.6716865   -3.5872656  0.011802355   -4.6716865    1.0844208   396900 
 2776000   0.72523091   -4.6740305   -4.6740305   -3.5861868  0.010346985   -4.6740305    1.0878436   396900 
 2777000   0.72459872   -4.6744825   -4.6744825   -3.5875872  0.011304431   -4.6744825    1.0868953   396900 
 2778000   0.72596217   -4.6768444   -4.6768444   -3.5879039 0.0051211487   -4.6768444    1.0889405   396900 
 2779000   0.72501177    -4.677488    -4.677488   -3.5899731  0.011604301    -4.677488    1.0875149   396900 
 2780000   0.72410836   -4.6778104   -4.6778104   -3.5916506 0.0084651266   -4.6778104    1.0861598   396900 
 2781000   0.72394374   -4.6794151   -4.6794151   -3.5935022 0.0029874032   -4.6794151    1.0859129   396900 
 2782000   0.72223221   -4.6771997   -4.6771997   -3.5938541  0.010755749   -4.6771997    1.0833456   396900 
 2783000   0.72434407   -4.6794531   -4.6794531   -3.5929397  0.010298469   -4.6794531    1.0865134   396900 
 2784000   0.72553492   -4.6808736   -4.6808736    -3.592574 0.0089762853   -4.6808736    1.0882996   396900 
 2785000   0.72408387   -4.6816735   -4.6816735   -3.5955504 0.0093540806   -4.6816735    1.0861231   396900 
 2786000   0.72497471    -4.682119    -4.682119   -3.5946596 0.0084716016    -4.682119    1.0874593   396900 
 2787000    0.7237813   -4.6823755   -4.6823755   -3.5967063 0.0073484005   -4.6823755    1.0856692   396900 
 2788000    0.7245951   -4.6832827   -4.6832827   -3.5963928 0.0063595316   -4.6832827    1.0868899   396900 
 2789000   0.72341915   -4.6834432   -4.6834432   -3.5983172 0.0067522729   -4.6834432     1.085126   396900 
 2790000   0.72333827   -4.6819117   -4.6819117    -3.596907  0.010933253   -4.6819117    1.0850047   396900 
 2791000   0.72421249    -4.683667    -4.683667    -3.597351 0.0087360001    -4.683667     1.086316   396900 
 2792000    0.7229238   -4.6847987   -4.6847987   -3.6004157 0.0079848703   -4.6847987     1.084383   396900 
 2793000    0.7231413   -4.6825721   -4.6825721   -3.5978629  0.012495179   -4.6825721    1.0847092   396900 
 2794000   0.72361738   -4.6833681   -4.6833681   -3.5979448 0.0092092186   -4.6833681    1.0854233   396900 
 2795000   0.72366899   -4.6842167   -4.6842167   -3.5987159 0.0067398057   -4.6842167    1.0855008   396900 
 2796000   0.72256765   -4.6847146   -4.6847146   -3.6008659 0.0072577608   -4.6847146    1.0838487   396900 
 2797000    0.7215517   -4.6854315   -4.6854315   -3.6031067 0.0056763391   -4.6854315    1.0823248   396900 
 2798000   0.72246791   -4.6863398   -4.6863398   -3.6026407 0.0068024226   -4.6863398    1.0836991   396900 
 2799000   0.72262162   -4.6884574   -4.6884574   -3.6045277  0.005203493   -4.6884574    1.0839297   396900 
 2800000   0.72237667   -4.6888979   -4.6888979   -3.6053356 0.0050969063   -4.6888979    1.0835623   396900 
 2801000   0.72214099   -4.6886323   -4.6886323   -3.6054236  0.011857364   -4.6886323    1.0832088   396900 
 2802000   0.72233943   -4.6889796   -4.6889796   -3.6054732  0.010600206   -4.6889796    1.0835064   396900 
 2803000   0.72188416   -4.6898409   -4.6898409   -3.6070173 0.0058925209   -4.6898409    1.0828235   396900 
 2804000   0.72207554   -4.6906849   -4.6906849   -3.6075743  0.007789911   -4.6906849    1.0831106   396900 
 2805000   0.72039683   -4.6902819   -4.6902819   -3.6096894  0.010488195   -4.6902819    1.0805925   396900 
 2806000   0.72124459   -4.6909297   -4.6909297   -3.6090656 0.0093212462   -4.6909297    1.0818642   396900 
 2807000   0.72293939   -4.6921097   -4.6921097   -3.6077033 0.0078824656   -4.6921097    1.0844064   396900 
 2808000   0.72177169   -4.6913172   -4.6913172   -3.6086623 0.0086322611   -4.6913172    1.0826548   396900 
 2809000   0.72187654   -4.6926406   -4.6926406   -3.6098285  0.007777557   -4.6926406    1.0828121   396900 
 2810000   0.72245186   -4.6914918   -4.6914918   -3.6078167 0.0078768701   -4.6914918    1.0836751   396900 
 2811000   0.72096193   -4.6904188   -4.6904188   -3.6089786 0.0060552251   -4.6904188    1.0814402   396900 
 2812000   0.71894571   -4.6902139   -4.6902139    -3.611798 0.0038935971   -4.6902139    1.0784159   396900 
 2813000   0.72064192   -4.6918047   -4.6918047   -3.6108445  0.010952459   -4.6918047    1.0809602   396900 
 2814000   0.72276302   -4.6951527   -4.6951527   -3.6110109 0.0070207468   -4.6951527    1.0841418   396900 
 2815000   0.72070789   -4.6936525   -4.6936525   -3.6125934 0.0081331053   -4.6936525    1.0810591   396900 
 2816000   0.72158404   -4.6969751   -4.6969751   -3.6146017 0.0051144215   -4.6969751    1.0823733   396900 
 2817000    0.7206796   -4.6967921   -4.6967921   -3.6157754 0.0085501416   -4.6967921    1.0810167   396900 
 2818000   0.72183726   -4.6982766   -4.6982766   -3.6155234 0.0065667127   -4.6982766    1.0827532   396900 
 2819000   0.71883182   -4.6959298   -4.6959298   -3.6176848 0.0076631657   -4.6959298     1.078245   396900 
 2820000    0.7186124   -4.6969495   -4.6969495   -3.6190336 0.0046905388   -4.6969495    1.0779159   396900 
 2821000   0.72028014   -4.6971756   -4.6971756   -3.6167581 0.0071175168   -4.6971756    1.0804175   396900 
 2822000   0.72197168   -4.6997979   -4.6997979   -3.6168431 0.0095794802   -4.6997979    1.0829548   396900 
 2823000   0.71903602   -4.6984429   -4.6984429   -3.6198916 0.0095363356   -4.6984429    1.0785513   396900 
 2824000   0.71879568   -4.6997493   -4.6997493   -3.6215585  0.011705234   -4.6997493    1.0781908   396900 
 2825000   0.71955055   -4.6996472   -4.6996472   -3.6203241  0.010856303   -4.6996472    1.0793231   396900 
 2826000   0.71804724   -4.6992242   -4.6992242   -3.6221561 0.0077941462   -4.6992242    1.0770681   396900 
 2827000   0.71898851   -4.7011761   -4.7011761   -3.6226961  0.010157998   -4.7011761      1.07848   396900 
 2828000   0.71883851   -4.7003298   -4.7003298   -3.6220748  0.011842005   -4.7003298    1.0782551   396900 
 2829000    0.7181345   -4.7015275   -4.7015275   -3.6243285  0.013199575   -4.7015275     1.077199   396900 
 2830000   0.71903126   -4.7016435   -4.7016435   -3.6230993 0.0086558365   -4.7016435    1.0785442   396900 
 2831000   0.71970705   -4.7017667   -4.7017667   -3.6222089 0.0083433692   -4.7017667    1.0795579   396900 
 2832000   0.72017087   -4.7021562   -4.7021562   -3.6219026 0.0097492148   -4.7021562    1.0802536   396900 
 2833000   0.72043925   -4.7016644   -4.7016644   -3.6210083 0.0065249089   -4.7016644    1.0806561   396900 
 2834000   0.71976478   -4.7011148   -4.7011148   -3.6214704 0.0089393875   -4.7011148    1.0796444   396900 
 2835000   0.71946535   -4.7043657   -4.7043657   -3.6251704 0.0011835872   -4.7043657    1.0791953   396900 
 2836000   0.71841097   -4.7017714   -4.7017714   -3.6241577 0.0044150354   -4.7017714    1.0776137   396900 
 2837000     0.719874   -4.7037069   -4.7037069   -3.6238986 0.0068614783   -4.7037069    1.0798083   396900 
 2838000   0.71982599   -4.7034981   -4.7034981   -3.6237619 0.0070702926   -4.7034981    1.0797363   396900 
 2839000   0.71991943   -4.7067456   -4.7067456   -3.6268691  0.011121532   -4.7067456    1.0798764   396900 
 2840000   0.71804148   -4.7048896   -4.7048896   -3.6278301 0.0076015896   -4.7048896    1.0770595   396900 
 2841000   0.71837152   -4.7075036   -4.7075036   -3.6299491 0.0072763562   -4.7075036    1.0775546   396900 
 2842000   0.71857123   -4.7082921   -4.7082921    -3.630438  0.008585697   -4.7082921    1.0778541   396900 
 2843000   0.71809655   -4.7079886   -4.7079886   -3.6308464  0.010331948   -4.7079886    1.0771421   396900 
 2844000   0.71795485   -4.7097767   -4.7097767   -3.6328472 0.0074001296   -4.7097767    1.0769296   396900 
 2845000   0.71976147   -4.7105167   -4.7105167   -3.6308772  0.011460936   -4.7105167    1.0796395   396900 
 2846000   0.71827854   -4.7106673   -4.7106673   -3.6332522  0.012487283   -4.7106673    1.0774151   396900 
 2847000   0.71743183   -4.7106045   -4.7106045   -3.6344595  0.010255658   -4.7106045     1.076145   396900 
 2848000   0.71712953   -4.7107046   -4.7107046   -3.6350131 0.0083280877   -4.7107046    1.0756916   396900 
 2849000   0.71770353   -4.7107987   -4.7107987   -3.6342461 0.0051117906   -4.7107987    1.0765526   396900 
 2850000   0.71677795   -4.7097782   -4.7097782   -3.6346139 0.0046639667   -4.7097782    1.0751642   396900 
 2851000   0.71660633   -4.7099243   -4.7099243   -3.6350175 0.0089939567   -4.7099243    1.0749068   396900 
 2852000   0.71676923   -4.7090012   -4.7090012     -3.63385 0.0054093965   -4.7090012    1.0751511   396900 
 2853000   0.71784412   -4.7105696   -4.7105696   -3.6338061 0.0053334606   -4.7105696    1.0767635   396900 
 2854000   0.71807693   -4.7113795   -4.7113795   -3.6342668 0.0062956223   -4.7113795    1.0771127   396900 
 2855000   0.71652436    -4.708603    -4.708603   -3.6338192  0.013802623    -4.708603    1.0747838   396900 
 2856000   0.71712544   -4.7113662   -4.7113662   -3.6356808  0.011416408   -4.7113662    1.0756854   396900 
 2857000   0.71707179   -4.7130511   -4.7130511   -3.6374461 0.0051913797   -4.7130511     1.075605   396900 
 2858000    0.7159457   -4.7118245   -4.7118245   -3.6379086 0.0045099514   -4.7118245    1.0739158   396900 
 2859000   0.71545086   -4.7120524   -4.7120524   -3.6388789 0.0060782884   -4.7120524    1.0731736   396900 
 2860000   0.71654098   -4.7137088   -4.7137088      -3.6389 0.0074499243   -4.7137088    1.0748088   396900 
 2861000   0.71521034   -4.7142209   -4.7142209   -3.6414081 0.0047868854   -4.7142209    1.0728128   396900 
 2862000   0.71607002   -4.7149461   -4.7149461   -3.6408438 0.0032439438   -4.7149461    1.0741023   396900 
 2863000    0.7169448   -4.7165735   -4.7165735    -3.641159 0.0053705309   -4.7165735    1.0754145   396900 
 2864000   0.71708867   -4.7187194   -4.7187194   -3.6430891 0.0024576211   -4.7187194    1.0756303   396900 
 2865000   0.71671765   -4.7175096   -4.7175096   -3.6424358 0.0075527803   -4.7175096    1.0750738   396900 
 2866000    0.7166829   -4.7174245   -4.7174245   -3.6424029 0.0043239496   -4.7174245    1.0750216   396900 
 2867000   0.71446492    -4.714378    -4.714378   -3.6426833  0.010638122    -4.714378    1.0716947   396900 
 2868000   0.71507373   -4.7178881   -4.7178881   -3.6452802 -0.00078440799   -4.7178881    1.0726079   396900 
 2869000   0.71430627   -4.7178637   -4.7178637    -3.646407 0.0029520838   -4.7178637    1.0714567   396900 
 2870000   0.71498527   -4.7179176   -4.7179176   -3.6454424 0.0060778766   -4.7179176    1.0724752   396900 
 2871000   0.71557795   -4.7209084   -4.7209084   -3.6475442 0.0033824776   -4.7209084    1.0733642   396900 
 2872000   0.71456237   -4.7187039   -4.7187039   -3.6468631 0.0056573057   -4.7187039    1.0718409   396900 
 2873000    0.7158266   -4.7201319   -4.7201319   -3.6463947 0.0075366704   -4.7201319    1.0737372   396900 
 2874000   0.71412793   -4.7204132   -4.7204132    -3.649224 0.0076124078   -4.7204132    1.0711892   396900 
 2875000   0.71419153   -4.7217526   -4.7217526    -3.650468 0.0058931565   -4.7217526    1.0712846   396900 
 2876000   0.71616687   -4.7236114   -4.7236114   -3.6493638  0.010517445   -4.7236114    1.0742476   396900 
 2877000   0.71379385   -4.7229243   -4.7229243   -3.6522362  0.011743375   -4.7229243    1.0706881   396900 
 2878000    0.7128685   -4.7233753   -4.7233753   -3.6540752 0.0079115495   -4.7233753    1.0693001   396900 
 2879000   0.71237428   -4.7255449   -4.7255449   -3.6569862 0.0068509924   -4.7255449    1.0685587   396900 
 2880000   0.71359675   -4.7277083   -4.7277083   -3.6573158 0.0068896921   -4.7277083    1.0703924   396900 
 2881000   0.71397755   -4.7287092   -4.7287092   -3.6577455 0.0073436963   -4.7287092    1.0709636   396900 
 2882000   0.71457657   -4.7299176   -4.7299176   -3.6580555 0.0082584809   -4.7299176    1.0718621   396900 
 2883000   0.71317091   -4.7272651   -4.7272651   -3.6575114 0.0092150948   -4.7272651    1.0697537   396900 
 2884000   0.71489596   -4.7297564   -4.7297564   -3.6574152 0.0049178969   -4.7297564    1.0723412   396900 
 2885000   0.71293301   -4.7278923   -4.7278923   -3.6584955  0.012043548   -4.7278923    1.0693968   396900 
 2886000   0.71340662   -4.7299388   -4.7299388   -3.6598316  0.013108226   -4.7299388    1.0701072   396900 
 2887000   0.71447696   -4.7312551   -4.7312551   -3.6595424 0.0095867113   -4.7312551    1.0717127   396900 
 2888000   0.71305147   -4.7300156   -4.7300156   -3.6604411 0.0075360814   -4.7300156    1.0695745   396900 
 2889000   0.71208016   -4.7295617   -4.7295617   -3.6614442  0.012384543   -4.7295617    1.0681175   396900 
 2890000   0.71284566   -4.7306477   -4.7306477   -3.6613819  0.012769412   -4.7306477    1.0692658   396900 
 2891000   0.71342163   -4.7317844   -4.7317844   -3.6616546  0.011587567   -4.7317844    1.0701298   396900 
 2892000   0.71415795   -4.7316428   -4.7316428   -3.6604085  0.010456932   -4.7316428    1.0712342   396900 
 2893000   0.71340312   -4.7335185   -4.7335185   -3.6634165 0.0051493553   -4.7335185     1.070102   396900 
 2894000   0.71223682   -4.7342505   -4.7342505   -3.6658979 0.0057126188   -4.7342505    1.0683525   396900 
 2895000   0.71234148   -4.7340287   -4.7340287   -3.6655192 0.0034490935   -4.7340287    1.0685095   396900 
 2896000   0.71232228   -4.7341705   -4.7341705   -3.6656898 0.0076064536   -4.7341705    1.0684807   396900 
 2897000   0.71289927   -4.7347226   -4.7347226   -3.6653764 0.0079200151   -4.7347226    1.0693462   396900 
 2898000   0.71259924   -4.7342608   -4.7342608   -3.6653646 0.0093334674   -4.7342608    1.0688962   396900 
 2899000   0.71397651    -4.736393    -4.736393    -3.665431 0.0098790462    -4.736393    1.0709621   396900 
 2900000      0.71265   -4.7338685   -4.7338685   -3.6648962  0.011006464   -4.7338685    1.0689723   396900 
 2901000   0.71252537   -4.7330423   -4.7330423   -3.6642569 0.0081801566   -4.7330423    1.0687854   396900 
 2902000   0.71191047   -4.7336449   -4.7336449   -3.6657819  0.002497287   -4.7336449     1.067863   396900 
 2903000   0.71243871   -4.7351565   -4.7351565   -3.6665011 0.0022689743   -4.7351565    1.0686554   396900 
 2904000   0.71292965     -4.73647     -4.73647   -3.6670782 0.0022850148     -4.73647    1.0693918   396900 
 2905000   0.71282745   -4.7380943   -4.7380943   -3.6688559 0.0043153403   -4.7380943    1.0692385   396900 
 2906000   0.71165881   -4.7360622   -4.7360622   -3.6685767 0.0052514516   -4.7360622    1.0674855   396900 
 2907000   0.71238205   -4.7376839   -4.7376839   -3.6691135 0.0024266085   -4.7376839    1.0685704   396900 
 2908000    0.7115853    -4.737073    -4.737073   -3.6696977 0.0048678984    -4.737073    1.0673753   396900 
 2909000   0.71175313   -4.7367016   -4.7367016   -3.6690746  0.011540962   -4.7367016     1.067627   396900 
 2910000   0.71155927   -4.7397104   -4.7397104   -3.6723741 0.0065623021   -4.7397104    1.0673362   396900 
 2911000   0.71326843   -4.7407776   -4.7407776   -3.6708776 0.0056195243   -4.7407776       1.0699   396900 
 2912000   0.71126966   -4.7398562   -4.7398562   -3.6729544 0.0065793596   -4.7398562    1.0669018   396900 
 2913000   0.71154508   -4.7415924   -4.7415924   -3.6742774 0.0094827177   -4.7415924    1.0673149   396900 
 2914000    0.7126104   -4.7450351   -4.7450351   -3.6761222 0.0054746814   -4.7450351    1.0689129   396900 
 2915000   0.71186661   -4.7453435   -4.7453435   -3.6775463 0.0081619968   -4.7453435    1.0677972   396900 
 2916000   0.71084404   -4.7437092   -4.7437092   -3.6774459  0.014875293   -4.7437092    1.0662634   396900 
 2917000   0.71222078   -4.7464115   -4.7464115    -3.678083  0.011622267   -4.7464115    1.0683285   396900 
 2918000    0.7118151   -4.7468032   -4.7468032   -3.6790832  0.010231129   -4.7468032      1.06772   396900 
 2919000   0.71015328   -4.7466255   -4.7466255   -3.6813983  0.006271764   -4.7466255    1.0652272   396900 
 2920000   0.70905559   -4.7455108   -4.7455108   -3.6819301 0.0068107436   -4.7455108    1.0635807   396900 
 2921000   0.70956837   -4.7447783   -4.7447783   -3.6804284  0.010400612   -4.7447783    1.0643499   396900 
 2922000   0.70883802   -4.7468716   -4.7468716   -3.6836173  0.002021875   -4.7468716    1.0632544   396900 
 2923000    0.7098789   -4.7467143   -4.7467143   -3.6818986  0.010181389   -4.7467143    1.0648157   396900 
 2924000   0.70862974    -4.746322    -4.746322     -3.68338 0.0057236553    -4.746322    1.0629419   396900 
 2925000   0.70950898    -4.745754    -4.745754   -3.6814932  0.010951576    -4.745754    1.0642608   396900 
 2926000   0.71085047   -4.7471633   -4.7471633   -3.6808903 0.0078760858   -4.7471633     1.066273   396900 
 2927000   0.70923886   -4.7457999   -4.7457999   -3.6819443  0.011068026   -4.7457999    1.0638556   396900 
 2928000   0.71063091   -4.7496053   -4.7496053   -3.6836616 0.0080651296   -4.7496053    1.0659437   396900 
 2929000   0.70957655   -4.7516215   -4.7516215   -3.6872594 0.0038111764   -4.7516215    1.0643621   396900 
 2930000   0.70871198   -4.7500375   -4.7500375   -3.6869722 0.0079026524   -4.7500375    1.0630653   396900 
 2931000   0.70987766   -4.7518736   -4.7518736   -3.6870598 0.0050579122   -4.7518736    1.0648138   396900 
 2932000   0.70882774    -4.750855    -4.750855   -3.6876161 0.0071164662    -4.750855    1.0632389   396900 
 2933000   0.70851392   -4.7529793   -4.7529793   -3.6902111  0.009253824   -4.7529793    1.0627682   396900 
 2934000   0.71041997   -4.7543504   -4.7543504   -3.6887232 0.0098663165   -4.7543504    1.0656273   396900 
 2935000   0.71001174   -4.7537446   -4.7537446   -3.6887296 0.0043823213   -4.7537446    1.0650149   396900 
 2936000   0.70920754   -4.7536014   -4.7536014   -3.6897927 0.0069127951   -4.7536014    1.0638086   396900 
 2937000   0.70777867   -4.7522941   -4.7522941   -3.6906288  0.010172114   -4.7522941    1.0616653   396900 
 2938000   0.70836519   -4.7538792   -4.7538792   -3.6913341 0.0092558389   -4.7538792    1.0625451   396900 
 2939000   0.70871995    -4.754731    -4.754731   -3.6916537  0.005160419    -4.754731    1.0630772   396900 
 2940000   0.70703402   -4.7534418   -4.7534418   -3.6928935 0.0068846136   -4.7534418    1.0605484   396900 
 2941000   0.70857137   -4.7551659   -4.7551659   -3.6923116  0.004546811   -4.7551659    1.0628544   396900 
 2942000   0.70939259   -4.7558814   -4.7558814   -3.6917952 0.0081338836   -4.7558814    1.0640862   396900 
 2943000    0.7067498   -4.7550723   -4.7550723   -3.6949503 0.0057007779   -4.7550723     1.060122   396900 
 2944000   0.70678012   -4.7554791   -4.7554791   -3.6953116 0.0060193354   -4.7554791    1.0601675   396900 
 2945000   0.70854901   -4.7599442   -4.7599442   -3.6971233 0.0051197494   -4.7599442    1.0628208   396900 
 2946000   0.70860372   -4.7599149   -4.7599149    -3.697012 0.0088747331   -4.7599149    1.0629029   396900 
 2947000   0.70755723   -4.7609429   -4.7609429   -3.6996097  0.003873134   -4.7609429    1.0613332   396900 
 2948000   0.70742372   -4.7597995   -4.7597995   -3.6986666  0.011125744   -4.7597995    1.0611329   396900 
 2949000    0.7067951   -4.7618063   -4.7618063   -3.7016163 0.0089746618   -4.7618063      1.06019   396900 
 2950000   0.70831947   -4.7624951   -4.7624951   -3.7000186  0.014874079   -4.7624951    1.0624765   396900 
 2951000   0.70911781   -4.7637378   -4.7637378   -3.7000638  0.012711029   -4.7637378     1.063674   396900 
 2952000   0.70801111   -4.7619756   -4.7619756   -3.6999616  0.011434505   -4.7619756     1.062014   396900 
 2953000   0.70708063    -4.760446    -4.760446   -3.6998277  0.011441059    -4.760446    1.0606183   396900 
 2954000   0.70747271   -4.7635389   -4.7635389   -3.7023325  0.003955247   -4.7635389    1.0612064   396900 
 2955000   0.70608192    -4.760573    -4.760573   -3.7014528 0.0090271071    -4.760573    1.0591202   396900 
 2956000   0.70744277   -4.7623646   -4.7623646   -3.7012031 0.0073466855   -4.7623646    1.0611615   396900 
 2957000    0.7075472   -4.7622043   -4.7622043   -3.7008862 0.0072607913   -4.7622043    1.0613181   396900 
 2958000   0.70616083   -4.7606596   -4.7606596    -3.701421 0.0082417368   -4.7606596    1.0592386   396900 
 2959000    0.7067711   -4.7628112   -4.7628112   -3.7026572 0.0073293795   -4.7628112     1.060154   396900 
 2960000   0.70590513   -4.7641354   -4.7641354   -3.7052804 0.0034528146   -4.7641354     1.058855   396900 
 2961000   0.70476339   -4.7622351   -4.7622351   -3.7050926  0.011148431   -4.7622351    1.0571424   396900 
 2962000   0.70650559     -4.76466     -4.76466   -3.7049043 0.0021623979     -4.76466    1.0597557   396900 
 2963000   0.70656589   -4.7659773   -4.7659773   -3.7061311 0.0050215613   -4.7659773    1.0598462   396900 
 2964000    0.7049791   -4.7657336   -4.7657336   -3.7082676 0.0060634176   -4.7657336     1.057466   396900 
 2965000   0.70494453   -4.7643383   -4.7643383   -3.7069241 0.0040476534   -4.7643383    1.0574141   396900 
 2966000   0.70545551   -4.7649009   -4.7649009   -3.7067203 0.0068457874   -4.7649009    1.0581806   396900 
 2967000   0.70705068   -4.7697748   -4.7697748   -3.7092015  0.010089412   -4.7697748    1.0605734   396900 
 2968000   0.70582981   -4.7677885   -4.7677885   -3.7090465  0.010592229   -4.7677885     1.058742   396900 
 2969000    0.7058279   -4.7687317   -4.7687317   -3.7099925  0.010344138   -4.7687317    1.0587392   396900 
 2970000   0.70474689   -4.7695485   -4.7695485   -3.7124308  0.008009419   -4.7695485    1.0571177   396900 
 2971000    0.7058041   -4.7716779   -4.7716779   -3.7129744 0.00011129661   -4.7716779    1.0587035   396900 
 2972000   0.70578674   -4.7701687   -4.7701687   -3.7114912 0.0085954744   -4.7701687    1.0586774   396900 
 2973000   0.70591804    -4.771039    -4.771039   -3.7121646 0.0094779726    -4.771039    1.0588744   396900 
 2974000   0.70497747   -4.7710555   -4.7710555    -3.713592 0.0069274803   -4.7710555    1.0574635   396900 
 2975000   0.70450771   -4.7706179   -4.7706179   -3.7138589 0.0065234696   -4.7706179    1.0567589   396900 
 2976000   0.70364843   -4.7707462   -4.7707462   -3.7152762 0.0055211233   -4.7707462      1.05547   396900 
 2977000   0.70641709   -4.7724362   -4.7724362   -3.7128133  0.001874173   -4.7724362     1.059623   396900 
 2978000   0.70586662   -4.7703537   -4.7703537   -3.7115564 0.0042412959   -4.7703537    1.0587973   396900 
 2979000    0.7050877    -4.770386    -4.770386   -3.7127571 0.0096618088    -4.770386    1.0576289   396900 
 2980000    0.7046267   -4.7721798   -4.7721798   -3.7152424 0.0061455679   -4.7721798    1.0569374   396900 
 2981000   0.70345247   -4.7719823   -4.7719823   -3.7168062 0.0046844848   -4.7719823    1.0551761   396900 
 2982000   0.70226358   -4.7728485   -4.7728485   -3.7194558 0.0033904224   -4.7728485    1.0533927   396900 
 2983000   0.70251982   -4.7719935   -4.7719935   -3.7182164  0.010780176   -4.7719935    1.0537771   396900 
 2984000   0.70501455   -4.7760846   -4.7760846   -3.7185655 0.0053548223   -4.7760846    1.0575192   396900 
 2985000   0.70383502   -4.7744261   -4.7744261   -3.7186762  0.011135071   -4.7744261    1.0557499   396900 
 2986000   0.70311672   -4.7746901   -4.7746901   -3.7200177 0.0061270449   -4.7746901    1.0546724   396900 
 2987000    0.7036825   -4.7775802   -4.7775802   -3.7220591 0.0049871563   -4.7775802    1.0555211   396900 
 2988000   0.70543161   -4.7800832   -4.7800832   -3.7219384 0.0075101224   -4.7800832    1.0581448   396900 
 2989000   0.70375342   -4.7797573   -4.7797573   -3.7241298 0.0081400805   -4.7797573    1.0556275   396900 
 2990000    0.7035876   -4.7804017   -4.7804017    -3.725023 0.0080603126   -4.7804017    1.0553787   396900 
 2991000    0.7041115   -4.7801541   -4.7801541   -3.7239895 0.0079967492   -4.7801541    1.0561646   396900 
 2992000   0.70338628   -4.7793973   -4.7793973   -3.7243205 0.0031527061   -4.7793973    1.0550768   396900 
 2993000   0.70353706    -4.782147    -4.782147    -3.726844 0.0013624562    -4.782147    1.0553029   396900 
 2994000   0.70250018   -4.7803664   -4.7803664   -3.7266188 0.0018923328   -4.7803664    1.0537476   396900 
 2995000   0.70265339   -4.7801611   -4.7801611   -3.7261837 0.0079037882   -4.7801611    1.0539774   396900 
 2996000   0.70260708   -4.7798092   -4.7798092   -3.7259012   0.01196877   -4.7798092     1.053908   396900 
 2997000      0.70345   -4.7821932   -4.7821932   -3.7270208 0.0033304507   -4.7821932    1.0551723   396900 
 2998000   0.70221436   -4.7813213   -4.7813213   -3.7280024   0.00639321   -4.7813213    1.0533189   396900 
 2999000   0.70089185   -4.7811261   -4.7811261    -3.729791 0.0043429015   -4.7811261    1.0513351   396900 
 3000000   0.70166842   -4.7818506   -4.7818506   -3.7293506 0.0071187941   -4.7818506       1.0525   396900 
Loop time of 16272.9 on 48 procs for 3000000 steps with 396900 atoms

Performance: 79641.825 tau/day, 184.356 timesteps/s
94.2% CPU use with 48 MPI tasks x 1 OpenMP threads

MPI task timing breakdown:
Section |  min time  |  avg time  |  max time  |%varavg|  %CPU | %total
-----------------------------------------------------------------------
Pair    | 5356.7     | 8064.2     | 8842.9     |1232.3 |  98.4 | 49.56
Bond    | 2.1293     | 2.3244     | 2.5443     |   5.7 | 100.0 |  0.01
Neigh   | 2604.8     | 3587.9     | 3849.8     | 649.2 |  99.5 | 22.05
Comm    | 2080.7     | 3392.5     | 7563       |3083.9 |  85.5 | 20.85
Output  | 79.632     | 79.856     | 79.864     |   0.4 |  70.9 |  0.49
Modify  | 363.5      | 976.34     | 1385.6     |1382.2 |  90.5 |  6.00
Other   |            | 169.7      |            |       |       |  1.04

Nlocal:        8268.75 ave        8492 max        7641 min
Histogram: 1 2 0 1 1 1 0 26 10 6
Nghost:        9185.00 ave       10126 max        6331 min
Histogram: 10 2 0 0 0 0 0 0 0 36
Neighs:        315138.0 ave      333219 max      232196 min
Histogram: 4 2 0 0 0 0 0 0 7 35

Total # of neighbors = 15126643
Ave neighs/atom = 38.111975
Ave special neighs/atom = 0.0000000
Neighbor list builds = 300000
Dangerous builds = 297000

write_data	data.lj
System init for write_data ...
WARNING: Not all mixed pair coeffs generated from mixing. Use write_data with 'pair ij' option to store all pair coeffs. (src/write_data.cpp:312)
Total wall time: 4:31:13
