LAMMPS (24 Dec 2020)
OMP_NUM_THREADS environment is not set. Defaulting to 1 thread. (src/comm.cpp:94)
  using 1 OpenMP thread(s) per MPI task
# Simple rigid body system
# needed variables: startTemp, temp

units		lj
atom_style	full
dimension 	3
boundary	p p f
pair_style	lj/cut/opt 2.5


variable 	sigma		equal 1.0
variable 	epsilon 	equal 1.0


region		box block 0 160 0 160 0 160
create_box 	3 box
Created orthogonal box = (0.0000000 0.0000000 0.0000000) to (160.00000 160.00000 160.00000)
  6 by 4 by 6 MPI processor grid
lattice 	sc 1.0
Lattice spacing in x,y,z = 1.0000000 1.0000000 1.0000000

create_atoms 	1 region box
Created 4096000 atoms
  create_atoms CPU = 0.057 seconds

mass		1 1.0
mass		2 1.0
mass		3 1.0


group		solvent type 1
4096000 atoms in group solvent


velocity 	solvent create ${startTemp} 563435 loop geom
velocity 	solvent create 0.5 563435 loop geom

read_data	data.vac add append
Reading data file ...
  orthogonal box = (0.0000000 0.0000000 0.0000000) to (160.00000 160.00000 320.00000)
  4 by 4 by 9 MPI processor grid
Finding 1-2 1-3 1-4 neighbors ...
  special bond factors lj:    0        0        0       
  special bond factors coul:  0        0        0       
     0 = max # of 1-2 neighbors
     0 = max # of 1-3 neighbors
     0 = max # of 1-4 neighbors
     1 = max # of special neighbors
  special bonds CPU = 0.909 seconds
  read_data CPU = 0.947 seconds

neighbor 	0.4 bin

pair_coeff	1 1 1.0 1.0
pair_coeff	2 2 0.0 0.0
pair_coeff	3 3 0.0 0.0
pair_coeff	2 3 0.0 0.0
pair_coeff	1 2*3 0.0 0.0

pair_modify 	shift yes


balance 	1.05 shift z 10 1.05
Balancing ...
Neighbor list info ...
  update every 1 steps, delay 10 steps, check yes
  max neighbors/atom: 2000, page size: 100000
  master list distance cutoff = 2.9
  ghost atom cutoff = 2.9
  binsize = 1.45, bins = 111 111 221
  1 neighbor lists, perpetual/occasional/extra = 1 0 0
  (1) pair lj/cut/opt, perpetual
      attributes: half, newton on
      pair build: half/bin/newton
      stencil: half/bin/3d/newton
      bin: standard
 rebalancing time: 0.048 seconds
  iteration count = 5
  initial/final maximal load/proc = 57600.000 41600.000
  initial/final imbalance factor  = 2.0250000 1.4625000
  x cuts: 0.0000000 0.25000000 0.50000000 0.75000000 1.0000000
  y cuts: 0.0000000 0.25000000 0.50000000 0.75000000 1.0000000
  z cuts: 0.0000000 0.052083333 0.10416667 0.15972222 0.22569444 0.27430556 0.31944444 0.37500000 0.45486111 1.0000000


####################### WALLS ###########################


region	       low block  EDGE EDGE EDGE EDGE 0 2

region 	       top block  EDGE EDGE EDGE EDGE 159 160


delete_atoms   region low
WARNING: Ignoring 'compress yes' for molecular system (src/delete_atoms.cpp:125)
Deleted 76800 atoms, new total = 4019200

delete_atoms   region top
WARNING: Ignoring 'compress yes' for molecular system (src/delete_atoms.cpp:125)
Deleted 25600 atoms, new total = 3993600


variable       epsilonWall equal 2*${epsilon}
variable       epsilonWall equal 2*1

variable       cutoffTop   equal   0.7147*${sigma}
variable       cutoffTop   equal   0.7147*1

variable       cutoffLow   equal   3*${sigma}
variable       cutoffLow   equal   3*1


fix            topWall all wall/lj93 zhi EDGE                ${epsilonWall} ${sigma} ${cutoffTop} units box
fix            topWall all wall/lj93 zhi EDGE                2 ${sigma} ${cutoffTop} units box
fix            topWall all wall/lj93 zhi EDGE                2 1 ${cutoffTop} units box
fix            topWall all wall/lj93 zhi EDGE                2 1 0.7147 units box

fix            lowWall all wall/lj93 zlo EDGE                ${epsilonWall} ${sigma} ${cutoffLow} units box
fix            lowWall all wall/lj93 zlo EDGE                2 ${sigma} ${cutoffLow} units box
fix            lowWall all wall/lj93 zlo EDGE                2 1 ${cutoffLow} units box
fix            lowWall all wall/lj93 zlo EDGE                2 1 3 units box


###################### COMPUTES ##########################

compute        bin1 solvent chunk/atom bin/1d z upper 1.0



######################	FIXES ############################


fix 		peclet solvent ave/chunk 1000 1 1000 bin1 density/number norm 		 none ave one file density.profile

fix 		 temp solvent  ave/chunk 1000 1 1000 bin1 temp norm 		 none ave one file temp.profile

fix 		2 solvent nve

## Thermostat


region		regthermo block EDGE EDGE EDGE EDGE 0 20

group 		thermo dynamic solvent region regthermo every 1000
dynamic group thermo defined

fix 		3 thermo langevin ${startTemp} ${temp} 10 156453
fix 		3 thermo langevin 0.5 ${temp} 10 156453
fix 		3 thermo langevin 0.5 .5 10 156453



#### Load balancing


fix 		bal all balance 1000 1.05 shift z 10 1.05


############### Diagnostics and computes ###################
#compute 	com cube	  rigid/local	1 mol x y z
#compute 	quat cube	  rigid/local	1 mol quatw quati quatj quatk

thermo 		1000
thermo_style 	custom step temp epair evdwl etotal press pe ke vol

dump		1 all custom 100000 dump.lammpstrj id mol type x y z
dump 		2 all image 10000 image.*.png type type
dump 		3 all movie 1000 movie.avi type type
#dump 		com cube local 1000 dump.*.xyz c_com[*]
#dump		quat cube      local 1000 dump.*.quat c_quat[*]


#restart 	500000 restart.dat
timestep 	0.01
timer 		full
New timer settings: style=full  mode=nosync  timeout=off


run		1000000
Per MPI rank memory allocation (min/avg/max) = 30.98 | 35.02 | 39.72 Mbytes
Step Temp E_pair E_vdwl TotEng Press PotEng KinEng Volume 
       0   0.49997217   -3.3137429   -3.3137429   -2.5637849    8.4475947   -3.3137429   0.74995807      8192000 
    1000    1.3824691   -4.8812767   -4.8812767   -2.8075735    2.8447896   -4.8812767    2.0737031      8192000 
    2000    1.3079702    -4.920337    -4.920337   -2.9583821   0.81630244    -4.920337    1.9619548      8192000 
    3000    1.1678416   -4.7193408   -4.7193408   -2.9675788  -0.17949127   -4.7193408     1.751762      8192000 
    4000    1.1559604   -4.6853809   -4.6853809   -2.9514408  0.012072523   -4.6853809    1.7339401      8192000 
    5000    1.1670842   -4.7109933   -4.7109933   -2.9603674   0.14059557   -4.7109933    1.7506259      8192000 
    6000    1.1644479   -4.7194438   -4.7194438   -2.9727724   0.14316192   -4.7194438    1.7466715      8192000 
    7000    1.1731706   -4.7399638   -4.7399638   -2.9802084   0.21550171   -4.7399638    1.7597554      8192000 
    8000     1.167579    -4.739356    -4.739356   -2.9879879   0.20217132    -4.739356     1.751368      8192000 
    9000    1.1650492   -4.7418121   -4.7418121   -2.9942388   0.19913447   -4.7418121    1.7475733      8192000 
   10000    1.1667739   -4.7510721   -4.7510721   -3.0009118   0.22570642   -4.7510721    1.7501603      8192000 
   11000     1.170721   -4.7641391   -4.7641391    -3.008058    0.4933926   -4.7641391    1.7560811      8192000 
   12000    1.1677263   -4.7645308   -4.7645308   -3.0129419    1.9482768   -4.7645308     1.751589      8192000 
   13000    1.1755131   -4.7785354   -4.7785354   -3.0152662    2.0515829   -4.7785354    1.7632692      8192000 
   14000    1.1587559   -4.7543404   -4.7543404    -3.016207    1.0144691   -4.7543404    1.7381334      8192000 
   15000    1.0647146   -4.6193005   -4.6193005    -3.022229   0.45198013   -4.6193005    1.5970716      8192000 
   16000   0.97336282   -4.4892021   -4.4892021   -3.0291583   0.10198319   -4.4892021    1.4600439      8192000 
   17000   0.90895727   -4.3996569   -4.3996569   -3.0362213  -0.04797004   -4.3996569    1.3634356      8192000 
   18000    0.8921314   -4.3825091   -4.3825091   -3.0443124 -0.027006829   -4.3825091    1.3381968      8192000 
   19000   0.89844688   -4.4010029   -4.4010029   -3.0533329  0.043696648   -4.4010029      1.34767      8192000 
   20000   0.90954912   -4.4276039   -4.4276039   -3.0632805   0.12393827   -4.4276039    1.3643233      8192000 
   21000   0.91287153   -4.4430006   -4.4430006   -3.0736936   0.17082746   -4.4430006     1.369307      8192000 
   22000   0.90103907   -4.4362285   -4.4362285   -3.0846702   0.13591259   -4.4362285    1.3515583      8192000 
   23000   0.88110605   -4.4173775   -4.4173775   -3.0957188  0.057311148   -4.4173775    1.3216587      8192000 
   24000   0.86609661   -4.4058943   -4.4058943   -3.1067497  0.012321691   -4.4058943    1.2991446      8192000 
   25000   0.86475004   -4.4154884   -4.4154884   -3.1183637  0.019478863   -4.4154884    1.2971247      8192000 
   26000   0.87165347   -4.4371311   -4.4371311   -3.1296512  0.061841106   -4.4371311    1.3074799      8192000 
   27000   0.87992488   -4.4605569   -4.4605569   -3.1406699   0.11323978   -4.4605569     1.319887      8192000 
   28000   0.87909134   -4.4703529   -4.4703529   -3.1517162   0.11592627   -4.4703529    1.3186367      8192000 
   29000   0.86962085   -4.4666638   -4.4666638   -3.1622329  0.076361278   -4.4666638     1.304431      8192000 
   30000   0.86025182   -4.4627986   -4.4627986   -3.1724212  0.042600836   -4.4627986    1.2903774      8192000 
   31000   0.85975983   -4.4723852   -4.4723852   -3.1827457  0.044567434   -4.4723852    1.2896394      8192000 
   32000   0.86805047   -4.4950342   -4.4950342   -3.1929588   0.09063068   -4.4950342    1.3020754      8192000 
   33000   0.88164779   -4.5261997   -4.5261997   -3.2037283   0.15845456   -4.5261997    1.3224714      8192000 
   34000   0.89539016    -4.558143    -4.558143   -3.2150581   0.22663003    -4.558143    1.3430849      8192000 
   35000    0.9115918   -4.5952067   -4.5952067   -3.2278193   0.32899059   -4.5952067    1.3673874      8192000 
   36000   0.92861828   -4.6370533   -4.6370533   -3.2441262   0.48996042   -4.6370533    1.3929271      8192000 
   37000   0.94023469   -4.6745734   -4.6745734   -3.2642217   0.63332876   -4.6745734    1.4103517      8192000 
   38000   0.94178295   -4.6960175   -4.6960175   -3.2833434   0.68234903   -4.6960175    1.4126741      8192000 
   39000   0.92764676   -4.6921153   -4.6921153   -3.3006455   0.60769381   -4.6921153    1.3914698      8192000 
   40000   0.89948034   -4.6653331   -4.6653331   -3.3161129   0.43738655   -4.6653331    1.3492202      8192000 
   41000   0.86484378   -4.6256174   -4.6256174   -3.3283521   0.24808071   -4.6256174    1.2972653      8192000 
   42000   0.83025307   -4.5818943   -4.5818943    -3.336515  0.087913311   -4.5818943    1.2453793      8192000 
   43000   0.79965317   -4.5416655   -4.5416655   -3.3421861 -0.020742421   -4.5416655    1.1994795      8192000 
   44000   0.77821322   -4.5138591   -4.5138591   -3.3465395 -0.078710862   -4.5138591    1.1673195      8192000 
   45000   0.77490874   -4.5132746   -4.5132746   -3.3509118 -0.076130401   -4.5132746    1.1623628      8192000 
   46000   0.78390799   -4.5331236   -4.5331236   -3.3572619 -0.033191281   -4.5331236    1.1758617      8192000 
   47000   0.79369972   -4.5544934   -4.5544934   -3.3639441  0.013914803   -4.5544934    1.1905493      8192000 
   48000   0.80016852   -4.5703416   -4.5703416   -3.3700891  0.044593544   -4.5703416    1.2002525      8192000 
   49000   0.79934262   -4.5751195   -4.5751195   -3.3761058  0.047302989   -4.5751195    1.1990136      8192000 
   50000   0.79030851   -4.5678051   -4.5678051   -3.3823427 0.0086662667   -4.5678051    1.1854625      8192000 
   51000   0.78081607   -4.5595322   -4.5595322   -3.3883084 -0.024981498   -4.5595322    1.1712238      8192000 
   52000   0.78065562   -4.5647924   -4.5647924   -3.3938093 -0.019809125   -4.5647924    1.1709831      8192000 
   53000   0.78750136   -4.5809561   -4.5809561   -3.3997043  0.015723086   -4.5809561    1.1812517      8192000 
   54000   0.79309836   -4.5950564   -4.5950564   -3.4054091   0.04312131   -4.5950564    1.1896472      8192000 
   55000   0.79053223   -4.5968319   -4.5968319   -3.4110338  0.037621703   -4.5968319     1.185798      8192000 
   56000    0.7820403   -4.5895307   -4.5895307   -3.4164706 0.0046145496   -4.5895307    1.1730602      8192000 
   57000    0.7764229   -4.5864954   -4.5864954   -3.4218614 -0.014056005   -4.5864954    1.1646341      8192000 
   58000   0.77738154   -4.5932476   -4.5932476   -3.4271756 -0.0083174665   -4.5932476     1.166072      8192000 
   59000   0.78234083   -4.6063152   -4.6063152   -3.4328042  0.022862048   -4.6063152     1.173511      8192000 
   60000   0.78555905   -4.6165437   -4.6165437   -3.4382054  0.039118604   -4.6165437    1.1783383      8192000 
   61000   0.78109891   -4.6151655   -4.6151655   -3.4435174  0.025549817   -4.6151655    1.1716481      8192000 
   62000   0.77444552   -4.6100941   -4.6100941   -3.4484261 -0.0015375394   -4.6100941     1.161668      8192000 
   63000   0.77156914   -4.6111873   -4.6111873   -3.4538339 -0.007970706   -4.6111873    1.1573534      8192000 
   64000   0.77379758   -4.6194884   -4.6194884   -3.4587924 0.0089695751   -4.6194884    1.1606961      8192000 
   65000   0.77851677   -4.6315665   -4.6315665   -3.4637917  0.028762539   -4.6315665    1.1677749      8192000 
   66000   0.77828708   -4.6361759   -4.6361759   -3.4687456  0.032127664   -4.6361759    1.1674303      8192000 
   67000   0.77311686   -4.6333524   -4.6333524   -3.4736774  0.015199853   -4.6333524     1.159675      8192000 
   68000   0.76892998   -4.6318749   -4.6318749   -3.4784802 -0.0043545376   -4.6318749    1.1533947      8192000 
   69000   0.76803427   -4.6350602   -4.6350602    -3.483009 0.00093221727   -4.6350602    1.1520511      8192000 
   70000   0.77146562   -4.6450762   -4.6450762    -3.487878  0.019246322   -4.6450762    1.1571981      8192000 
   71000   0.77344761    -4.652462    -4.652462   -3.4922909  0.031466329    -4.652462    1.1601711      8192000 
   72000   0.77310854   -4.6565467   -4.6565467   -3.4968841  0.029719522   -4.6565467    1.1596625      8192000 
   73000   0.77499792   -4.6636562   -4.6636562   -3.5011596  0.050898479   -4.6636562    1.1624966      8192000 
   74000   0.79092322   -4.6913622   -4.6913622   -3.5049777   0.14840609   -4.6913622    1.1863845      8192000 
   75000   0.81160358   -4.7259859   -4.7259859   -3.5085808   0.27977205   -4.7259859    1.2174051      8192000 
   76000   0.81294714   -4.7315202   -4.7315202   -3.5120998    0.2849903   -4.7315202    1.2194204      8192000 
   77000   0.79428531   -4.7069234   -4.7069234   -3.5154957   0.16641889   -4.7069234    1.1914277      8192000 
   78000   0.77202559   -4.6769881   -4.6769881     -3.51895  0.057025648   -4.6769881    1.1580381      8192000 
   79000   0.75801707   -4.6598324   -4.6598324    -3.522807 -0.0018985315   -4.6598324    1.1370253      8192000 
   80000   0.75261812   -4.6558001   -4.6558001   -3.5268732 -0.019487594   -4.6558001    1.1289269      8192000 
   81000    0.7572738   -4.6665606   -4.6665606   -3.5306502 0.0060243081   -4.6665606    1.1359104      8192000 
   82000   0.76214152   -4.6781745   -4.6781745   -3.5349626  0.030680756   -4.6781745     1.143212      8192000 
   83000   0.76448642   -4.6859132   -4.6859132   -3.5391839  0.040489759   -4.6859132    1.1467293      8192000 
   84000   0.76044396   -4.6836987   -4.6836987   -3.5430331  0.028780098   -4.6836987    1.1406657      8192000 
   85000   0.75273008   -4.6761866   -4.6761866   -3.5470917 -0.0012380173   -4.6761866    1.1290948      8192000 
   86000   0.74723924   -4.6716325   -4.6716325   -3.5507739 -0.020175616   -4.6716325    1.1208586      8192000 
   87000   0.74696298   -4.6752423   -4.6752423   -3.5547981 -0.019318046   -4.6752423    1.1204442      8192000 
   88000   0.75165157   -4.6858568   -4.6858568   -3.5583798 0.0029482793   -4.6858568    1.1274771      8192000 
   89000   0.75629519   -4.6964118   -4.6964118   -3.5619693  0.026726495   -4.6964118    1.1344425      8192000 
   90000   0.75654781   -4.7006911   -4.7006911   -3.5658697  0.030877522   -4.7006911    1.1348214      8192000 
   91000   0.75219126   -4.6975714   -4.6975714   -3.5692848  0.013743947   -4.6975714    1.1282866      8192000 
   92000   0.74637223   -4.6928021   -4.6928021    -3.573244 -0.0098769681   -4.6928021    1.1195581      8192000 
   93000   0.74291091   -4.6911111   -4.6911111    -3.576745 -0.022300487   -4.6911111    1.1143661      8192000 
   94000   0.74424153   -4.6966835   -4.6966835   -3.5803215 -0.015057043   -4.6966835     1.116362      8192000 
   95000   0.74865791   -4.7066764   -4.7066764   -3.5836898 0.0050237586   -4.7066764    1.1229866      8192000 
   96000   0.75114694   -4.7141799   -4.7141799   -3.5874598  0.020631741   -4.7141799    1.1267201      8192000 
   97000   0.74991846   -4.7158841   -4.7158841   -3.5910067  0.021312668   -4.7158841    1.1248774      8192000 
   98000   0.74637487   -4.7141768   -4.7141768   -3.5946148 0.0019908283   -4.7141768     1.119562      8192000 
   99000   0.74153761   -4.7104498   -4.7104498   -3.5981436 -0.015663991   -4.7104498    1.1123061      8192000 
  100000   0.74011489   -4.7116282   -4.7116282   -3.6014562 -0.018895951   -4.7116282    1.1101721      8192000 
  101000     0.742332   -4.7187543   -4.7187543   -3.6052566 -0.0089856667   -4.7187543    1.1134977      8192000 
  102000    0.7452746    -4.726413    -4.726413   -3.6085013 0.0080572085    -4.726413    1.1179116      8192000 
  103000   0.74752854   -4.7333666   -4.7333666    -3.612074  0.016696176   -4.7333666    1.1212925      8192000 
  104000   0.74548542   -4.7340759   -4.7340759   -3.6158481  0.010947773   -4.7340759    1.1182279      8192000 
  105000   0.74120442   -4.7307543   -4.7307543    -3.618948 -0.0071670081   -4.7307543    1.1118064      8192000 
  106000   0.73808537   -4.7294008   -4.7294008   -3.6222731 -0.017417857   -4.7294008    1.1071278      8192000 
  107000   0.73859445   -4.7335359   -4.7335359   -3.6256445 -0.014806168   -4.7335359    1.1078914      8192000 
  108000   0.74057723   -4.7398497   -4.7398497   -3.6289842 -0.0031500938   -4.7398497    1.1108656      8192000 
  109000    0.7432343   -4.7474036   -4.7474036   -3.6325524  0.011094561   -4.7474036    1.1148512      8192000 
  110000   0.74410258   -4.7520416   -4.7520416    -3.635888  0.011622237   -4.7520416    1.1161536      8192000 
  111000   0.74138006   -4.7512946   -4.7512946   -3.6392248 0.0014574061   -4.7512946    1.1120698      8192000 
  112000   0.73745178   -4.7489692   -4.7489692   -3.6427918 -0.011121428   -4.7489692    1.1061774      8192000 
  113000   0.73551773   -4.7491514   -4.7491514   -3.6458751 -0.017775938   -4.7491514    1.1032763      8192000 
  114000   0.73645953   -4.7538515   -4.7538515   -3.6491625 -0.009349172   -4.7538515     1.104689      8192000 
  115000   0.73988308   -4.7621695   -4.7621695   -3.6523452 0.0021876504   -4.7621695    1.1098243      8192000 
  116000   0.74044161   -4.7665846   -4.7665846   -3.6559224 0.0090092433   -4.7665846    1.1106621      8192000 
  117000   0.73953638   -4.7681388   -4.7681388   -3.6588345 0.0056347432   -4.7681388    1.1093043      8192000 
  118000   0.73647712   -4.7668876   -4.7668876   -3.6621722 -0.0049802421   -4.7668876    1.1047154      8192000 
  119000   0.73371975   -4.7660691   -4.7660691   -3.6654897 -0.013911692   -4.7660691    1.1005794      8192000 
  120000   0.73385215    -4.769326    -4.769326   -3.6685481 -0.014400138    -4.769326    1.1007779      8192000 
  121000   0.73576255   -4.7752128   -4.7752128   -3.6715693 -0.0049864242   -4.7752128    1.1036435      8192000 
  122000   0.73725499    -4.780823    -4.780823   -3.6749408 0.0048979481    -4.780823    1.1058822      8192000 
  123000   0.73751003   -4.7845723   -4.7845723   -3.6783076 0.0046752083   -4.7845723    1.1062648      8192000 
  124000   0.73470393   -4.7837017   -4.7837017   -3.6816461 -0.002151378   -4.7837017    1.1020556      8192000 
  125000   0.73274972   -4.7838616   -4.7838616   -3.6847373 -0.011555847   -4.7838616    1.0991243      8192000 
  126000   0.73142155   -4.7849299   -4.7849299   -3.6877979 -0.016115397   -4.7849299     1.097132      8192000 
  127000   0.73241781   -4.7896781   -4.7896781   -3.6910517 -0.0091630642   -4.7896781    1.0986264      8192000 
  128000    0.7342241   -4.7954777   -4.7954777   -3.6941418 0.00033599891   -4.7954777    1.1013359      8192000 
  129000   0.73480799   -4.7994588   -4.7994588   -3.6972471  0.003260499   -4.7994588    1.1022117      8192000 
  130000   0.73349634   -4.8006266   -4.8006266   -3.7003824 -0.00025694089   -4.8006266    1.1002442      8192000 
  131000   0.73121945    -4.800325    -4.800325   -3.7034961 -0.0080536658    -4.800325    1.0968289      8192000 
  132000   0.72986045   -4.8014254   -4.8014254    -3.706635 -0.015633231   -4.8014254    1.0947904      8192000 
  133000   0.72948523   -4.8040283   -4.8040283   -3.7098007 -0.012684077   -4.8040283    1.0942276      8192000 
  134000   0.73116228    -4.809625    -4.809625   -3.7128818 -0.0053730607    -4.809625    1.0967432      8192000 
  135000   0.73191712   -4.8137415   -4.8137415   -3.7158661 0.00077216924   -4.8137415    1.0978754      8192000 
  136000   0.73179931   -4.8167625   -4.8167625   -3.7190638 0.00047775001   -4.8167625    1.0976987      8192000 
  137000   0.72975421   -4.8166733   -4.8166733   -3.7220423 -0.0057110494   -4.8166733     1.094631      8192000 
  138000   0.72769459   -4.8165489   -4.8165489   -3.7250073 -0.013016189   -4.8165489    1.0915416      8192000 
  139000   0.72701034   -4.8185899   -4.8185899   -3.7280746 -0.013895461   -4.8185899    1.0905152      8192000 
  140000   0.72760098   -4.8224488   -4.8224488   -3.7310476 -0.0087355025   -4.8224488    1.0914012      8192000 
  141000   0.72921621   -4.8276114   -4.8276114   -3.7337873 -0.0042052506   -4.8276114     1.093824      8192000 
  142000     0.729085   -4.8303674   -4.8303674   -3.7367402 -0.00082337225   -4.8303674    1.0936272      8192000 
  143000   0.72841598   -4.8322947   -4.8322947    -3.739671 -0.0051422966   -4.8322947    1.0926237      8192000 
  144000   0.72653816   -4.8323117   -4.8323117   -3.7425047 -0.0097252175   -4.8323117     1.089807      8192000 
  145000   0.72552883   -4.8336198   -4.8336198   -3.7453268 -0.014199584   -4.8336198     1.088293      8192000 
  146000   0.72616309    -4.837342    -4.837342   -3.7480977 -0.012134127    -4.837342    1.0892444      8192000 
  147000   0.72685423   -4.8413805   -4.8413805   -3.7510994 -0.0047994034   -4.8413805    1.0902811      8192000 
  148000    0.7273288   -4.8450897   -4.8450897   -3.7540968  -0.00344892   -4.8450897    1.0909929      8192000 
  149000   0.72650575   -4.8467318   -4.8467318   -3.7569735 -0.0047532194   -4.8467318    1.0897583      8192000 
  150000   0.72546027   -4.8477991   -4.8477991    -3.759609 -0.0076499142   -4.8477991    1.0881901      8192000 
  151000    0.7241278   -4.8486443   -4.8486443   -3.7624529 -0.014058911   -4.8486443    1.0861914      8192000 
  152000   0.72374689   -4.8508554   -4.8508554   -3.7652354 -0.012162052   -4.8508554    1.0856201      8192000 
  153000   0.72438817   -4.8549965   -4.8549965   -3.7684145 -0.010375867   -4.8549965     1.086582      8192000 
  154000    0.7254823   -4.8593206   -4.8593206   -3.7710974 -0.0069049359   -4.8593206    1.0882232      8192000 
  155000   0.72503194   -4.8611564   -4.8611564   -3.7736088 -0.0021905706   -4.8611564    1.0875476      8192000 
  156000   0.72421835   -4.8628033   -4.8628033   -3.7764761 -0.0062251619   -4.8628033    1.0863273      8192000 
  157000   0.72334538   -4.8641676   -4.8641676   -3.7791498 -0.013114877   -4.8641676    1.0850178      8192000 
  158000   0.72217397   -4.8652252   -4.8652252   -3.7819646 -0.010707545   -4.8652252    1.0832607      8192000 
  159000   0.72276367   -4.8691262   -4.8691262   -3.7849809 -0.0098396709   -4.8691262    1.0841452      8192000 
  160000   0.72300649   -4.8723131   -4.8723131   -3.7878036 -0.0056110159   -4.8723131    1.0845095      8192000 
  161000   0.72387147   -4.8764776   -4.8764776   -3.7906707 -0.0028940644   -4.8764776    1.0858069      8192000 
  162000    0.7242198   -4.8797003   -4.8797003   -3.7933709 -0.00020517173   -4.8797003    1.0863294      8192000 
  163000   0.72426605   -4.8825641   -4.8825641   -3.7961653 0.0012223888   -4.8825641    1.0863988      8192000 
  164000     0.723837   -4.8845717   -4.8845717   -3.7988165 0.0030994834   -4.8845717    1.0857552      8192000 
  165000   0.72422193   -4.8880426   -4.8880426   -3.8017099 0.0059184631   -4.8880426    1.0863326      8192000 
  166000   0.72520174   -4.8923544   -4.8923544   -3.8045521  0.012005167   -4.8923544    1.0878023      8192000 
  167000    0.7270139   -4.8980139   -4.8980139   -3.8074933  0.026404544   -4.8980139    1.0905206      8192000 
  168000   0.73000258   -4.9058829   -4.9058829   -3.8108793  0.039978311   -4.9058829    1.0950036      8192000 
  169000    0.7342398   -4.9153988   -4.9153988   -3.8140393  0.071340068   -4.9153988    1.1013594      8192000 
  170000   0.73798955   -4.9250277   -4.9250277   -3.8180436  0.098409031   -4.9250277     1.106984      8192000 
  171000   0.73969747   -4.9311543   -4.9311543   -3.8216084   0.10350143   -4.9311543    1.1095459      8192000 
  172000   0.73647267    -4.929517    -4.929517   -3.8248083  0.088743547    -4.929517    1.1047087      8192000 
  173000   0.73025114   -4.9230318   -4.9230318   -3.8276554  0.056967006   -4.9230318    1.0953764      8192000 
  174000   0.72208584   -4.9135775   -4.9135775    -3.830449  0.015471778   -4.9135775    1.0831285      8192000 
  175000   0.71388878   -4.9034245   -4.9034245   -3.8325916 -0.026543863   -4.9034245    1.0708329      8192000 
  176000    0.7063251   -4.8942468   -4.8942468   -3.8347595 -0.063052756   -4.8942468    1.0594874      8192000 
  177000   0.70015211   -4.8869727   -4.8869727   -3.8367448 -0.090585165   -4.8869727    1.0502279      8192000 
  178000   0.69624864   -4.8828619   -4.8828619   -3.8384892  -0.10821111   -4.8828619    1.0443727      8192000 
  179000   0.69521536   -4.8833116   -4.8833116   -3.8404888   -0.1113415   -4.8833116    1.0428228      8192000 
  180000   0.69703158   -4.8883488   -4.8883488   -3.8428017 -0.097646765   -4.8883488    1.0455471      8192000 
  181000   0.70215286   -4.8985101   -4.8985101   -3.8452811 -0.075134802   -4.8985101     1.053229      8192000 
  182000   0.70888099   -4.9112612   -4.9112612     -3.84794 -0.041613527   -4.9112612    1.0633212      8192000 
  183000   0.71602414   -4.9249247   -4.9249247   -3.8508887 0.00063544496   -4.9249247    1.0740359      8192000 
  184000   0.72215933   -4.9370311   -4.9370311   -3.8537924  0.040522726   -4.9370311    1.0832387      8192000 
  185000   0.72732738   -4.9482438   -4.9482438    -3.857253  0.071124184   -4.9482438    1.0909908      8192000 
  186000   0.72985111   -4.9556891   -4.9556891   -3.8609127   0.09011604   -4.9556891    1.0947764      8192000 
  187000   0.72972362   -4.9587164   -4.9587164   -3.8641313   0.08870218   -4.9587164    1.0945852      8192000 
  188000   0.72543972    -4.955211    -4.955211   -3.8670517  0.068606497    -4.955211    1.0881593      8192000 
  189000   0.71874196   -4.9481107   -4.9481107   -3.8699981  0.036591939   -4.9481107    1.0781127      8192000 
  190000   0.71179372   -4.9400009   -4.9400009   -3.8723106 -0.0030940307   -4.9400009    1.0676903      8192000 
  191000   0.70459202    -4.931423    -4.931423   -3.8745353 -0.042161146    -4.931423    1.0568878      8192000 
  192000    0.6984431   -4.9238978   -4.9238978   -3.8762334 -0.075078567   -4.9238978    1.0476644      8192000 
  193000   0.69324475   -4.9180046   -4.9180046   -3.8781377 -0.090934646   -4.9180046    1.0398669      8192000 
  194000   0.69125795    -4.916902    -4.916902   -3.8800153  -0.10051013    -4.916902    1.0368867      8192000 
  195000   0.69193401   -4.9199872   -4.9199872   -3.8820865 -0.094384597   -4.9199872    1.0379008      8192000 
  196000   0.69572175   -4.9280588   -4.9280588   -3.8844764 -0.076145461   -4.9280588    1.0435824      8192000 
  197000   0.70123077    -4.938795    -4.938795   -3.8869491 -0.047943237    -4.938795    1.0518459      8192000 
  198000   0.70797248   -4.9513008   -4.9513008   -3.8893424 -0.010802068   -4.9513008    1.0619585      8192000 
  199000   0.71364537   -4.9629572   -4.9629572   -3.8924894  0.027778392   -4.9629572    1.0704678      8192000 
  200000   0.71847902   -4.9733478   -4.9733478   -3.8956295  0.058579531   -4.9733478    1.0777183      8192000 
  201000   0.72117673   -4.9804648   -4.9804648      -3.8987  0.075837005   -4.9804648    1.0817648      8192000 
  202000   0.72101265   -4.9835187   -4.9835187       -3.902  0.080038506   -4.9835187    1.0815187      8192000 
  203000   0.71818283   -4.9823676   -4.9823676   -3.9050936  0.063300837   -4.9823676     1.077274      8192000 
  204000    0.7129104   -4.9769219   -4.9769219   -3.9075566  0.033587158   -4.9769219    1.0693653      8192000 
  205000   0.70590315   -4.9687137   -4.9687137   -3.9098593 -0.00060383214   -4.9687137    1.0588545      8192000 
  206000    0.6996654   -4.9612894   -4.9612894   -3.9117916 -0.036750099   -4.9612894    1.0494978      8192000 
  207000   0.69366158   -4.9541734   -4.9541734   -3.9136813 -0.065625221   -4.9541734    1.0404921      8192000 
  208000   0.68985075   -4.9501966   -4.9501966   -3.9154208 -0.085390961   -4.9501966    1.0347759      8192000 
  209000   0.68817872   -4.9494395   -4.9494395   -3.9171717 -0.091398343   -4.9494395    1.0322678      8192000 
  210000   0.68903274   -4.9525139   -4.9525139   -3.9189651 -0.086970748   -4.9525139    1.0335488      8192000 
  211000   0.69228817   -4.9595805   -4.9595805   -3.9211485  -0.06815789   -4.9595805     1.038432      8192000 
  212000   0.69733508   -4.9695764   -4.9695764   -3.9235741  -0.03954582   -4.9695764    1.0460024      8192000 
  213000   0.70344118   -4.9813637   -4.9813637   -3.9262022 -0.0080827831   -4.9813637    1.0551615      8192000 
  214000   0.70890117   -4.9921807   -4.9921807   -3.9288293  0.027152698   -4.9921807    1.0633515      8192000 
  215000   0.71272135   -5.0010382   -5.0010382   -3.9319564  0.054044665   -5.0010382    1.0690818      8192000 
  216000   0.71384621   -5.0059472   -5.0059472   -3.9351781  0.068787697   -5.0059472     1.070769      8192000 
  217000   0.71312243   -5.0077327   -5.0077327   -3.9380493   0.06900184   -5.0077327    1.0696834      8192000 
  218000   0.71035468   -5.0061917   -5.0061917   -3.9406599  0.051659582   -5.0061917    1.0655318      8192000 
  219000   0.70547196   -5.0011526   -5.0011526   -3.9429449  0.020431673   -5.0011526    1.0582077      8192000 
  220000   0.69913299   -4.9939458   -4.9939458   -3.9452466  -0.01144422   -4.9939458    1.0486992      8192000 
  221000   0.69355039   -4.9876158   -4.9876158   -3.9472905 -0.045790532   -4.9876158    1.0403253      8192000 
  222000   0.68850174   -4.9817611   -4.9817611   -3.9490087 -0.068515976   -4.9817611    1.0327524      8192000 
  223000   0.68538934   -4.9787566   -4.9787566   -3.9506729 -0.081957873   -4.9787566    1.0280838      8192000 
  224000   0.68525058   -4.9801128   -4.9801128   -3.9522372 -0.084222055   -4.9801128    1.0278756      8192000 
  225000   0.68647962   -4.9839375   -4.9839375   -3.9542183  -0.07325399   -4.9839375    1.0297192      8192000 
  226000   0.69021975   -4.9920024   -4.9920024   -3.9566731  -0.05154497   -4.9920024    1.0353294      8192000 
  227000   0.69500163   -5.0014244   -5.0014244   -3.9589222 -0.021104038   -5.0014244    1.0425022      8192000 
  228000   0.69991776   -5.0115471   -5.0115471   -3.9616707 0.0095052337   -5.0115471    1.0498764      8192000 
  229000   0.70492477   -5.0219338   -5.0219338    -3.964547  0.036147638   -5.0219338    1.0573869      8192000 
  230000   0.70713514   -5.0281154   -5.0281154    -3.967413  0.056900441   -5.0281154    1.0607024      8192000 
  231000   0.70756835   -5.0315955   -5.0315955   -3.9702432  0.059550543   -5.0315955    1.0613523      8192000 
  232000   0.70557757   -5.0315095   -5.0315095   -3.9731435  0.050104652   -5.0315095    1.0583661      8192000 
  233000   0.70142925   -5.0279113   -5.0279113   -3.9757677  0.027857083   -5.0279113    1.0521436      8192000 
  234000   0.69633277   -5.0221843   -5.0221843   -3.9776854 -0.0020229359   -5.0221843    1.0444989      8192000 
  235000   0.69115179    -5.016295    -5.016295   -3.9795676 -0.031852225    -5.016295    1.0367274      8192000 
  236000   0.68649871   -5.0109961   -5.0109961   -3.9812483 -0.058587696   -5.0109961    1.0297478      8192000 
  237000   0.68318269    -5.007684    -5.007684   -3.9829102 -0.073784455    -5.007684    1.0247738      8192000 
  238000       0.6819    -5.007956    -5.007956   -3.9851063 -0.078850938    -5.007956    1.0228497      8192000 
  239000   0.68274298   -5.0109641   -5.0109641   -3.9868499 -0.070568854   -5.0109641    1.0241142      8192000 
  240000    0.6856728   -5.0173166   -5.0173166   -3.9888077  -0.05410233   -5.0173166    1.0285089      8192000 
  241000   0.68966202   -5.0255722   -5.0255722   -3.9910794 -0.027645584   -5.0255722    1.0344928      8192000 
  242000   0.69468557    -5.035537    -5.035537   -3.9935089 -0.00087886584    -5.035537    1.0420281      8192000 
  243000   0.69830086   -5.0438256   -5.0438256   -3.9963746  0.025969648   -5.0438256     1.047451      8192000 
  244000   0.70085779   -5.0501491   -5.0501491   -3.9988627  0.044956563   -5.0501491    1.0512864      8192000 
  245000   0.70165529   -5.0540455   -5.0540455   -4.0015628  0.052061001   -5.0540455    1.0524827      8192000 
  246000   0.69979258   -5.0539901   -5.0539901   -4.0043015  0.044371927   -5.0539901    1.0496886      8192000 
  247000   0.69685882   -5.0520746   -5.0520746   -4.0067866   0.02393362   -5.0520746     1.045288      8192000 
  248000   0.69204189   -5.0468021   -5.0468021   -4.0087396 -0.0026348215   -5.0468021    1.0380626      8192000 
  249000   0.68730175   -5.0413349   -5.0413349   -4.0103825 -0.029284043   -5.0413349    1.0309524      8192000 
  250000   0.68314249    -5.036601    -5.036601   -4.0118875 -0.051489872    -5.036601    1.0247135      8192000 
  251000   0.68026846   -5.0341948   -5.0341948   -4.0137924 -0.067657655   -5.0341948    1.0204024      8192000 
  252000   0.67925913   -5.0343473   -5.0343473   -4.0154588 -0.075137278   -5.0343473    1.0188884      8192000 
  253000   0.67988794    -5.037525    -5.037525   -4.0176933 -0.066016312    -5.037525    1.0198317      8192000 
  254000   0.68249901   -5.0435513   -5.0435513   -4.0198031 -0.050190819   -5.0435513    1.0237483      8192000 
  255000   0.68608169    -5.051499    -5.051499   -4.0223767 -0.028303035    -5.051499    1.0291223      8192000 
  256000   0.68991293   -5.0593813   -5.0593813   -4.0245122 -0.0008045701   -5.0593813    1.0348691      8192000 
  257000   0.69372097   -5.0674188   -5.0674188   -4.0268376  0.023978292   -5.0674188    1.0405812      8192000 
  258000   0.69588393   -5.0732632   -5.0732632   -4.0294376  0.038218042   -5.0732632    1.0438256      8192000 
  259000   0.69624023   -5.0762966   -5.0762966   -4.0319365  0.041611505   -5.0762966    1.0443601      8192000 
  260000    0.6947475   -5.0762683   -5.0762683   -4.0341473  0.035413195   -5.0762683     1.042121      8192000 
  261000   0.69096983   -5.0729274   -5.0729274   -4.0364729  0.016752731   -5.0729274    1.0364545      8192000 
  262000   0.68729905    -5.069288    -5.069288   -4.0383397 -0.0077207385    -5.069288    1.0309483      8192000 
  263000   0.68290291   -5.0642507   -5.0642507   -4.0398966 -0.030079507   -5.0642507    1.0243541      8192000 
  264000   0.67913359    -5.060247    -5.060247   -4.0415469  -0.05277097    -5.060247    1.0187001      8192000 
  265000    0.6769967   -5.0587803   -5.0587803   -4.0432855 -0.064448663   -5.0587803    1.0154948      8192000 
  266000   0.67628251   -5.0594121   -5.0594121   -4.0449886 -0.066085772   -5.0594121    1.0144235      8192000 
  267000   0.67723308   -5.0627963   -5.0627963   -4.0469469 -0.058720395   -5.0627963    1.0158494      8192000 
  268000   0.68003075   -5.0689742   -5.0689742   -4.0489283 -0.042096676   -5.0689742    1.0200459      8192000 
  269000   0.68348055   -5.0765973   -5.0765973   -4.0513767 -0.020128387   -5.0765973    1.0252206      8192000 
  270000   0.68690964   -5.0842858   -5.0842858   -4.0539216 0.0036751185   -5.0842858    1.0303642      8192000 
  271000   0.68941893   -5.0904661   -5.0904661    -4.056338  0.023838366   -5.0904661    1.0341281      8192000 
  272000   0.69100732   -5.0951552   -5.0951552   -4.0586444  0.035997796   -5.0951552    1.0365107      8192000 
  273000   0.69049119   -5.0968792   -5.0968792   -4.0611427  0.033131815   -5.0968792    1.0357365      8192000 
  274000   0.68864062   -5.0962259   -5.0962259   -4.0632653  0.023629861   -5.0962259    1.0329607      8192000 
  275000   0.68558824   -5.0933754   -5.0933754   -4.0649933  0.004698943   -5.0933754    1.0283821      8192000 
  276000   0.68139381   -5.0891083   -5.0891083   -4.0670179 -0.019575917   -5.0891083    1.0220905      8192000 
  277000   0.67777987   -5.0853563   -5.0853563   -4.0686868 -0.038941253   -5.0853563    1.0166695      8192000 
  278000    0.6748288   -5.0825216   -5.0825216   -4.0702787 -0.053896253   -5.0825216    1.0122429      8192000 
  279000   0.67386559   -5.0827111   -5.0827111    -4.071913 -0.062106985   -5.0827111    1.0107981      8192000 
  280000   0.67381586   -5.0843525   -5.0843525    -4.073629 -0.058930589   -5.0843525    1.0107235      8192000 
  281000   0.67547646   -5.0885649   -5.0885649   -4.0753505 -0.047696203   -5.0885649    1.0132144      8192000 
  282000   0.67801453   -5.0943947   -5.0943947   -4.0773732 -0.030119519   -5.0943947    1.0170215      8192000 
  283000   0.68138065   -5.1014222   -5.1014222   -4.0793515 -0.0075636998   -5.1014222    1.0220707      8192000 
  284000   0.68428003   -5.1083089   -5.1083089   -4.0818892  0.009990962   -5.1083089    1.0264198      8192000 
  285000   0.68621506   -5.1136158   -5.1136158   -4.0842934  0.023924175   -5.1136158    1.0293223      8192000 
  286000   0.68631159   -5.1162247   -5.1162247   -4.0867576  0.029353804   -5.1162247    1.0294671      8192000 
  287000   0.68487211   -5.1161893   -5.1161893   -4.0888814  0.023202586   -5.1161893    1.0273079      8192000 
  288000   0.68257067   -5.1143447   -5.1143447   -4.0904889  0.010017148   -5.1143447    1.0238558      8192000 
  289000   0.67936048   -5.1117283   -5.1117283   -4.0926878 -0.011272683   -5.1117283    1.0190405      8192000 
  290000   0.67602607     -5.10837     -5.10837   -4.0943311 -0.031737776     -5.10837    1.0140389      8192000 
  291000   0.67342517   -5.1060647   -5.1060647   -4.0959272 -0.048052269   -5.1060647    1.0101375      8192000 
  292000   0.67151675   -5.1045602   -5.1045602   -4.0972853 -0.056610913   -5.1045602    1.0072749      8192000 
  293000   0.67116237   -5.1056881   -5.1056881   -4.0989447 -0.057381301   -5.1056881    1.0067433      8192000 
  294000   0.67238996   -5.1095193   -5.1095193   -4.1009346 -0.049700326   -5.1095193    1.0085847      8192000 
  295000   0.67404777    -5.114113    -5.114113   -4.1030416  -0.03433617    -5.114113    1.0110714      8192000 
  296000   0.67674928   -5.1202426   -5.1202426   -4.1051189 -0.016059136   -5.1202426    1.0151237      8192000 
  297000   0.67938353   -5.1264118   -5.1264118   -4.1073368 0.0029724592   -5.1264118     1.019075      8192000 
  298000   0.68147378   -5.1318627   -5.1318627   -4.1096523  0.016575094   -5.1318627    1.0222104      8192000 
  299000   0.68184172   -5.1345555   -5.1345555   -4.1117931  0.022337762   -5.1345555    1.0227623      8192000 
  300000   0.68114811   -5.1356887   -5.1356887   -4.1139668  0.018515568   -5.1356887    1.0217219      8192000 
  301000   0.67911037   -5.1346778   -5.1346778   -4.1160125 0.0065508185   -5.1346778    1.0186653      8192000 
  302000     0.676381   -5.1320099   -5.1320099   -4.1174387 -0.010982909   -5.1320099    1.0145712      8192000 
  303000   0.67320865   -5.1291487   -5.1291487    -4.119336 -0.027645171   -5.1291487    1.0098127      8192000 
  304000   0.67076982   -5.1267677   -5.1267677   -4.1206132 -0.044013138   -5.1267677    1.0061545      8192000 
  305000   0.66931879   -5.1264478   -5.1264478   -4.1224698  -0.05381205   -5.1264478    1.0039779      8192000 
  306000   0.66827274   -5.1266635   -5.1266635   -4.1242547 -0.054170293   -5.1266635    1.0024089      8192000 
  307000    0.6694317   -5.1302804   -5.1302804   -4.1261331 -0.048317113   -5.1302804    1.0041473      8192000 
  308000   0.67125274    -5.134679    -5.134679   -4.1278002 -0.035796978    -5.134679    1.0068789      8192000 
  309000   0.67344756     -5.13998     -5.13998   -4.1298089  -0.01791052     -5.13998    1.0101711      8192000 
  310000   0.67587952   -5.1458577   -5.1458577   -4.1320386 -0.0023311601   -5.1458577     1.013819      8192000 
  311000   0.67732773   -5.1500669   -5.1500669   -4.1340755 0.0098531788   -5.1500669    1.0159913      8192000 
  312000   0.67774922   -5.1528867   -5.1528867   -4.1362631  0.016583118   -5.1528867    1.0166236      8192000 
  313000   0.67706509   -5.1536294   -5.1536294    -4.138032  0.015546786   -5.1536294    1.0155974      8192000 
  314000   0.67557453   -5.1532695   -5.1532695    -4.139908 0.0022141243   -5.1532695    1.0133615      8192000 
  315000   0.67278741   -5.1510912   -5.1510912   -4.1419103 -0.013011075   -5.1510912    1.0091809      8192000 
  316000   0.67013566   -5.1487361   -5.1487361   -4.1435328 -0.028304094   -5.1487361    1.0052032      8192000 
  317000   0.66760087   -5.1466687   -5.1466687   -4.1452677 -0.040957142   -5.1466687    1.0014011      8192000 
  318000   0.66636716   -5.1464103   -5.1464103   -4.1468598 -0.048514486   -5.1464103   0.99955049      8192000 
  319000   0.66608471   -5.1478459   -5.1478459   -4.1487191 -0.051840568   -5.1478459   0.99912681      8192000 
  320000   0.66674692   -5.1504215   -5.1504215   -4.1503014 -0.044281378   -5.1504215    1.0001201      8192000 
  321000    0.6684747   -5.1548993   -5.1548993   -4.1521875 -0.032580942   -5.1548993    1.0027118      8192000 
  322000   0.67086051   -5.1602546   -5.1602546   -4.1539641 -0.018881077   -5.1602546    1.0062905      8192000 
  323000   0.67274815   -5.1649552   -5.1649552   -4.1558332 -0.0036944592   -5.1649552     1.009122      8192000 
  324000   0.67388149   -5.1685156   -5.1685156   -4.1576936 0.0082975552   -5.1685156     1.010822      8192000 
  325000   0.67368913   -5.1706119   -5.1706119   -4.1600785   0.01207005   -5.1706119    1.0105334      8192000 
  326000   0.67341646   -5.1721081   -5.1721081   -4.1619837 0.0069284853   -5.1721081    1.0101244      8192000 
  327000   0.67137066   -5.1705969   -5.1705969   -4.1635411 -0.0025294108   -5.1705969    1.0070557      8192000 
  328000   0.66912266   -5.1686021   -5.1686021   -4.1649184 -0.015701981   -5.1686021    1.0036837      8192000 
  329000   0.66694013   -5.1670272   -5.1670272   -4.1666173 -0.031596441   -5.1670272    1.0004099      8192000 
  330000   0.66520743   -5.1659783   -5.1659783   -4.1681674 -0.043211737   -5.1659783    0.9978109      8192000 
  331000    0.6640057   -5.1656371   -5.1656371   -4.1696288 -0.048100853   -5.1656371    0.9960083      8192000 
  332000   0.66366817   -5.1670255   -5.1670255   -4.1715235 -0.047192191   -5.1670255     0.995502      8192000 
  333000   0.66461606    -5.170002    -5.170002   -4.1730782  -0.03852786    -5.170002   0.99692384      8192000 
  334000   0.66642297   -5.1747305   -5.1747305   -4.1750963 -0.028880262   -5.1747305    0.9996342      8192000 
  335000   0.66810608   -5.1792736   -5.1792736   -4.1771147 -0.013300833   -5.1792736    1.0021589      8192000 
  336000   0.66971621   -5.1836007   -5.1836007   -4.1790266 -0.0028611812   -5.1836007    1.0045741      8192000 
  337000   0.67047818   -5.1870032   -5.1870032   -4.1812861 0.0043876343   -5.1870032     1.005717      8192000 
  338000   0.67054237   -5.1891167   -5.1891167   -4.1833034  0.004178973   -5.1891167    1.0058133      8192000 
  339000   0.66943215   -5.1890632   -5.1890632   -4.1849152  0.001294318   -5.1890632     1.004148      8192000 
  340000   0.66741989   -5.1875984   -5.1875984   -4.1864688 -0.0090674215   -5.1875984    1.0011296      8192000 
  341000   0.66523411   -5.1857298   -5.1857298   -4.1878789 -0.020710624   -5.1857298   0.99785091      8192000 
  342000   0.66366866   -5.1852303   -5.1852303   -4.1897276 -0.035002939   -5.1852303   0.99550274      8192000 
  343000   0.66237541   -5.1849421   -5.1849421   -4.1913792 -0.044693042   -5.1849421   0.99356287      8192000 
  344000   0.66128004    -5.184495    -5.184495   -4.1925752 -0.044401187    -5.184495   0.99191981      8192000 
  345000   0.66167888   -5.1867518   -5.1867518   -4.1942337 -0.041839086   -5.1867518   0.99251806      8192000 
  346000   0.66279221   -5.1902293   -5.1902293   -4.1960413 -0.032514158   -5.1902293   0.99418806      8192000 
  347000   0.66418342   -5.1944435   -5.1944435   -4.1981686 -0.022487084   -5.1944435   0.99627488      8192000 
  348000   0.66559184   -5.1986607   -5.1986607   -4.2002732 -0.010444455   -5.1986607   0.99838751      8192000 
  349000   0.66680834   -5.2022172   -5.2022172    -4.202005 -0.0021012926   -5.2022172    1.0002123      8192000 
  350000   0.66733133   -5.2049999   -5.2049999   -4.2040032 0.0027724507   -5.2049999    1.0009967      8192000 
  351000   0.66672252   -5.2057722   -5.2057722   -4.2056887 0.0015435505   -5.2057722    1.0000835      8192000 
  352000   0.66564508   -5.2058346   -5.2058346   -4.2073673 -0.006875986   -5.2058346   0.99846737      8192000 
  353000   0.66346459   -5.2042865   -5.2042865   -4.2090899  -0.01733918   -5.2042865   0.99519664      8192000 
  354000   0.66171536   -5.2031352   -5.2031352   -4.2105624 -0.028941318   -5.2031352   0.99257279      8192000 
  355000   0.65999813   -5.2020096   -5.2020096   -4.2120127 -0.038683044   -5.2020096   0.98999695      8192000 
  356000   0.65920682   -5.2022225   -5.2022225   -4.2134125  -0.04372446   -5.2022225   0.98880998      8192000 
  357000   0.65914654   -5.2039186   -5.2039186    -4.215199 -0.045248651   -5.2039186   0.98871957      8192000 
  358000     0.659764   -5.2065962   -5.2065962   -4.2169504 -0.038998632   -5.2065962   0.98964575      8192000 
  359000   0.66057264   -5.2094406   -5.2094406   -4.2185819 -0.028250214   -5.2094406   0.99085871      8192000 
  360000    0.6619821   -5.2134981   -5.2134981   -4.2205252 -0.017584603   -5.2134981    0.9929729      8192000 
  361000   0.66311162    -5.216976    -5.216976   -4.2223088 -0.0067944111    -5.216976   0.99466719      8192000 
  362000   0.66435744    -5.220743    -5.220743   -4.2242071 -0.0033678317    -5.220743   0.99653591      8192000 
  363000   0.66367264   -5.2214827   -5.2214827    -4.225974  -0.00183637   -5.2214827   0.99550871      8192000 
  364000   0.66257225   -5.2218503   -5.2218503   -4.2279921 -0.0077050776   -5.2218503   0.99385813      8192000 
  365000   0.66151956   -5.2217268   -5.2217268   -4.2294477 -0.017291402   -5.2217268   0.99227909      8192000 
  366000   0.65964533   -5.2206466   -5.2206466   -4.2311789 -0.026034407   -5.2206466   0.98946774      8192000 
  367000   0.65817455   -5.2198677   -5.2198677   -4.2326061 -0.035602756   -5.2198677   0.98726158      8192000 
  368000   0.65729521   -5.2198581   -5.2198581   -4.2339155  -0.04176212   -5.2198581   0.98594257      8192000 
  369000   0.65671676   -5.2207053   -5.2207053   -4.2356304 -0.042098003   -5.2207053    0.9850749      8192000 
  370000   0.65671117   -5.2222277   -5.2222277   -4.2371612 -0.038696013   -5.2222277   0.98506652      8192000 
  371000   0.65788056   -5.2255148   -5.2255148   -4.2386942 -0.030167645   -5.2255148   0.98682059      8192000 
  372000   0.65907096   -5.2292097   -5.2292097   -4.2406035 -0.022448861   -5.2292097   0.98860619      8192000 
  373000   0.65997174   -5.2322907   -5.2322907   -4.2423334 -0.015073489   -5.2322907   0.98995736      8192000 
  374000    0.6605184   -5.2349369   -5.2349369   -4.2441595 -0.0072195502   -5.2349369   0.99077735      8192000 
  375000   0.66089101    -5.237073    -5.237073   -4.2457367 -0.0058425035    -5.237073   0.99133626      8192000 
  376000   0.66033263   -5.2380625   -5.2380625   -4.2475639 -0.010550552   -5.2380625   0.99049869      8192000 
  377000    0.6590179   -5.2374269   -5.2374269   -4.2489004 -0.017459397   -5.2374269    0.9885266      8192000 
  378000   0.65726844   -5.2364541   -5.2364541   -4.2505517 -0.024852727   -5.2364541   0.98590242      8192000 
  379000   0.65634636   -5.2365245   -5.2365245   -4.2520052 -0.034611753   -5.2365245    0.9845193      8192000 
  380000   0.65513125   -5.2361463   -5.2361463   -4.2534496 -0.039872625   -5.2361463   0.98269662      8192000 
  381000   0.65479063    -5.237162    -5.237162   -4.2549763 -0.042587198    -5.237162   0.98218569      8192000 
  382000   0.65463752   -5.2385756   -5.2385756   -4.2566195 -0.038285714   -5.2385756   0.98195603      8192000 
  383000   0.65565542   -5.2417331   -5.2417331   -4.2582503 -0.033422764   -5.2417331   0.98348288      8192000 
  384000   0.65612541   -5.2441583   -5.2441583   -4.2599705 -0.023770054   -5.2441583   0.98418787      8192000 
  385000   0.65721253   -5.2475286   -5.2475286   -4.2617101 -0.016658216   -5.2475286   0.98581855      8192000 
  386000   0.65769858   -5.2499442   -5.2499442   -4.2633965 -0.0092909861   -5.2499442   0.98654763      8192000 
  387000   0.65799388   -5.2526719   -5.2526719   -4.2656813 -0.0096231961   -5.2526719   0.98699057      8192000 
  388000   0.65744518   -5.2535291   -5.2535291   -4.2673616 -0.013172202   -5.2535291   0.98616752      8192000 
  389000   0.65630928   -5.2530683   -5.2530683   -4.2686047 -0.018907222   -5.2530683   0.98446368      8192000 
  390000   0.65516432   -5.2527574   -5.2527574   -4.2700111 -0.025450528   -5.2527574   0.98274623      8192000 
  391000   0.65369727   -5.2520227   -5.2520227    -4.271477  -0.03214488   -5.2520227   0.98054567      8192000 
  392000   0.65278937   -5.2522565   -5.2522565   -4.2730727 -0.038666445   -5.2522565   0.97918381      8192000 
  393000   0.65224023   -5.2532086   -5.2532086   -4.2748485 -0.041331909   -5.2532086   0.97836011      8192000 
  394000   0.65235306   -5.2546672   -5.2546672   -4.2761378 -0.039338199   -5.2546672   0.97852934      8192000 
  395000   0.65286885   -5.2570689   -5.2570689   -4.2777658 -0.033355724   -5.2570689   0.97930303      8192000 
  396000   0.65363391   -5.2600348   -5.2600348   -4.2795842 -0.027050864   -5.2600348   0.98045062      8192000 
  397000    0.6545851   -5.2628345   -5.2628345   -4.2809571  -0.02100352   -5.2628345    0.9818774      8192000 
  398000   0.65515662   -5.2654133   -5.2654133   -4.2826786 -0.015696926   -5.2654133   0.98273468      8192000 
  399000   0.65523233   -5.2674912   -5.2674912    -4.284643 -0.015537029   -5.2674912   0.98284825      8192000 
  400000   0.65482166     -5.26838     -5.26838   -4.2861477 -0.015454597     -5.26838   0.98223224      8192000 
  401000   0.65365489    -5.267946    -5.267946    -4.287464 -0.019689695    -5.267946   0.98048209      8192000 
  402000   0.65277303   -5.2681002   -5.2681002   -4.2889409 -0.025862039   -5.2681002    0.9791593      8192000 
  403000    0.6510693   -5.2669754   -5.2669754   -4.2903717 -0.031961804   -5.2669754    0.9766037      8192000 
  404000   0.65083676   -5.2679879   -5.2679879    -4.291733 -0.039219062   -5.2679879    0.9762549      8192000 
  405000   0.65027576    -5.268792    -5.268792   -4.2933786 -0.040803268    -5.268792   0.97541339      8192000 
  406000   0.65014511   -5.2700719   -5.2700719   -4.2948545 -0.038544896   -5.2700719   0.97521742      8192000 
  407000   0.65058513   -5.2719079   -5.2719079   -4.2960304 -0.034070299   -5.2719079   0.97587745      8192000 
  408000   0.65119315   -5.2746544   -5.2746544    -4.297865 -0.026834765   -5.2746544   0.97678947      8192000 
  409000   0.65179261   -5.2774186   -5.2774186     -4.29973 -0.023283884   -5.2774186   0.97768867      8192000 
  410000    0.6518241   -5.2790275   -5.2790275   -4.3012916 -0.017975974   -5.2790275   0.97773591      8192000 
  411000   0.65200549   -5.2807827   -5.2807827   -4.3027747 -0.015919105   -5.2807827   0.97800799      8192000 
  412000   0.65170296   -5.2819973   -5.2819973   -4.3044431 -0.020012096   -5.2819973    0.9775542      8192000 
  413000   0.65066239   -5.2820503   -5.2820503    -4.306057 -0.022531991   -5.2820503   0.97599334      8192000 
  414000   0.65020771   -5.2825562   -5.2825562   -4.3072449  -0.03013499   -5.2825562   0.97531132      8192000 
  415000   0.64908588   -5.2824763   -5.2824763   -4.3088478 -0.036276129   -5.2824763   0.97362858      8192000 
  416000   0.64832323   -5.2828152   -5.2828152   -4.3103305 -0.038148933   -5.2828152   0.97248461      8192000 
  417000   0.64775928   -5.2833201   -5.2833201   -4.3116814 -0.040350586   -5.2833201   0.97163868      8192000 
  418000   0.64819897   -5.2852453   -5.2852453   -4.3129471 -0.037981789   -5.2852453   0.97229822      8192000 
  419000   0.64862579    -5.287305    -5.287305   -4.3143666 -0.033027314    -5.287305   0.97293845      8192000 
  420000     0.648994   -5.2896394   -5.2896394   -4.3161486 -0.028829561   -5.2896394   0.97349076      8192000 
  421000   0.64937698   -5.2920165   -5.2920165   -4.3179512 -0.022557763   -5.2920165   0.97406522      8192000 
  422000   0.64994685   -5.2945207   -5.2945207   -4.3196007 -0.021541996   -5.2945207   0.97492004      8192000 
  423000    0.6495405    -5.295401    -5.295401   -4.3210905 -0.019512415    -5.295401    0.9743105      8192000 
  424000   0.64925134   -5.2966581   -5.2966581   -4.3227814 -0.021663005   -5.2966581   0.97387676      8192000 
  425000   0.64861418   -5.2970319   -5.2970319   -4.3241108 -0.027129341   -5.2970319   0.97292103      8192000 
  426000   0.64766024   -5.2966007   -5.2966007   -4.3251105 -0.031002043   -5.2966007   0.97149012      8192000 
  427000   0.64712371    -5.297306    -5.297306   -4.3266206 -0.036065469    -5.297306   0.97068532      8192000 
  428000   0.64619326   -5.2972719   -5.2972719   -4.3279822 -0.038548182   -5.2972719   0.96928965      8192000 
  429000   0.64582516   -5.2982922   -5.2982922   -4.3295547 -0.039590702   -5.2982922   0.96873749      8192000 
  430000   0.64649603   -5.3008247   -5.3008247   -4.3310809 -0.040356904   -5.3008247   0.96974381      8192000 
  431000   0.64638669   -5.3022434   -5.3022434   -4.3326636 -0.035399801   -5.3022434    0.9695798      8192000 
  432000   0.64690389    -5.304518    -5.304518   -4.3341624 -0.029221807    -5.304518   0.97035559      8192000 
  433000   0.64713607   -5.3064449   -5.3064449    -4.335741 -0.026680722   -5.3064449   0.97070386      8192000 
  434000   0.64752791   -5.3085463   -5.3085463   -4.3372547 -0.023225395   -5.3085463   0.97129161      8192000 
  435000   0.64734052   -5.3097443   -5.3097443   -4.3387338 -0.023128944   -5.3097443   0.97101054      8192000 
  436000    0.6470647   -5.3105385   -5.3105385   -4.3399416 -0.024333077   -5.3105385   0.97059681      8192000 
  437000   0.64597596   -5.3108065   -5.3108065   -4.3418428 -0.029190466   -5.3108065    0.9689637      8192000 
  438000   0.64523841   -5.3110511   -5.3110511   -4.3431937 -0.034262896   -5.3110511   0.96785737      8192000 
  439000   0.64488259   -5.3118593   -5.3118593   -4.3445356 -0.039222444   -5.3118593   0.96732365      8192000 
  440000   0.64436414   -5.3123495   -5.3123495   -4.3458035 -0.041020426   -5.3123495   0.96654597      8192000 
  441000   0.64443436    -5.313491    -5.313491   -4.3468397   -0.0409652    -5.313491   0.96665129      8192000 
  442000   0.64428082   -5.3149754   -5.3149754   -4.3485545 -0.039639839   -5.3149754   0.96642099      8192000 
  443000   0.64433514   -5.3163546   -5.3163546   -4.3498521 -0.033329734   -5.3163546   0.96650247      8192000 
  444000   0.64506465   -5.3189116   -5.3189116   -4.3513149 -0.030258617   -5.3189116   0.96759674      8192000 
  445000   0.64500777   -5.3204707   -5.3204707   -4.3529593 -0.025349568   -5.3204707   0.96751142      8192000 
  446000   0.64528438    -5.322688    -5.322688   -4.3547616 -0.025784901    -5.322688   0.96792633      8192000 
  447000   0.64498169   -5.3240196   -5.3240196   -4.3565473 -0.026835757   -5.3240196    0.9674723      8192000 
  448000   0.64424793   -5.3241166   -5.3241166   -4.3577449 -0.029555499   -5.3241166   0.96637166      8192000 
  449000   0.64380129   -5.3248802   -5.3248802   -4.3591785 -0.032914876   -5.3248802   0.96570169      8192000 
  450000   0.64310848   -5.3253613   -5.3253613   -4.3606988 -0.038677355   -5.3253613   0.96466248      8192000 
  451000    0.6424872   -5.3257553   -5.3257553   -4.3620248 -0.041459275   -5.3257553   0.96373056      8192000 
  452000   0.64204896   -5.3264991   -5.3264991   -4.3634259 -0.040754207   -5.3264991   0.96307319      8192000 
  453000   0.64205644   -5.3277938   -5.3277938   -4.3647094  -0.03952209   -5.3277938   0.96308441      8192000 
  454000   0.64221243   -5.3293534   -5.3293534    -4.366035 -0.036935728   -5.3293534    0.9633184      8192000 
  455000   0.64268322    -5.331761    -5.331761   -4.3677364 -0.032270305    -5.331761    0.9640246      8192000 
  456000   0.64316654   -5.3338007   -5.3338007   -4.3690512 -0.030759966   -5.3338007   0.96474958      8192000 
  457000   0.64308042   -5.3352017   -5.3352017   -4.3705813 -0.027665948   -5.3352017   0.96462039      8192000 
  458000   0.64283493   -5.3365225   -5.3365225   -4.3722703 -0.026836883   -5.3365225   0.96425216      8192000 
  459000   0.64280312   -5.3378889   -5.3378889   -4.3736845 -0.030770493   -5.3378889   0.96420444      8192000 
  460000   0.64179518   -5.3378109   -5.3378109   -4.3751184 -0.033773148   -5.3378109   0.96269253      8192000 
  461000   0.64161451   -5.3389183   -5.3389183   -4.3764967 -0.037273457   -5.3389183   0.96242153      8192000 
  462000   0.64084698   -5.3392881   -5.3392881   -4.3780179 -0.040558603   -5.3392881   0.96127022      8192000 
  463000   0.64024751   -5.3397758   -5.3397758   -4.3794047 -0.041674092   -5.3397758   0.96037103      8192000 
  464000   0.64022901    -5.340935    -5.340935   -4.3805917 -0.041485628    -5.340935   0.96034327      8192000 
  465000   0.64058364   -5.3429141   -5.3429141   -4.3820389 -0.039644924   -5.3429141   0.96087522      8192000 
  466000   0.64072453   -5.3444187   -5.3444187   -4.3833322 -0.035457369   -5.3444187   0.96108655      8192000 
  467000   0.64130297   -5.3469821   -5.3469821   -4.3850279 -0.035388051   -5.3469821   0.96195421      8192000 
  468000   0.64114731   -5.3479627   -5.3479627   -4.3862419 -0.030687339   -5.3479627   0.96172073      8192000 
  469000   0.64119272   -5.3495859   -5.3495859   -4.3877971 -0.030483178   -5.3495859   0.96178884      8192000 
  470000   0.64148789   -5.3508976   -5.3508976    -4.388666 -0.032771648   -5.3508976    0.9622316      8192000 
  471000    0.6406654   -5.3509996   -5.3509996   -4.3900017 -0.033642937   -5.3509996   0.96099786      8192000 
  472000   0.63990111   -5.3515464   -5.3515464    -4.391695 -0.036750092   -5.3515464   0.95985143      8192000 
  473000   0.63932613   -5.3521474   -5.3521474   -4.3931585 -0.040045612   -5.3521474   0.95898896      8192000 
  474000   0.63875498   -5.3526567   -5.3526567   -4.3945245  -0.04102089   -5.3526567   0.95813223      8192000 
  475000   0.63832292   -5.3530414   -5.3530414   -4.3955573 -0.039942082   -5.3530414   0.95748414      8192000 
  476000   0.63909825   -5.3554247   -5.3554247   -4.3967776  -0.04116797   -5.3554247   0.95864713      8192000 
  477000    0.6390547   -5.3568716   -5.3568716   -4.3982898  -0.03825175   -5.3568716    0.9585818      8192000 
  478000   0.63912165   -5.3583967   -5.3583967   -4.3997144 -0.035832423   -5.3583967   0.95868223      8192000 
  479000   0.63899487   -5.3596844   -5.3596844   -4.4011923 -0.032028541   -5.3596844   0.95849206      8192000 
  480000   0.63913043    -5.361132    -5.361132   -4.4024366 -0.031885154    -5.361132    0.9586954      8192000 
  481000   0.63918365   -5.3627039   -5.3627039   -4.4039286 -0.033363669   -5.3627039   0.95877523      8192000 
  482000   0.63833882    -5.363225    -5.363225    -4.405717 -0.035408633    -5.363225   0.95750799      8192000 
  483000   0.63818896   -5.3642463   -5.3642463   -4.4069631 -0.037593702   -5.3642463   0.95728319      8192000 
  484000   0.63757366   -5.3647619   -5.3647619   -4.4084017  -0.03984795   -5.3647619   0.95636025      8192000 
  485000   0.63732008   -5.3656728   -5.3656728   -4.4096929 -0.042648843   -5.3656728   0.95597988      8192000 
  486000   0.63671081   -5.3661136   -5.3661136   -4.4110476 -0.042459144   -5.3661136   0.95506598      8192000 
  487000   0.63658153   -5.3675077   -5.3675077   -4.4126356 -0.041462557   -5.3675077   0.95487206      8192000 
  488000   0.63656134    -5.368804    -5.368804   -4.4139622 -0.041167162    -5.368804   0.95484176      8192000 
  489000   0.63697924   -5.3706841   -5.3706841   -4.4152155 -0.038479961   -5.3706841   0.95546862      8192000 
  490000   0.63701576   -5.3719343   -5.3719343   -4.4164109 -0.035917001   -5.3719343    0.9555234      8192000 
  491000   0.63672789    -5.373049    -5.373049   -4.4179574 -0.034201287    -5.373049    0.9550916      8192000 
  492000   0.63688259   -5.3745463   -5.3745463   -4.4192226 -0.034624421   -5.3745463   0.95532365      8192000 
  493000   0.63647467   -5.3754905   -5.3754905   -4.4207788  -0.03576386   -5.3754905   0.95471177      8192000 
  494000   0.63617811   -5.3761992   -5.3761992   -4.4219323 -0.038012468   -5.3761992   0.95426692      8192000 
  495000   0.63574337   -5.3767607   -5.3767607   -4.4231459 -0.040524577   -5.3767607   0.95361481      8192000 
  496000   0.63511489   -5.3771738   -5.3771738   -4.4245017 -0.042267033   -5.3771738   0.95267209      8192000 
  497000   0.63532262   -5.3786165   -5.3786165   -4.4256328  -0.04262692   -5.3786165   0.95298368      8192000 
  498000   0.63494922   -5.3794768   -5.3794768   -4.4270532  -0.04315104   -5.3794768    0.9524236      8192000 
  499000   0.63491301    -5.380773    -5.380773   -4.4284038 -0.039525893    -5.380773   0.95236927      8192000 
  500000   0.63519151    -5.382453    -5.382453    -4.429666 -0.039281454    -5.382453   0.95278702      8192000 
  501000   0.63535979   -5.3838428   -5.3838428   -4.4308033 -0.036940958   -5.3838428   0.95303945      8192000 
  502000    0.6353731    -5.385561    -5.385561   -4.4325016 -0.036319997    -5.385561   0.95305941      8192000 
  503000   0.63488316   -5.3861072   -5.3861072   -4.4337827 -0.035445556   -5.3861072    0.9523245      8192000 
  504000   0.63487526   -5.3875411   -5.3875411   -4.4352284 -0.037438449   -5.3875411   0.95231266      8192000 
  505000   0.63432571   -5.3881046   -5.3881046   -4.4366162 -0.039440014   -5.3881046   0.95148833      8192000 
  506000   0.63374329   -5.3885006   -5.3885006   -4.4378859 -0.041486623   -5.3885006    0.9506147      8192000 
  507000   0.63357767   -5.3893044   -5.3893044   -4.4389381 -0.042741184   -5.3893044   0.95036627      8192000 
  508000   0.63324348   -5.3902671   -5.3902671   -4.4404021 -0.043180699   -5.3902671   0.94986499      8192000 
  509000   0.63359246   -5.3922243   -5.3922243   -4.4418358 -0.044270433   -5.3922243   0.95038845      8192000 
  510000   0.63330192   -5.3930988   -5.3930988   -4.4431462 -0.042589545   -5.3930988   0.94995264      8192000 
  511000     0.633481   -5.3947823   -5.3947823    -4.444561 -0.041578283   -5.3947823   0.95022127      8192000 
  512000   0.63337491    -5.395916    -5.395916   -4.4458539 -0.039030149    -5.395916   0.95006213      8192000 
  513000   0.63324687   -5.3975093   -5.3975093   -4.4476392 -0.037329024   -5.3975093   0.94987006      8192000 
  514000   0.63357402    -5.399125    -5.399125   -4.4487642 -0.038161265    -5.399125   0.95036079      8192000 
  515000   0.63318346   -5.3998402   -5.3998402   -4.4500653 -0.038594908   -5.3998402   0.94977496      8192000 
  516000   0.63251745   -5.4001361   -5.4001361   -4.4513602 -0.038687377   -5.4001361   0.94877593      8192000 
  517000   0.63234824      -5.4011      -5.4011   -4.4525779 -0.041813116      -5.4011   0.94852212      8192000 
  518000   0.63210358   -5.4019193   -5.4019193   -4.4537642 -0.044753529   -5.4019193   0.94815513      8192000 
  519000   0.63167045   -5.4025723   -5.4025723   -4.4550669 -0.045153711   -5.4025723   0.94750545      8192000 
  520000   0.63160693     -5.40366     -5.40366   -4.4562498   -0.0438068     -5.40366   0.94741015      8192000 
  521000   0.63118848   -5.4046189   -5.4046189   -4.4578364 -0.043635185   -5.4046189   0.94678248      8192000 
  522000     0.631459   -5.4062154   -5.4062154   -4.4590271 -0.042074431   -5.4062154   0.94718826      8192000 
  523000   0.63169003   -5.4079031   -5.4079031   -4.4603683 -0.040696882   -5.4079031   0.94753481      8192000 
  524000   0.63153293   -5.4088493   -5.4088493   -4.4615502 -0.038117202   -5.4088493   0.94729916      8192000 
  525000   0.63133246   -5.4101633   -5.4101633   -4.4631649 -0.039348294   -5.4101633   0.94699845      8192000 
  526000   0.63120927   -5.4112434   -5.4112434   -4.4644298 -0.039217733   -5.4112434   0.94681367      8192000 
  527000   0.63077158   -5.4118586   -5.4118586   -4.4657014 -0.040717165   -5.4118586   0.94615714      8192000 
  528000   0.63058339   -5.4130122   -5.4130122   -4.4671374 -0.042149953   -5.4130122   0.94587485      8192000 
  529000   0.63022136   -5.4134373   -5.4134373   -4.4681055 -0.044938565   -5.4134373    0.9453318      8192000 
  530000   0.63005053   -5.4142775   -5.4142775    -4.469202 -0.043510711   -5.4142775   0.94507556      8192000 
  531000   0.62984279   -5.4152164   -5.4152164   -4.4704524 -0.045378585   -5.4152164   0.94476395      8192000 
  532000   0.63027969   -5.4173874   -5.4173874   -4.4719681 -0.047398788   -5.4173874    0.9454193      8192000 
  533000   0.62975568   -5.4178952   -5.4178952   -4.4732619 -0.043774555   -5.4178952   0.94463328      8192000 
  534000   0.62984407   -5.4197331   -5.4197331   -4.4749672 -0.043333375   -5.4197331   0.94476588      8192000 
  535000   0.62982071   -5.4209875   -5.4209875   -4.4762567 -0.041961182   -5.4209875   0.94473082      8192000 
  536000   0.62977139   -5.4221323   -5.4221323   -4.4774754 -0.040834677   -5.4221323   0.94465685      8192000 
  537000    0.6298127   -5.4233381   -5.4233381   -4.4786193 -0.042046218   -5.4233381   0.94471882      8192000 
  538000   0.62953439    -5.423999    -5.423999   -4.4796976 -0.043281049    -5.423999   0.94430135      8192000 
  539000   0.62899229   -5.4243769   -5.4243769   -4.4808887 -0.044263174   -5.4243769   0.94348821      8192000 
  540000   0.62898496   -5.4259676   -5.4259676   -4.4824904 -0.046642128   -5.4259676   0.94347721      8192000 
  541000   0.62826156   -5.4261278   -5.4261278   -4.4837357 -0.047843494   -5.4261278   0.94239211      8192000 
  542000   0.62838186   -5.4274948   -5.4274948   -4.4849223 -0.049379974   -5.4274948   0.94257256      8192000 
  543000   0.62861313   -5.4290776   -5.4290776   -4.4861581 -0.050086217   -5.4290776   0.94291946      8192000 
  544000   0.62830718     -5.43018     -5.43018   -4.4877195 -0.047529848     -5.43018   0.94246053      8192000 
  545000   0.62860694   -5.4317069   -5.4317069   -4.4887967 -0.045801243   -5.4317069   0.94291017      8192000 
  546000   0.62832993   -5.4328029   -5.4328029   -4.4903083 -0.044349523   -5.4328029   0.94249466      8192000 
  547000   0.62828864   -5.4340308   -5.4340308   -4.4915981 -0.042333924   -5.4340308   0.94243272      8192000 
  548000   0.62805429   -5.4349408   -5.4349408   -4.4928596 -0.044521752   -5.4349408   0.94208119      8192000 
  549000   0.62781134   -5.4359145   -5.4359145   -4.4941977 -0.045118168   -5.4359145   0.94171677      8192000 
  550000   0.62782232   -5.4370999   -5.4370999   -4.4953667 -0.047984731   -5.4370999   0.94173325      8192000 
  551000   0.62713602   -5.4373409   -5.4373409   -4.4966371 -0.048917054   -5.4373409   0.94070379      8192000 
  552000   0.62715982   -5.4382238   -5.4382238   -4.4974843 -0.049164359   -5.4382238    0.9407395      8192000 
  553000   0.62691304   -5.4390413   -5.4390413    -4.498672 -0.051204714   -5.4390413   0.94036933      8192000 
  554000    0.6270587   -5.4408008   -5.4408008    -4.500213 -0.050037726   -5.4408008   0.94058782      8192000 
  555000   0.62700107   -5.4421569   -5.4421569   -4.5016555 -0.049333198   -5.4421569   0.94050137      8192000 
  556000   0.62657594   -5.4429932   -5.4429932   -4.5031295 -0.047215227   -5.4429932   0.93986367      8192000 
  557000   0.62676977   -5.4446343   -5.4446343   -4.5044799 -0.047195886   -5.4446343   0.94015442      8192000 
  558000   0.62690248   -5.4459687   -5.4459687   -4.5056152 -0.045624543   -5.4459687   0.94035348      8192000 
  559000   0.62671776   -5.4470018   -5.4470018   -4.5069254 -0.045252267   -5.4470018   0.94007641      8192000 
  560000   0.62634062   -5.4475459   -5.4475459   -4.5080352 -0.044431981   -5.4475459   0.93951069      8192000 
  561000   0.62603194   -5.4485355   -5.4485355   -4.5094878 -0.048705215   -5.4485355   0.93904768      8192000 
  562000   0.62575348   -5.4493109   -5.4493109   -4.5106809  -0.04915705   -5.4493109   0.93862998      8192000 
  563000   0.62548393     -5.45023     -5.45023   -4.5120044  -0.05051806     -5.45023   0.93822565      8192000 
  564000   0.62522029   -5.4507927   -5.4507927   -4.5129625  -0.05072774   -5.4507927    0.9378302      8192000 
  565000   0.62512211   -5.4518528   -5.4518528   -4.5141698 -0.050141787   -5.4518528   0.93768293      8192000 
  566000   0.62522944   -5.4534214   -5.4534214   -4.5155775 -0.049987182   -5.4534214   0.93784393      8192000 
  567000   0.62513936   -5.4545522   -5.4545522   -4.5168434 -0.048524743   -5.4545522    0.9377088      8192000 
  568000   0.62531825   -5.4558489   -5.4558489   -4.5178718  -0.04628489   -5.4558489   0.93797715      8192000 
  569000   0.62537583    -5.457168    -5.457168   -4.5191045 -0.046733146    -5.457168   0.93806351      8192000 
  570000   0.62477886    -5.457599    -5.457599   -4.5204309  -0.04586777    -5.457599   0.93716806      8192000 
  571000   0.62469671     -5.45852     -5.45852   -4.5214752  -0.04831724     -5.45852   0.93704483      8192000 
  572000   0.62439654   -5.4593093   -5.4593093   -4.5227148 -0.049619566   -5.4593093   0.93659457      8192000 
  573000   0.62431373   -5.4602517   -5.4602517   -4.5237813 -0.049585629   -5.4602517   0.93647036      8192000 
  574000   0.62411441   -5.4612243   -5.4612243   -4.5250529 -0.051262816   -5.4612243   0.93617138      8192000 
  575000   0.62405159   -5.4623701   -5.4623701    -4.526293 -0.051337309   -5.4623701   0.93607716      8192000 
  576000   0.62366728    -5.463075    -5.463075   -4.5275743 -0.051537075    -5.463075   0.93550069      8192000 
  577000     0.623744   -5.4645914   -5.4645914   -4.5289756 -0.049969263   -5.4645914   0.93561576      8192000 
  578000   0.62347622   -5.4652226   -5.4652226   -4.5300085 -0.048302392   -5.4652226   0.93521409      8192000 
  579000   0.62337549   -5.4662996   -5.4662996   -4.5312366 -0.047539363   -5.4662996     0.935063      8192000 
  580000    0.6235042   -5.4677227   -5.4677227   -4.5324667 -0.047457476   -5.4677227   0.93525607      8192000 
  581000    0.6232903   -5.4684321   -5.4684321   -4.5334969 -0.048686965   -5.4684321   0.93493522      8192000 
  582000   0.62315768   -5.4697902   -5.4697902   -4.5350539 -0.051250401   -5.4697902   0.93473629      8192000 
  583000   0.62245682   -5.4700968   -5.4700968   -4.5364118 -0.050535032   -5.4700968     0.933685      8192000 
  584000   0.62265443   -5.4715146   -5.4715146   -4.5375332 -0.053264625   -5.4715146   0.93398141      8192000 
  585000   0.62240849   -5.4725395   -5.4725395    -4.538927 -0.052658367   -5.4725395    0.9336125      8192000 
  586000   0.62187095   -5.4728344   -5.4728344   -4.5400282 -0.051242192   -5.4728344    0.9328062      8192000 
  587000    0.6218897   -5.4741023   -5.4741023   -4.5412679 -0.051513369   -5.4741023   0.93283432      8192000 
  588000     0.622035   -5.4757818   -5.4757818   -4.5427295 -0.051137383   -5.4757818   0.93305227      8192000 
  589000    0.6217231   -5.4763405   -5.4763405   -4.5437561 -0.049026767   -5.4763405   0.93258442      8192000 
  590000   0.62184821    -5.477768    -5.477768   -4.5449959 -0.049185423    -5.477768   0.93277209      8192000 
  591000   0.62208252   -5.4791408   -5.4791408   -4.5460173 -0.050856197   -5.4791408   0.93312355      8192000 
  592000   0.62172648    -5.479366    -5.479366   -4.5467765 -0.049914943    -5.479366   0.93258948      8192000 
  593000   0.62162133   -5.4808087   -5.4808087   -4.5483769  -0.05118389   -5.4808087   0.93243176      8192000 
  594000   0.62146526   -5.4820067   -5.4820067   -4.5498091 -0.054758912   -5.4820067   0.93219766      8192000 
  595000   0.62104897   -5.4825667   -5.4825667   -4.5509935  -0.05514476   -5.4825667   0.93157322      8192000 
  596000   0.62078467   -5.4830599   -5.4830599   -4.5518831  -0.05258101   -5.4830599   0.93117677      8192000 
  597000   0.62087078   -5.4843569   -5.4843569   -4.5530509 -0.053154171   -5.4843569   0.93130594      8192000 
  598000   0.62049918   -5.4850875   -5.4850875   -4.5543389 -0.050988182   -5.4850875   0.93074853      8192000 
  599000   0.62073712   -5.4867652   -5.4867652   -4.5556597 -0.052383634   -5.4867652   0.93110545      8192000 
  600000   0.62096708   -5.4881847   -5.4881847   -4.5567344 -0.051333691   -5.4881847   0.93145038      8192000 
  601000   0.62094262   -5.4892659   -5.4892659   -4.5578522 -0.051703326   -5.4892659   0.93141369      8192000 
  602000   0.62076436    -5.490223    -5.490223   -4.5590767  -0.05125345    -5.490223    0.9311463      8192000 
  603000   0.62039681   -5.4908982   -5.4908982   -4.5603032 -0.053021946   -5.4908982   0.93059499      8192000 
  604000   0.61968337   -5.4911368   -5.4911368    -4.561612 -0.051344462   -5.4911368   0.92952482      8192000 
  605000   0.62000392   -5.4925295   -5.4925295   -4.5625239 -0.053661913   -5.4925295   0.93000564      8192000 
  606000   0.62003371    -5.493604    -5.493604   -4.5635536 -0.055008302    -5.493604   0.93005033      8192000 
  607000   0.61971458   -5.4945247   -5.4945247   -4.5649531 -0.054557915   -5.4945247   0.92957163      8192000 
  608000   0.61935926   -5.4953221   -5.4953221   -4.5662834 -0.052820138   -5.4953221   0.92903866      8192000 
  609000   0.61950138   -5.4969216   -5.4969216   -4.5676698 -0.053385865   -5.4969216   0.92925183      8192000 
  610000    0.6191152   -5.4975392   -5.4975392   -4.5688667  -0.05123333   -5.4975392   0.92867256      8192000 
  611000   0.61918367   -5.4987889   -5.4987889   -4.5700136 -0.051499345   -5.4987889   0.92877527      8192000 
  612000   0.61885043   -5.4994466   -5.4994466   -4.5711712 -0.052048107   -5.4994466   0.92827542      8192000 
  613000   0.61855754   -5.5003634   -5.5003634   -4.5725273 -0.051102021   -5.5003634   0.92783608      8192000 
  614000   0.61883736   -5.5021465   -5.5021465   -4.5738907 -0.055251999   -5.5021465   0.92825581      8192000 
  615000   0.61842334   -5.5026118   -5.5026118    -4.574977 -0.053829309   -5.5026118   0.92763478      8192000 
  616000   0.61850016   -5.5039378   -5.5039378   -4.5761878 -0.054901645   -5.5039378   0.92775001      8192000 
  617000   0.61839363    -5.505076    -5.505076   -4.5774858 -0.054692197    -5.505076   0.92759021      8192000 
  618000   0.61796224   -5.5053756   -5.5053756   -4.5784324 -0.054462377   -5.5053756   0.92694313      8192000 
  619000   0.61803436   -5.5065776   -5.5065776   -4.5795263 -0.053549337   -5.5065776   0.92705132      8192000 
  620000   0.61795194    -5.507203    -5.507203   -4.5802753 -0.051783091    -5.507203   0.92692767      8192000 
  621000   0.61807921   -5.5086702   -5.5086702   -4.5815516 -0.053635235   -5.5086702   0.92711858      8192000 
  622000   0.61803814   -5.5100197   -5.5100197   -4.5829627 -0.053601237   -5.5100197   0.92705697      8192000 
  623000   0.61764512   -5.5103983   -5.5103983   -4.5839309 -0.052977884   -5.5103983   0.92646745      8192000 
  624000   0.61753214   -5.5112704   -5.5112704   -4.5849724 -0.053870534   -5.5112704   0.92629798      8192000 
  625000    0.6173408   -5.5121108   -5.5121108   -4.5860998 -0.054256707   -5.5121108   0.92601097      8192000 
  626000   0.61724391   -5.5130022   -5.5130022   -4.5871366 -0.054678308   -5.5130022   0.92586563      8192000 
  627000   0.61751022   -5.5142865   -5.5142865   -4.5880214 -0.056109819   -5.5142865    0.9262651      8192000 
  628000   0.61707144   -5.5147195   -5.5147195   -4.5891126 -0.054630167   -5.5147195   0.92560693      8192000 
  629000   0.61674634   -5.5156416   -5.5156416   -4.5905223 -0.054767244   -5.5156416   0.92511928      8192000 
  630000   0.61708714   -5.5174756   -5.5174756   -4.5918452 -0.055389402   -5.5174756   0.92563048      8192000 
  631000   0.61661049   -5.5180973   -5.5180973   -4.5931818 -0.055803163   -5.5180973   0.92491551      8192000 
  632000   0.61648344   -5.5191246   -5.5191246   -4.5943997 -0.054472734   -5.5191246   0.92472493      8192000 
  633000   0.61635757   -5.5202536   -5.5202536   -4.5957174 -0.055310662   -5.5202536   0.92453612      8192000 
  634000   0.61607305   -5.5206698   -5.5206698   -4.5965604 -0.054361429   -5.5206698   0.92410934      8192000 
  635000   0.61605586   -5.5218165   -5.5218165   -4.5977329 -0.053919108   -5.5218165   0.92408356      8192000 
  636000   0.61574528   -5.5225047   -5.5225047    -4.598887  -0.05520713   -5.5225047   0.92361769      8192000 
  637000   0.61584272    -5.523822    -5.523822   -4.6000581 -0.056895866    -5.523822   0.92376384      8192000 
  638000   0.61543565   -5.5242021   -5.5242021   -4.6010488 -0.055102891   -5.5242021   0.92315324      8192000 
  639000   0.61541596   -5.5252278   -5.5252278   -4.6021041 -0.056735552   -5.5252278    0.9231237      8192000 
  640000   0.61587364   -5.5270085   -5.5270085   -4.6031983 -0.056973416   -5.5270085   0.92381023      8192000 
  641000   0.61539122   -5.5277956   -5.5277956    -4.604709 -0.056209789   -5.5277956   0.92308659      8192000 
  642000   0.61521025   -5.5286319   -5.5286319   -4.6058167 -0.055895071   -5.5286319   0.92281515      8192000 
  643000   0.61477902   -5.5293899   -5.5293899   -4.6072216 -0.055424085   -5.5293899    0.9221683      8192000 
  644000   0.61517149    -5.530859    -5.530859    -4.608102 -0.056637642    -5.530859     0.922757      8192000 
  645000   0.61494055   -5.5317047   -5.5317047   -4.6092941 -0.055885128   -5.5317047   0.92241059      8192000 
  646000   0.61456471   -5.5325937   -5.5325937   -4.6107468 -0.058112783   -5.5325937   0.92184684      8192000 
  647000   0.61447295   -5.5338206   -5.5338206   -4.6121114 -0.058986148   -5.5338206   0.92170919      8192000 
  648000   0.61433836   -5.5349077   -5.5349077   -4.6134004 -0.059064535   -5.5349077    0.9215073      8192000 
  649000   0.61418648   -5.5356602   -5.5356602   -4.6143807 -0.057708723   -5.5356602   0.92127949      8192000 
  650000   0.61430838   -5.5370335   -5.5370335   -4.6155711 -0.057618586   -5.5370335   0.92146234      8192000 
  651000   0.61440487   -5.5380859   -5.5380859   -4.6164788 -0.058241836   -5.5380859   0.92160708      8192000 
  652000   0.61419458   -5.5390496   -5.5390496    -4.617758 -0.057605614   -5.5390496   0.92129164      8192000 
  653000   0.61391742     -5.53957     -5.53957   -4.6186941 -0.057991811     -5.53957    0.9208759      8192000 
  654000   0.61387255   -5.5403808   -5.5403808   -4.6195722 -0.058470061   -5.5403808    0.9208086      8192000 
  655000   0.61328298    -5.540962    -5.540962   -4.6210378 -0.057650191    -5.540962   0.91992424      8192000 
  656000   0.61337981    -5.542375    -5.542375   -4.6223055 -0.060040862    -5.542375   0.92006948      8192000 
  657000   0.61320741   -5.5434105   -5.5434105   -4.6235997 -0.059489932   -5.5434105   0.91981089      8192000 
  658000   0.61314656   -5.5442758   -5.5442758   -4.6245562 -0.059345421   -5.5442758   0.91971961      8192000 
  659000   0.61300623   -5.5453053   -5.5453053   -4.6257962 -0.058690691   -5.5453053   0.91950912      8192000 
  660000   0.61273329   -5.5461369   -5.5461369   -4.6270372 -0.056049561   -5.5461369   0.91909971      8192000 
  661000    0.6129178   -5.5474702   -5.5474702   -4.6280937 -0.057281703   -5.5474702   0.91937647      8192000 
  662000   0.61259733   -5.5482439   -5.5482439   -4.6293481 -0.057897825   -5.5482439   0.91889577      8192000 
  663000   0.61289865   -5.5495184   -5.5495184   -4.6301706 -0.058552551   -5.5495184   0.91934774      8192000 
  664000   0.61242668   -5.5499363   -5.5499363   -4.6312965 -0.058341814   -5.5499363   0.91863979      8192000 
  665000   0.61233658   -5.5510699   -5.5510699   -4.6325653 -0.058038248   -5.5510699   0.91850464      8192000 
  666000   0.61202815    -5.552062    -5.552062     -4.63402 -0.060543409    -5.552062     0.918042      8192000 
  667000   0.61226931   -5.5534266   -5.5534266   -4.6350228 -0.060951309   -5.5534266   0.91840373      8192000 
  668000   0.61195111   -5.5541732   -5.5541732   -4.6362468 -0.058965472   -5.5541732   0.91792644      8192000 
  669000   0.61190457   -5.5551675   -5.5551675   -4.6373109 -0.058972497   -5.5551675   0.91785662      8192000 
  670000     0.612046    -5.556663    -5.556663   -4.6385943 -0.059901699    -5.556663   0.91806876      8192000 
  671000   0.61191431   -5.5575201   -5.5575201   -4.6396489 -0.059293965   -5.5575201   0.91787124      8192000 
  672000   0.61158247   -5.5581179   -5.5581179   -4.6407444 -0.058033542   -5.5581179   0.91737347      8192000 
  673000   0.61113992   -5.5587412   -5.5587412   -4.6420316 -0.058534612   -5.5587412   0.91670966      8192000 
  674000   0.61125638   -5.5600527   -5.5600527   -4.6431683 -0.059471124   -5.5600527   0.91688435      8192000 
  675000   0.61114558   -5.5609262   -5.5609262    -4.644208  -0.06074776   -5.5609262   0.91671814      8192000 
  676000    0.6111009   -5.5616444   -5.5616444   -4.6449933 -0.059706428   -5.5616444   0.91665111      8192000 
  677000   0.61075422   -5.5626844   -5.5626844   -4.6465533 -0.061316641   -5.5626844   0.91613111      8192000 
  678000   0.61090519   -5.5638212   -5.5638212   -4.6474636 -0.062051558   -5.5638212   0.91635756      8192000 
  679000   0.61029008   -5.5640484   -5.5640484   -4.6486136   -0.0579223   -5.5640484   0.91543488      8192000 
  680000   0.61071065   -5.5658076   -5.5658076   -4.6497419 -0.060418504   -5.5658076   0.91606574      8192000 
  681000   0.61019331   -5.5660367   -5.5660367   -4.6507469 -0.059208378   -5.5660367   0.91528973      8192000 
  682000   0.60978331   -5.5666701   -5.5666701   -4.6519954  -0.05862764   -5.5666701   0.91467473      8192000 
  683000   0.61025151   -5.5685444   -5.5685444   -4.6531674 -0.060372397   -5.5685444   0.91537703      8192000 
  684000   0.61018019   -5.5693329   -5.5693329   -4.6540629 -0.059436611   -5.5693329   0.91527005      8192000 
  685000   0.60991081   -5.5700642   -5.5700642   -4.6551982 -0.060975436   -5.5700642   0.91486599      8192000 
  686000    0.6095441   -5.5709889   -5.5709889    -4.656673 -0.060761864   -5.5709889   0.91431592      8192000 
  687000   0.60948042   -5.5719408   -5.5719408   -4.6577204 -0.060655817   -5.5719408    0.9142204      8192000 
  688000   0.60951615   -5.5729895   -5.5729895   -4.6587155 -0.061446216   -5.5729895     0.914274      8192000 
  689000   0.60937513   -5.5738286   -5.5738286   -4.6597661 -0.061761595   -5.5738286   0.91406246      8192000 
  690000   0.60948745    -5.575031    -5.575031   -4.6608001 -0.061218342    -5.575031   0.91423095      8192000 
  691000   0.60946327   -5.5761497   -5.5761497   -4.6619551 -0.061331488   -5.5761497   0.91419467      8192000 
  692000   0.60926328   -5.5767472   -5.5767472   -4.6628525 -0.061170664   -5.5767472   0.91389469      8192000 
  693000   0.60905172   -5.5774778   -5.5774778   -4.6639004 -0.060859408   -5.5774778   0.91357735      8192000 
  694000   0.60859631   -5.5779352   -5.5779352    -4.665041   -0.0586966   -5.5779352   0.91289423      8192000 
  695000   0.60880755   -5.5791375   -5.5791375   -4.6659264 -0.060507008   -5.5791375   0.91321109      8192000 
  696000   0.60857145   -5.5797389   -5.5797389    -4.666882 -0.060263682   -5.5797389   0.91285695      8192000 
  697000   0.60847101   -5.5809585   -5.5809585   -4.6682522 -0.061067872   -5.5809585   0.91270629      8192000 
  698000   0.60832234   -5.5819174   -5.5819174   -4.6694341 -0.062362667   -5.5819174   0.91248329      8192000 
  699000   0.60837152    -5.582988    -5.582988    -4.670431 -0.061681663    -5.582988   0.91255705      8192000 
  700000   0.60815043   -5.5836745   -5.5836745   -4.6714491 -0.060692089   -5.5836745   0.91222542      8192000 
  701000   0.60826238   -5.5847451   -5.5847451   -4.6723517  -0.06122561   -5.5847451   0.91239334      8192000 
  702000   0.60783725   -5.5855267   -5.5855267    -4.673771 -0.059863726   -5.5855267   0.91175565      8192000 
  703000   0.60789753   -5.5867287   -5.5867287   -4.6748827 -0.061668588   -5.5867287   0.91184607      8192000 
  704000   0.60827958   -5.5883076   -5.5883076   -4.6758884 -0.062191817   -5.5883076   0.91241914      8192000 
  705000   0.60795651   -5.5888055   -5.5888055    -4.676871 -0.062394606   -5.5888055   0.91193454      8192000 
  706000   0.60765972   -5.5897283   -5.5897283   -4.6782389 -0.062825954   -5.5897283   0.91148935      8192000 
  707000   0.60764271   -5.5904346   -5.5904346   -4.6789708 -0.061605422   -5.5904346   0.91146384      8192000 
  708000   0.60730491   -5.5908772   -5.5908772   -4.6799201 -0.060221411   -5.5908772   0.91095713      8192000 
  709000   0.60731759   -5.5918953   -5.5918953   -4.6809192 -0.061047169   -5.5918953   0.91097615      8192000 
  710000   0.60739853   -5.5932646   -5.5932646    -4.682167 -0.064000307   -5.5932646   0.91109756      8192000 
  711000   0.60697715   -5.5934404   -5.5934404   -4.6829749 -0.063065471   -5.5934404    0.9104655      8192000 
  712000    0.6071187    -5.594815    -5.594815   -4.6841372 -0.063678451    -5.594815   0.91067783      8192000 
  713000   0.60707627    -5.595873    -5.595873   -4.6852588 -0.063101701    -5.595873   0.91061418      8192000 
  714000   0.60697096   -5.5965324   -5.5965324   -4.6860761 -0.063098706   -5.5965324   0.91045621      8192000 
  715000   0.60700725   -5.5978885   -5.5978885   -4.6873779 -0.062661578   -5.5978885   0.91051064      8192000 
  716000   0.60667231   -5.5987437   -5.5987437   -4.6887354 -0.062711616   -5.5987437   0.91000824      8192000 
  717000   0.60651935   -5.5997287   -5.5997287   -4.6899499 -0.061572691   -5.5997287    0.9097788      8192000 
  718000    0.6062437   -5.6004106   -5.6004106   -4.6910453 -0.062403551   -5.6004106   0.90936532      8192000 
  719000    0.6061252   -5.6013148   -5.6013148   -4.6921272 -0.063126233   -5.6013148   0.90918757      8192000 
  720000   0.60597068   -5.6019893   -5.6019893   -4.6930335 -0.063618702   -5.6019893   0.90895579      8192000 
  721000   0.60587068   -5.6025962   -5.6025962   -4.6937905 -0.065360187   -5.6025962   0.90880579      8192000 
  722000   0.60578495   -5.6037412   -5.6037412    -4.695064 -0.067670075   -5.6037412    0.9086772      8192000 
  723000   0.60549968   -5.6043406   -5.6043406   -4.6960913 -0.065726966   -5.6043406    0.9082493      8192000 
  724000   0.60563561   -5.6057873   -5.6057873   -4.6973341 -0.066885049   -5.6057873   0.90845318      8192000 
  725000     0.605237   -5.6061272   -5.6061272    -4.698272 -0.063343883   -5.6061272   0.90785527      8192000 
  726000   0.60529222   -5.6072342   -5.6072342   -4.6992961 -0.063701636   -5.6072342    0.9079381      8192000 
  727000   0.60487849   -5.6081287   -5.6081287   -4.7008112 -0.062614674   -5.6081287   0.90731751      8192000 
  728000   0.60466791   -5.6087737   -5.6087737   -4.7017721 -0.063544178   -5.6087737   0.90700164      8192000 
  729000   0.60463949   -5.6097827   -5.6097827   -4.7028237 -0.063213163   -5.6097827   0.90695901      8192000 
  730000   0.60465458   -5.6109479   -5.6109479   -4.7039663   -0.0651278   -5.6109479   0.90698164      8192000 
  731000   0.60451253   -5.6114446   -5.6114446    -4.704676 -0.065862795   -5.6114446   0.90676857      8192000 
  732000   0.60416735       -5.612       -5.612   -4.7057492 -0.065886553       -5.612    0.9062508      8192000 
  733000   0.60369995    -5.612436    -5.612436   -4.7068863  -0.06607934    -5.612436    0.9055497      8192000 
  734000   0.60410063   -5.6142438   -5.6142438   -4.7080931 -0.065805846   -5.6142438   0.90615071      8192000 
  735000   0.60359622   -5.6144064   -5.6144064   -4.7090123 -0.063736055   -5.6144064   0.90539411      8192000 
  736000   0.60370116   -5.6155905   -5.6155905   -4.7100389 -0.063517046   -5.6155905   0.90555151      8192000 
  737000    0.6035202   -5.6163287   -5.6163287   -4.7110486  -0.06316067   -5.6163287   0.90528007      8192000 
  738000    0.6036331   -5.6174831   -5.6174831   -4.7120337 -0.063736471   -5.6174831   0.90544942      8192000 
  739000   0.60317609     -5.61807     -5.61807    -4.713306 -0.064088469     -5.61807   0.90476391      8192000 
  740000   0.60306028   -5.6190401   -5.6190401   -4.7144499 -0.066657823   -5.6190401    0.9045902      8192000 
  741000   0.60273889   -5.6195935   -5.6195935   -4.7154854 -0.067254502   -5.6195935   0.90410811      8192000 
  742000    0.6028022   -5.6207552   -5.6207552   -4.7165521 -0.067246287   -5.6207552   0.90420308      8192000 
  743000   0.60258333    -5.621484    -5.621484   -4.7176092 -0.067295655    -5.621484   0.90387476      8192000 
  744000   0.60250555   -5.6224689   -5.6224689   -4.7187108 -0.066722514   -5.6224689    0.9037581      8192000 
  745000   0.60254137   -5.6233479   -5.6233479   -4.7195361 -0.064880334   -5.6233479   0.90381184      8192000 
  746000   0.60283163   -5.6248519   -5.6248519   -4.7206047 -0.065372665   -5.6248519   0.90424722      8192000 
  747000    0.6027619   -5.6260915   -5.6260915   -4.7219489 -0.066739043   -5.6260915   0.90414262      8192000 
  748000   0.60215659   -5.6261133   -5.6261133   -4.7228787 -0.065266662   -5.6261133   0.90323465      8192000 
  749000   0.60176408   -5.6267366   -5.6267366   -4.7240907 -0.065685902   -5.6267366    0.9026459      8192000 
  750000   0.60190193   -5.6276183   -5.6276183   -4.7247656 -0.066662914   -5.6276183   0.90285267      8192000 
  751000   0.60192972   -5.6284456   -5.6284456   -4.7255512 -0.066868192   -5.6284456   0.90289436      8192000 
  752000   0.60191455   -5.6293719   -5.6293719   -4.7265003 -0.068500861   -5.6293719   0.90287159      8192000 
  753000   0.60209522    -5.630735    -5.630735   -4.7275924 -0.067882893    -5.630735   0.90314261      8192000 
  754000   0.60154354   -5.6308914   -5.6308914   -4.7285763 -0.066408402   -5.6308914   0.90231508      8192000 
  755000   0.60186983   -5.6322431   -5.6322431   -4.7294386 -0.067035022   -5.6322431   0.90280451      8192000 
  756000   0.60160055    -5.632991    -5.632991   -4.7305904 -0.065579221    -5.632991    0.9024006      8192000 
  757000   0.60115732   -5.6336972   -5.6336972   -4.7319615 -0.066118607   -5.6336972   0.90173576      8192000 
  758000   0.60141063   -5.6350667   -5.6350667   -4.7329509 -0.066829826   -5.6350667   0.90211573      8192000 
  759000   0.60109984   -5.6354941   -5.6354941   -4.7338445    -0.067212   -5.6354941   0.90164953      8192000 
  760000   0.60067467   -5.6360454   -5.6360454   -4.7350336 -0.066285394   -5.6360454   0.90101178      8192000 
  761000   0.60068098   -5.6370806   -5.6370806   -4.7360593 -0.067811157   -5.6370806   0.90102125      8192000 
  762000    0.6003273   -5.6373253   -5.6373253   -4.7368346 -0.066263484   -5.6373253   0.90049072      8192000 
  763000    0.6005853    -5.638997    -5.638997   -4.7381192  -0.06861765    -5.638997   0.90087772      8192000 
  764000   0.60055491   -5.6397723   -5.6397723   -4.7389402 -0.066845993   -5.6397723   0.90083214      8192000 
  765000   0.60066793   -5.6406824   -5.6406824   -4.7396808 -0.068089094   -5.6406824   0.90100168      8192000 
  766000    0.6003588   -5.6411995   -5.6411995   -4.7406615 -0.067248604   -5.6411995   0.90053798      8192000 
  767000   0.60014366   -5.6419445   -5.6419445   -4.7417292 -0.066280563   -5.6419445   0.90021526      8192000 
  768000   0.60061823   -5.6436175   -5.6436175   -4.7426904 -0.067548104   -5.6436175   0.90092712      8192000 
  769000   0.60017565   -5.6436893   -5.6436893    -4.743426  -0.06586568   -5.6436893   0.90026325      8192000 
  770000   0.60043561   -5.6450832   -5.6450832     -4.74443 -0.067483809   -5.6450832   0.90065319      8192000 
  771000    0.6001389   -5.6456757   -5.6456757   -4.7454676 -0.067978823   -5.6456757   0.90020812      8192000 
  772000   0.59999006    -5.646428    -5.646428   -4.7464431  -0.06772379    -5.646428   0.89998487      8192000 
  773000   0.60020121   -5.6478934   -5.6478934   -4.7475918 -0.070836872   -5.6478934   0.90030159      8192000 
  774000   0.59966374   -5.6484089   -5.6484089   -4.7489135 -0.069896627   -5.6484089   0.89949539      8192000 
  775000   0.59964409   -5.6490217   -5.6490217   -4.7495558 -0.069096371   -5.6490217   0.89946592      8192000 
  776000    0.5998056   -5.6502644   -5.6502644   -4.7505562 -0.069022685   -5.6502644   0.89970818      8192000 
  777000   0.59988346   -5.6514896   -5.6514896   -4.7516646 -0.068129705   -5.6514896   0.89982497      8192000 
  778000   0.59954783   -5.6521326   -5.6521326    -4.752811  -0.06740417   -5.6521326   0.89932151      8192000 
  779000   0.59946583   -5.6532431   -5.6532431   -4.7540446 -0.069222124   -5.6532431   0.89919852      8192000 
  780000    0.5993686   -5.6542404   -5.6542404   -4.7551877 -0.069856136   -5.6542404   0.89905267      8192000 
  781000   0.59886526    -5.654127    -5.654127   -4.7558294  -0.06914133    -5.654127   0.89829767      8192000 
  782000   0.59888338   -5.6551962   -5.6551962   -4.7568714 -0.069894583   -5.6551962   0.89832484      8192000 
  783000   0.59854031   -5.6557674   -5.6557674   -4.7579571 -0.070131594   -5.6557674   0.89781024      8192000 
  784000    0.5984889   -5.6567417   -5.6567417   -4.7590085 -0.068904676   -5.6567417   0.89773312      8192000 
  785000   0.59871007   -5.6580974   -5.6580974   -4.7600325 -0.069710035   -5.6580974   0.89806488      8192000 
  786000   0.59871444    -5.659277    -5.659277   -4.7612056 -0.068907187    -5.659277   0.89807144      8192000 
  787000   0.59888678   -5.6602445   -5.6602445   -4.7619145 -0.067858576   -5.6602445   0.89832995      8192000 
  788000   0.59854653   -5.6606734   -5.6606734   -4.7628538 -0.066465326   -5.6606734   0.89781957      8192000 
  789000   0.59887641   -5.6623814   -5.6623814    -4.764067 -0.069981874   -5.6623814   0.89831439      8192000 
  790000   0.59797882   -5.6621938   -5.6621938   -4.7652258 -0.070898142   -5.6621938     0.896968      8192000 
  791000    0.5979874   -5.6631349   -5.6631349    -4.766154 -0.071087762   -5.6631349   0.89698087      8192000 
  792000   0.59787508    -5.663868    -5.663868   -4.7670556 -0.071105941    -5.663868    0.8968124      8192000 
  793000   0.59771651   -5.6646755   -5.6646755    -4.768101 -0.070162323   -5.6646755   0.89657454      8192000 
  794000   0.59794517   -5.6659604   -5.6659604   -4.7690429 -0.070221684   -5.6659604   0.89691753      8192000 
  795000   0.59765206   -5.6665496   -5.6665496   -4.7700717 -0.067955495   -5.6665496   0.89647787      8192000 
  796000   0.59794392   -5.6680656   -5.6680656     -4.77115 -0.069576954   -5.6680656   0.89691566      8192000 
  797000   0.59795186    -5.668928    -5.668928   -4.7720005 -0.069882644    -5.668928   0.89692757      8192000 
  798000    0.5978444   -5.6695434   -5.6695434   -4.7727771 -0.070766385   -5.6695434   0.89676637      8192000 
  799000   0.59733789   -5.6696945   -5.6696945   -4.7736879 -0.070323927   -5.6696945   0.89600661      8192000 
  800000   0.59719032   -5.6704865   -5.6704865   -4.7747012 -0.070901053   -5.6704865   0.89578525      8192000 
  801000   0.59711906   -5.6712069   -5.6712069   -4.7755285 -0.071417133   -5.6712069   0.89567837      8192000 
  802000   0.59717108    -5.672003    -5.672003   -4.7762466 -0.070792457    -5.672003   0.89575639      8192000 
  803000   0.59688017   -5.6728409   -5.6728409   -4.7775209 -0.071507679   -5.6728409   0.89532003      8192000 
  804000    0.5969271    -5.673602    -5.673602   -4.7782116 -0.068587162    -5.673602   0.89539042      8192000 
  805000   0.59681921   -5.6744509   -5.6744509   -4.7792223 -0.069907085   -5.6744509   0.89522859      8192000 
  806000   0.59693883   -5.6757329   -5.6757329   -4.7803249 -0.069901947   -5.6757329   0.89540802      8192000 
  807000   0.59670339   -5.6764835   -5.6764835   -4.7814286 -0.069578408   -5.6764835   0.89505486      8192000 
  808000   0.59661472   -5.6774209   -5.6774209    -4.782499  -0.07084989   -5.6774209   0.89492186      8192000 
  809000   0.59647316   -5.6782121   -5.6782121   -4.7835026 -0.071855748   -5.6782121   0.89470951      8192000 
  810000   0.59613252   -5.6786216   -5.6786216    -4.784423 -0.071663543   -5.6786216   0.89419856      8192000 
  811000   0.59673382   -5.6801644   -5.6801644   -4.7850639 -0.071241244   -5.6801644    0.8951005      8192000 
  812000   0.59580368   -5.6801723   -5.6801723    -4.786467 -0.071055385   -5.6801723   0.89370529      8192000 
  813000   0.59587975   -5.6812635   -5.6812635   -4.7874441 -0.069922437   -5.6812635    0.8938194      8192000 
  814000   0.59586114   -5.6824405   -5.6824405   -4.7886491  -0.07094602   -5.6824405   0.89379149      8192000 
  815000   0.59592397   -5.6836721   -5.6836721   -4.7897864 -0.071536814   -5.6836721   0.89388573      8192000 
  816000   0.59569578   -5.6843353   -5.6843353   -4.7907918 -0.071055249   -5.6843353   0.89354345      8192000 
  817000   0.59554801   -5.6849828   -5.6849828    -4.791661 -0.071072144   -5.6849828   0.89332179      8192000 
  818000   0.59538248     -5.68578     -5.68578   -4.7927065 -0.070943596     -5.68578   0.89307349      8192000 
  819000    0.5950473   -5.6859858   -5.6859858   -4.7934151 -0.070599731   -5.6859858   0.89257072      8192000 
  820000   0.59506781   -5.6870148   -5.6870148   -4.7944133 -0.071628941   -5.6870148   0.89260149      8192000 
  821000   0.59496155   -5.6878911   -5.6878911    -4.795449 -0.073964414   -5.6878911    0.8924421      8192000 
  822000    0.5949357   -5.6888099   -5.6888099   -4.7964066 -0.073412783   -5.6888099   0.89240333      8192000 
  823000   0.59455995   -5.6894611   -5.6894611   -4.7976214 -0.073483612   -5.6894611    0.8918397      8192000 
  824000   0.59467584    -5.690594    -5.690594   -4.7985804 -0.072232248    -5.690594   0.89201353      8192000 
  825000   0.59478302   -5.6916982   -5.6916982   -4.7995239   -0.0726687   -5.6916982   0.89217431      8192000 
  826000   0.59502613   -5.6928184   -5.6928184   -4.8002794  -0.07172392   -5.6928184   0.89253897      8192000 
  827000   0.59473131   -5.6932302   -5.6932302   -4.8011335 -0.070398633   -5.6932302   0.89209675      8192000 
  828000   0.59466012   -5.6942074   -5.6942074   -4.8022175 -0.070904685   -5.6942074   0.89198995      8192000 
  829000   0.59433006   -5.6946811   -5.6946811   -4.8031862 -0.071606002   -5.6946811   0.89149487      8192000 
  830000   0.59417383   -5.6953874   -5.6953874   -4.8041269 -0.072788384   -5.6953874   0.89126052      8192000 
  831000   0.59395975   -5.6960921   -5.6960921   -4.8051527  -0.07439472   -5.6960921   0.89093941      8192000 
  832000   0.59371226   -5.6969878   -5.6969878   -4.8064196 -0.073597038   -5.6969878   0.89056817      8192000 
  833000    0.5936574   -5.6978812   -5.6978812   -4.8073953 -0.074052634   -5.6978812   0.89048588      8192000 
  834000   0.59381829   -5.6988111   -5.6988111   -4.8080839 -0.071640337   -5.6988111    0.8907272      8192000 
  835000   0.59384545   -5.6997422   -5.6997422   -4.8089742 -0.071051182   -5.6997422   0.89076795      8192000 
  836000   0.59372057   -5.7007538   -5.7007538   -4.8101732 -0.070027561   -5.7007538   0.89058064      8192000 
  837000   0.59402789   -5.7023179   -5.7023179   -4.8112763 -0.073706222   -5.7023179   0.89104161      8192000 
  838000    0.5933725   -5.7024097   -5.7024097   -4.8123512  -0.07211354   -5.7024097   0.89005852      8192000 
  839000   0.59296269   -5.7025774   -5.7025774   -4.8131336 -0.073202062   -5.7025774   0.88944381      8192000 
  840000   0.59341814   -5.7038362   -5.7038362   -4.8137092 -0.074564088   -5.7038362   0.89012699      8192000 
  841000   0.59294046   -5.7042967   -5.7042967   -4.8148863 -0.073343162   -5.7042967   0.88941047      8192000 
  842000   0.59304399    -5.705549    -5.705549   -4.8159832 -0.074679364    -5.705549   0.88956576      8192000 
  843000    0.5933039   -5.7068782   -5.7068782   -4.8169226 -0.074972157   -5.7068782   0.88995563      8192000 
  844000   0.59268768   -5.7070255   -5.7070255   -4.8179942 -0.071884817   -5.7070255   0.88903129      8192000 
  845000    0.5929737   -5.7084079   -5.7084079   -4.8189476 -0.072279028   -5.7084079   0.88946033      8192000 
  846000   0.59281636   -5.7091295   -5.7091295   -4.8199052 -0.073083561   -5.7091295   0.88922432      8192000 
  847000   0.59265293   -5.7094704   -5.7094704   -4.8204912  -0.07202631   -5.7094704   0.88897917      8192000 
  848000   0.59247325    -5.710273    -5.710273   -4.8215634 -0.074909945    -5.710273   0.88870966      8192000 
  849000   0.59237951   -5.7109153   -5.7109153   -4.8223462  -0.07542097   -5.7109153   0.88856904      8192000 
  850000    0.5921104   -5.7115702   -5.7115702   -4.8234048 -0.074905751   -5.7115702   0.88816537      8192000 
  851000   0.59191757   -5.7119434   -5.7119434   -4.8240673 -0.074827187   -5.7119434   0.88787613      8192000 
  852000   0.59210926   -5.7130756   -5.7130756    -4.824912 -0.073707549   -5.7130756   0.88816367      8192000 
  853000   0.59217886   -5.7141899   -5.7141899   -4.8259218 -0.073110568   -5.7141899   0.88826807      8192000 
  854000   0.59235469    -5.715139    -5.715139   -4.8266072 -0.072744623    -5.715139   0.88853181      8192000 
  855000    0.5919683    -5.715994    -5.715994   -4.8280418 -0.073146702    -5.715994   0.88795223      8192000 
  856000   0.59188637   -5.7169206   -5.7169206   -4.8290912 -0.075630303   -5.7169206   0.88782933      8192000 
  857000   0.59140962    -5.717216    -5.717216   -4.8301018 -0.074819442    -5.717216    0.8871142      8192000 
  858000   0.59143567   -5.7179945   -5.7179945   -4.8308412 -0.076400312   -5.7179945   0.88715329      8192000 
  859000   0.59123908    -5.718697    -5.718697   -4.8318386 -0.076510498    -5.718697    0.8868584      8192000 
  860000   0.59101793   -5.7192896   -5.7192896   -4.8327629 -0.075602581   -5.7192896   0.88652667      8192000 
  861000   0.59071259   -5.7198595   -5.7198595   -4.8337909 -0.074793509   -5.7198595   0.88606867      8192000 
  862000   0.59116785   -5.7214186   -5.7214186    -4.834667  -0.07468928   -5.7214186   0.88675155      8192000 
  863000   0.59090449   -5.7219076   -5.7219076   -4.8355511 -0.073858113   -5.7219076   0.88635651      8192000 
  864000   0.59082947   -5.7226767   -5.7226767   -4.8364327 -0.074083322   -5.7226767   0.88624398      8192000 
  865000   0.59076873   -5.7238607   -5.7238607   -4.8377079 -0.075754408   -5.7238607   0.88615288      8192000 
  866000   0.59053914   -5.7241717   -5.7241717   -4.8383632 -0.074210038   -5.7241717   0.88580848      8192000 
  867000   0.59027426   -5.7246829   -5.7246829   -4.8392717 -0.076364727   -5.7246829   0.88541116      8192000 
  868000   0.59021308   -5.7255611   -5.7255611   -4.8402417 -0.077440689   -5.7255611    0.8853194      8192000 
  869000   0.59000299   -5.7261966   -5.7261966   -4.8411924 -0.077384995   -5.7261966   0.88500427      8192000 
  870000   0.59012348    -5.727512    -5.727512    -4.842327 -0.077866114    -5.727512   0.88518499      8192000 
  871000   0.59002743   -5.7278136   -5.7278136   -4.8427727 -0.075978268   -5.7278136   0.88504093      8192000 
  872000   0.58956945   -5.7283338   -5.7283338   -4.8439799 -0.074993338   -5.7283338   0.88435395      8192000 
  873000   0.58986538    -5.729771    -5.729771   -4.8449731 -0.075624038    -5.729771   0.88479784      8192000 
  874000   0.58967349   -5.7302954   -5.7302954   -4.8457853 -0.074762814   -5.7302954   0.88451001      8192000 
  875000   0.58958031   -5.7313901   -5.7313901   -4.8470198 -0.077272291   -5.7313901   0.88437025      8192000 
  876000   0.58943856   -5.7319487   -5.7319487    -4.847791 -0.077870889   -5.7319487   0.88415762      8192000 
  877000   0.58902377   -5.7321969   -5.7321969   -4.8486614 -0.078302755   -5.7321969   0.88353543      8192000 
  878000   0.58935813   -5.7332519   -5.7332519   -4.8492149 -0.078770646   -5.7332519   0.88403697      8192000 
  879000   0.58910784   -5.7341339   -5.7341339   -4.8504724 -0.077088639   -5.7341339   0.88366154      8192000 
  880000   0.58900549   -5.7347317   -5.7347317   -4.8512237 -0.076787159   -5.7347317   0.88350802      8192000 
  881000   0.58910945   -5.7358098   -5.7358098   -4.8521459 -0.077359538   -5.7358098   0.88366396      8192000 
  882000   0.58940343   -5.7372372   -5.7372372   -4.8531323 -0.077786106   -5.7372372   0.88410493      8192000 
  883000   0.58886969   -5.7374587   -5.7374587   -4.8541543 -0.077166039   -5.7374587   0.88330431      8192000 
  884000   0.58867756    -5.737679    -5.737679   -4.8546629 -0.076948686    -5.737679   0.88301612      8192000 
  885000   0.58863724   -5.7385314   -5.7385314   -4.8555758  -0.07794262   -5.7385314   0.88295564      8192000 
  886000   0.58873963   -5.7395919   -5.7395919   -4.8564827 -0.079726679   -5.7395919   0.88310922      8192000 
  887000   0.58820899   -5.7397611   -5.7397611   -4.8574479 -0.078499164   -5.7397611   0.88231327      8192000 
  888000   0.58835598   -5.7409341   -5.7409341   -4.8584004 -0.078910441   -5.7409341   0.88253375      8192000 
  889000    0.5883142   -5.7417325   -5.7417325   -4.8592614 -0.078951573   -5.7417325   0.88247108      8192000 
  890000   0.58833439    -5.742804    -5.742804   -4.8603026 -0.079081611    -5.742804   0.88250137      8192000 
  891000   0.58785991   -5.7431734   -5.7431734   -4.8613837 -0.077145531   -5.7431734   0.88178964      8192000 
  892000   0.58836276   -5.7445565   -5.7445565   -4.8620126 -0.078657907   -5.7445565   0.88254392      8192000 
  893000   0.58773956   -5.7446548   -5.7446548   -4.8630457 -0.077568855   -5.7446548   0.88160912      8192000 
  894000   0.58791363   -5.7458949   -5.7458949   -4.8640246 -0.079800369   -5.7458949   0.88187022      8192000 
  895000   0.58757065   -5.7460344   -5.7460344   -4.8646786 -0.079223061   -5.7460344   0.88135575      8192000 
  896000   0.58758599   -5.7471807   -5.7471807    -4.865802 -0.080378803   -5.7471807   0.88137876      8192000 
  897000   0.58755605   -5.7482058   -5.7482058   -4.8668719 -0.081078077   -5.7482058   0.88133385      8192000 
  898000   0.58734652   -5.7486441   -5.7486441   -4.8676245 -0.078668359   -5.7486441   0.88101955      8192000 
  899000   0.58718502   -5.7495434   -5.7495434   -4.8687661 -0.078973398   -5.7495434   0.88077731      8192000 
  900000   0.58745579   -5.7508483   -5.7508483   -4.8696649 -0.080043926   -5.7508483   0.88118346      8192000 
  901000    0.5873997    -5.751648    -5.751648   -4.8705487 -0.079923484    -5.751648   0.88109933      8192000 
  902000   0.58702364   -5.7519488   -5.7519488   -4.8714136 -0.078903168   -5.7519488   0.88053524      8192000 
  903000   0.58715389   -5.7529472   -5.7529472   -4.8722166 -0.079275643   -5.7529472   0.88073061      8192000 
  904000   0.58657256   -5.7534425   -5.7534425   -4.8735839 -0.080515552   -5.7534425   0.87985861      8192000 
  905000    0.5865812   -5.7542443   -5.7542443   -4.8743728 -0.079947679   -5.7542443   0.87987158      8192000 
  906000   0.58643055   -5.7549054   -5.7549054   -4.8752598 -0.079682291   -5.7549054    0.8796456      8192000 
  907000   0.58606847     -5.75534     -5.75534   -4.8762375 -0.078962572     -5.75534   0.87910249      8192000 
  908000   0.58643537   -5.7566012   -5.7566012   -4.8769483 -0.080221733   -5.7566012   0.87965284      8192000 
  909000   0.58655241   -5.7577865   -5.7577865   -4.8779581 -0.080368518   -5.7577865   0.87982839      8192000 
  910000   0.58623052   -5.7581554   -5.7581554   -4.8788099 -0.080192806   -5.7581554   0.87934555      8192000 
  911000   0.58623443   -5.7591362   -5.7591362   -4.8797848 -0.082126177   -5.7591362   0.87935143      8192000 
  912000   0.58612111   -5.7598408   -5.7598408   -4.8806594 -0.081526928   -5.7598408   0.87918145      8192000 
  913000    0.5857341   -5.7601956   -5.7601956   -4.8815946 -0.080668548   -5.7601956   0.87860093      8192000 
  914000   0.58575059   -5.7608279   -5.7608279   -4.8822022 -0.080369521   -5.7608279   0.87862566      8192000 
  915000   0.58570209   -5.7616351   -5.7616351   -4.8830822 -0.081110637   -5.7616351   0.87855292      8192000 
  916000   0.58559417   -5.7621115   -5.7621115   -4.8837205 -0.080902543   -5.7621115   0.87839104      8192000 
  917000   0.58529479   -5.7627332   -5.7627332   -4.8847912 -0.082551911   -5.7627332   0.87794196      8192000 
  918000   0.58511115   -5.7634619   -5.7634619   -4.8857954 -0.081398534   -5.7634619    0.8776665      8192000 
  919000   0.58519784    -5.764531    -5.764531   -4.8867345 -0.081818806    -5.764531   0.87779653      8192000 
  920000   0.58504649   -5.7649661   -5.7649661   -4.8873966 -0.080077056   -5.7649661   0.87756951      8192000 
  921000   0.58494088   -5.7659429   -5.7659429   -4.8885317 -0.080790265   -5.7659429   0.87741111      8192000 
  922000   0.58489435   -5.7665694   -5.7665694   -4.8892281 -0.081298288   -5.7665694   0.87734131      8192000 
  923000   0.58507528   -5.7676457   -5.7676457    -4.890033 -0.081963376   -5.7676457    0.8776127      8192000 
  924000   0.58495111   -5.7681718   -5.7681718   -4.8907453  -0.08139479   -5.7681718   0.87742645      8192000 
  925000   0.58435226   -5.7683231   -5.7683231   -4.8917949 -0.081973714   -5.7683231   0.87652817      8192000 
  926000   0.58447133   -5.7693172   -5.7693172   -4.8926104 -0.081949473   -5.7693172   0.87670678      8192000 
  927000   0.58451419   -5.7701418   -5.7701418   -4.8933707 -0.083383631   -5.7701418   0.87677107      8192000 
  928000   0.58461222   -5.7712439   -5.7712439   -4.8943258 -0.081836785   -5.7712439   0.87691811      8192000 
  929000   0.58427187    -5.771827    -5.771827   -4.8954194 -0.083310733    -5.771827   0.87640759      8192000 
  930000   0.58425076   -5.7725644   -5.7725644   -4.8961885 -0.081271988   -5.7725644   0.87637592      8192000 
  931000   0.58467336   -5.7737717   -5.7737717   -4.8967619  -0.08224456   -5.7737717   0.87700983      8192000 
  932000   0.58406793   -5.7740129   -5.7740129   -4.8979113 -0.082033897   -5.7740129   0.87610168      8192000 
  933000   0.58365902   -5.7741982   -5.7741982   -4.8987099 -0.081809245   -5.7741982   0.87548831      8192000 
  934000     0.583689   -5.7750346   -5.7750346   -4.8995013 -0.083116715   -5.7750346   0.87553327      8192000 
  935000    0.5838908   -5.7761993   -5.7761993   -4.9003633 -0.083226163   -5.7761993   0.87583597      8192000 
  936000   0.58359856   -5.7766545   -5.7766545   -4.9012569 -0.083110018   -5.7766545   0.87539762      8192000 
  937000   0.58342564   -5.7773255   -5.7773255   -4.9021873 -0.081238239   -5.7773255   0.87513824      8192000 
  938000   0.58311285   -5.7777898   -5.7777898   -4.9031208 -0.080547994   -5.7777898   0.87466905      8192000 
  939000   0.58368649   -5.7793139   -5.7793139   -4.9037844 -0.082038668   -5.7793139   0.87552951      8192000 
  940000   0.58321427   -5.7793846   -5.7793846   -4.9045634 -0.083447201   -5.7793846   0.87482118      8192000 
  941000   0.58307551    -5.780036    -5.780036    -4.905423  -0.08246989    -5.780036   0.87461304      8192000 
  942000   0.58330703   -5.7812847   -5.7812847   -4.9063243  -0.08448563   -5.7812847   0.87496033      8192000 
  943000   0.58309958    -5.781745    -5.781745   -4.9070959 -0.083208553    -5.781745   0.87464915      8192000 
  944000   0.58306844   -5.7829245   -5.7829245    -4.908322 -0.084520331   -5.7829245   0.87460244      8192000 
  945000   0.58307152   -5.7837268   -5.7837268   -4.9091197 -0.083287151   -5.7837268   0.87460707      8192000 
  946000   0.58255053   -5.7841329   -5.7841329   -4.9103074 -0.084768255   -5.7841329   0.87382558      8192000 
  947000   0.58241816   -5.7846015   -5.7846015   -4.9109745 -0.084471638   -5.7846015   0.87362702      8192000 
  948000   0.58261928   -5.7856231   -5.7856231   -4.9116944 -0.084103392   -5.7856231    0.8739287      8192000 
  949000   0.58246934   -5.7860839   -5.7860839   -4.9123801   -0.0841374   -5.7860839   0.87370379      8192000 
  950000    0.5821831   -5.7865865   -5.7865865    -4.913312 -0.083342916   -5.7865865   0.87327443      8192000 
  951000   0.58241112   -5.7877999   -5.7877999   -4.9141835 -0.084683853   -5.7877999   0.87361646      8192000 
  952000   0.58267757   -5.7889181   -5.7889181   -4.9149019 -0.084920188   -5.7889181   0.87401613      8192000 
  953000   0.58217048   -5.7892768   -5.7892768   -4.9160213 -0.083987329   -5.7892768   0.87325549      8192000 
  954000   0.58209595   -5.7899508   -5.7899508   -4.9168071 -0.082026075   -5.7899508   0.87314371      8192000 
  955000   0.58206371   -5.7906008   -5.7906008   -4.9175054 -0.083384223   -5.7906008   0.87309535      8192000 
  956000   0.58250236   -5.7919817   -5.7919817   -4.9182284 -0.084427364   -5.7919817   0.87375333      8192000 
  957000   0.58203633   -5.7921754   -5.7921754   -4.9191212 -0.084766575   -5.7921754   0.87305428      8192000 
  958000   0.58211794   -5.7933507   -5.7933507    -4.920174 -0.086038649   -5.7933507   0.87317669      8192000 
  959000   0.58173593    -5.793593    -5.793593   -4.9209893 -0.084708328    -5.793593   0.87260368      8192000 
  960000   0.58168513   -5.7943226   -5.7943226   -4.9217951 -0.084752618   -5.7943226   0.87252747      8192000 
  961000   0.58159007    -5.794967    -5.794967   -4.9225821 -0.084377542    -5.794967   0.87238488      8192000 
  962000   0.58176898   -5.7959776   -5.7959776   -4.9233243 -0.084246816   -5.7959776   0.87265325      8192000 
  963000   0.58164018   -5.7965629   -5.7965629   -4.9241029 -0.083825077   -5.7965629   0.87246005      8192000 
  964000   0.58132402   -5.7972546   -5.7972546   -4.9252688 -0.084506832   -5.7972546   0.87198581      8192000 
  965000   0.58143503   -5.7982745   -5.7982745   -4.9261222  -0.08663897   -5.7982745   0.87215233      8192000 
  966000   0.58126322   -5.7989162   -5.7989162   -4.9270216 -0.086824893   -5.7989162   0.87189461      8192000 
  967000   0.58091203    -5.799226    -5.799226   -4.9278582 -0.085524265    -5.799226   0.87136782      8192000 
  968000   0.58090137    -5.800005    -5.800005   -4.9286531 -0.086942167    -5.800005   0.87135183      8192000 
  969000    0.5805577    -5.800078    -5.800078   -4.9292417 -0.083997408    -5.800078   0.87083634      8192000 
  970000   0.58089375   -5.8014149   -5.8014149   -4.9300745 -0.084484542   -5.8014149    0.8713404      8192000 
  971000   0.58093465   -5.8022692   -5.8022692   -4.9308674  -0.08482103   -5.8022692   0.87140176      8192000 
  972000   0.58101274    -5.803048    -5.803048   -4.9315291 -0.085874619    -5.803048    0.8715189      8192000 
  973000   0.58087018   -5.8037742   -5.8037742   -4.9324691 -0.084989914   -5.8037742   0.87130506      8192000 
  974000   0.58083993   -5.8045691   -5.8045691   -4.9333094 -0.085928961   -5.8045691   0.87125968      8192000 
  975000   0.58057892    -5.805245    -5.805245   -4.9343769 -0.085380309    -5.805245   0.87086817      8192000 
  976000   0.58066187   -5.8060683   -5.8060683   -4.9350757 -0.086986709   -5.8060683   0.87099259      8192000 
  977000    0.5806038   -5.8069837   -5.8069837   -4.9360782 -0.085552414   -5.8069837   0.87090548      8192000 
  978000   0.58025149   -5.8071553   -5.8071553   -4.9367783 -0.084838127   -5.8071553   0.87037701      8192000 
  979000   0.58059165   -5.8085008   -5.8085008   -4.9376135 -0.087436002   -5.8085008   0.87088726      8192000 
  980000   0.58026384   -5.8087975   -5.8087975   -4.9384019 -0.087475954   -5.8087975   0.87039554      8192000 
  981000   0.58014887   -5.8093761   -5.8093761    -4.939153 -0.086139314   -5.8093761   0.87022309      8192000 
  982000   0.58006768   -5.8101594   -5.8101594   -4.9400581 -0.086861791   -5.8101594   0.87010131      8192000 
  983000   0.58003725    -5.811067    -5.811067   -4.9410113 -0.086978552    -5.811067   0.87005566      8192000 
  984000   0.57992147   -5.8118008   -5.8118008   -4.9419188 -0.086286599   -5.8118008   0.86988199      8192000 
  985000   0.57997018   -5.8127984   -5.8127984   -4.9428434 -0.086683736   -5.8127984   0.86995505      8192000 
  986000   0.58001183   -5.8134652   -5.8134652   -4.9434477 -0.085743726   -5.8134652   0.87001753      8192000 
  987000    0.5797288   -5.8139361   -5.8139361   -4.9443431 -0.086219674   -5.8139361   0.86959298      8192000 
  988000   0.57970646   -5.8147285   -5.8147285    -4.945169 -0.087950278   -5.8147285   0.86955947      8192000 
  989000   0.57918351   -5.8147345   -5.8147345   -4.9459595 -0.087071835   -5.8147345   0.86877505      8192000 
  990000   0.57946033   -5.8159508   -5.8159508   -4.9467605 -0.088810902   -5.8159508   0.86919028      8192000 
  991000   0.57930977   -5.8165133   -5.8165133   -4.9475488 -0.087545148   -5.8165133   0.86896444      8192000 
  992000   0.57947801      -5.8176      -5.8176   -4.9483832 -0.086582576      -5.8176   0.86921679      8192000 
  993000   0.57903247   -5.8177864   -5.8177864   -4.9492379 -0.085517514   -5.8177864   0.86854849      8192000 
  994000    0.5791685   -5.8191182   -5.8191182   -4.9503656 -0.084890026   -5.8191182   0.86875253      8192000 
  995000   0.57916752    -5.819809    -5.819809   -4.9510579 -0.086557665    -5.819809   0.86875107      8192000 
  996000   0.57886347   -5.8201658   -5.8201658   -4.9518708 -0.085628436   -5.8201658   0.86829498      8192000 
  997000   0.57888864   -5.8210333   -5.8210333   -4.9527006  -0.08838041   -5.8210333   0.86833274      8192000 
  998000   0.57874002   -5.8215805   -5.8215805   -4.9534707 -0.088769609   -5.8215805   0.86810981      8192000 
  999000    0.5782249   -5.8219921   -5.8219921   -4.9546549 -0.088383812   -5.8219921   0.86733713      8192000 
 1000000   0.57885453   -5.8237343   -5.8237343   -4.9554527 -0.088172431   -5.8237343   0.86828158      8192000 
Loop time of 23887.3 on 144 procs for 1000000 steps with 3993600 atoms

Performance: 36169.892 tau/day, 41.863 timesteps/s
99.5% CPU use with 144 MPI tasks x 1 OpenMP threads

MPI task timing breakdown:
Section |  min time  |  avg time  |  max time  |%varavg|  %CPU | %total
-----------------------------------------------------------------------
Pair    | 9247.1     | 11712      | 13446      | 848.1 |  99.5 | 49.03
Bond    | 0.81077    | 0.91272    | 1.0267     |   4.2 | 100.0 |  0.00
Neigh   | 3817.1     | 4726.8     | 5406.2     | 449.7 |  99.6 | 19.79
Comm    | 3935.1     | 6235.3     | 9590.1     |1642.1 |  99.4 | 26.10
Output  | 50.619     | 51.039     | 51.046     |   0.5 |  98.1 |  0.21
Modify  | 457.69     | 707.65     | 1716.8     |1319.5 |  99.1 |  2.96
Other   |            | 453.3      |            |       |       |  1.90

Nlocal:        27733.3 ave       28389 max       25871 min
Histogram: 1 2 3 9 7 7 5 43 46 21
Nghost:        18371.7 ave       20697 max       13152 min
Histogram: 16 16 0 0 0 0 0 32 36 44
Neighs:    1.21849e+06 ave 1.35337e+06 max      958352 min
Histogram: 14 2 0 0 32 15 1 5 53 22

Total # of neighbors = 1.7546291e+08
Ave neighs/atom = 43.936026
Ave special neighs/atom = 0.0000000
Neighbor list builds = 100000
Dangerous builds = 99000
write_restart 	restart.01
System init for write_restart ...
write_data	data.lj
System init for write_data ...
WARNING: Not all mixed pair coeffs generated from mixing. Use write_data with 'pair ij' option to store all pair coeffs. (src/write_data.cpp:312)
Total wall time: 6:38:15
