LAMMPS (3 Mar 2020)
  using 1 OpenMP thread(s) per MPI task
# Simple rigid body system


units		lj
atom_style	full
dimension 	3
boundary	p p f
pair_style	lj/cut/opt 4.4

variable 	sigma		equal 1.0
variable 	epsilon 	equal 1.0


region		box block 0 40 0 40 0 40
create_box 	3 box
Created orthogonal box = (0 0 0) to (40 40 40)
  4 by 4 by 4 MPI processor grid
lattice 	sc 1.0
Lattice spacing in x,y,z = 1 1 1

create_atoms 	3 region box
Created 64000 atoms
  create_atoms CPU = 0.0572283 secs

mass		1 1.0
mass		2 1.0
mass		3 1.0
group		solvent type 3
64000 atoms in group solvent
velocity 	solvent create 1.0 563435 loop geom

replicate 	2 2 2
Replicating atoms ...
WARNING: Replicating in a non-periodic dimension (src/replicate.cpp:72)
  orthogonal box = (0 0 0) to (80 80 80)
  4 by 4 by 4 MPI processor grid
  512000 atoms
Finding 1-2 1-3 1-4 neighbors ...
  special bond factors lj:   0          0          0         
  special bond factors coul: 0          0          0         
  0 = max # of 1-2 neighbors
  0 = max # of 1-3 neighbors
  0 = max # of 1-4 neighbors
  1 = max # of special neighbors
  special bonds CPU = 5.05563 secs
  replicate CPU = 5.76011 secs
read_data	data.vac add append
Reading data file ...
  orthogonal box = (0 0 0) to (80 80 160)
  2 by 4 by 8 MPI processor grid
Finding 1-2 1-3 1-4 neighbors ...
  special bond factors lj:   0          0          0         
  special bond factors coul: 0          0          0         
  0 = max # of 1-2 neighbors
  0 = max # of 1-3 neighbors
  0 = max # of 1-4 neighbors
  1 = max # of special neighbors
  special bonds CPU = 0.00784973 secs
  read_data CPU = 0.0174869 secs

neighbor 	0.4 bin
pair_coeff	1 1 0.0 0.0
pair_coeff	2 2 0.0 0.0
pair_coeff	1 2 0.0 0.0
pair_coeff	1*2 3 0.0 0.0
pair_coeff	3 3 1.0 1.0
pair_modify 	shift yes

balance 	1.05 shift z 10 1.05
Balancing ...
Neighbor list info ...
  update every 1 steps, delay 10 steps, check yes
  max neighbors/atom: 2000, page size: 100000
  master list distance cutoff = 4.8
  ghost atom cutoff = 4.8
  binsize = 2.4, bins = 34 34 67
  1 neighbor lists, perpetual/occasional/extra = 1 0 0
  (1) pair lj/cut/opt, perpetual
      attributes: half, newton on
      pair build: half/bin/newton
      stencil: half/bin/3d/newton
      bin: standard
  rebalancing time: 0.0129392 seconds
  iteration count = 5
  initial/final max load/proc = 16000 9600
  initial/final imbalance factor = 2 1.2
  x cuts: 0 0.5 1
  y cuts: 0 0.25 0.5 0.75 1
  z cuts: 0 0.0625 0.128906 0.1875 0.257812 0.308594 0.386719 0.4375 1

####################### WALLS ###########################

region	       low block  EDGE EDGE EDGE EDGE 0 1

region 	       top block  EDGE EDGE EDGE EDGE 159 160

delete_atoms   region low
WARNING: Ignoring 'compress yes' for molecular system (src/delete_atoms.cpp:125)
Deleted 12800 atoms, new total = 499200

variable       epsilonWall equal 2*${epsilon}
variable       epsilonWall equal 2*1

variable       cutoffTop   equal   0.7147*${sigma}
variable       cutoffTop   equal   0.7147*1

variable       cutoffLow   equal   3*${sigma}
variable       cutoffLow   equal   3*1

fix            topWall all wall/lj93 zhi EDGE                ${epsilonWall} ${sigma} ${cutoffTop} units box
fix            topWall all wall/lj93 zhi EDGE                2 ${sigma} ${cutoffTop} units box
fix            topWall all wall/lj93 zhi EDGE                2 1 ${cutoffTop} units box
fix            topWall all wall/lj93 zhi EDGE                2 1 0.7147 units box

fix            lowWall all wall/lj93 zlo EDGE                ${epsilonWall} ${sigma} ${cutoffLow} units box
fix            lowWall all wall/lj93 zlo EDGE                2 ${sigma} ${cutoffLow} units box
fix            lowWall all wall/lj93 zlo EDGE                2 1 ${cutoffLow} units box
fix            lowWall all wall/lj93 zlo EDGE                2 1 3 units box



######################	FIXES ############################

#fix		1 cube rigid/nvt/small molecule temp 1.0 1.0 0.25

fix 		2 solvent nve

## Thermostat
region		regthermo block EDGE EDGE EDGE EDGE 0 20

group 		thermo dynamic solvent region regthermo every 1000
dynamic group thermo defined

fix 		3 thermo langevin 1.0 1.0 0.1 156453

#### Load balancing


fix 		bal all balance 1000 1.05 shift z 10 1.05


############### Diagnostics and computes ###################
#compute 	com cube	  rigid/local	1 mol x y z
#compute 	quat cube	  rigid/local	1 mol quatw quati quatj quatk

thermo 		1000
thermo_style 	custom step temp epair evdwl etotal press pe ke vol

dump		1 all custom 100000 dump.lammpstrj id mol type x y z
dump 		2 all image 10000 image.*.png type type
#dump 		3 all movie 100 movie.avi type type
#dump 		com cube local 1000 dump.*.xyz c_com[*]
#dump		quat cube      local 1000 dump.*.quat c_quat[*]


restart 	100000 restart.dat
timestep 	0.0025
timer 		full
New timer settings: style=full  mode=nosync  timeout=off


run		1000000
Setting up Verlet run ...
  Unit style    : lj
  Current step  : 0
  Time step     : 0.0025
Per MPI rank memory allocation (min/avg/max) = 20.5 | 24.04 | 26.13 Mbytes
Step Temp E_pair E_vdwl TotEng Press PotEng KinEng Volume 
       0    0.9999782   -4.1582862   -4.1582862   -2.6583219    8.3781089   -4.1582862    1.4999643      1024000 
    1000    1.5242821   -5.4570544   -5.4570544   -3.1706359    4.1224948   -5.4570544    2.2864185      1024000 
    2000      1.51541   -5.5236161   -5.5236161   -3.2505056     2.690013   -5.5236161    2.2731104      1024000 
    3000    1.5016762   -5.5190784   -5.5190784   -3.2665685    1.5032461   -5.5190784    2.2525098      1024000 
    4000     1.440826   -5.3946963   -5.3946963   -3.2334616   0.74990788   -5.3946963    2.1612347      1024000 
    5000    1.3547927   -5.2313753   -5.2313753   -3.1991904   0.38054601   -5.2313753    2.0321849      1024000 
    6000    1.2843952   -5.1011081   -5.1011081   -3.1745193   0.24157707   -5.1011081    1.9265889      1024000 
    7000    1.2703807   -5.0596385   -5.0596385   -3.1540714   0.29205054   -5.0596385    1.9055672      1024000 
    8000    1.2823115   -5.0631726   -5.0631726   -3.1397092   0.35911301   -5.0631726    1.9234634      1024000 
    9000    1.2877484   -5.0616118   -5.0616118   -3.1299932   0.38016235   -5.0616118    1.9316187      1024000 
   10000    1.2997442   -5.0733967   -5.0733967   -3.1237843   0.42162278   -5.0733967    1.9496124      1024000 
   11000    1.3169228   -5.0933728   -5.0933728   -3.1179925   0.48945364   -5.0933728    1.9753802      1024000 
   12000    1.3325627   -5.1082339   -5.1082339   -3.1093939   0.55453873   -5.1082339      1.99884      1024000 
   13000    1.3366066   -5.1100392   -5.1100392   -3.1051333   0.56637165   -5.1100392    2.0049059      1024000 
   14000    1.3321248   -5.0976683   -5.0976683   -3.0994851   0.53525104   -5.0976683    1.9981831      1024000 
   15000     1.323306   -5.0766947   -5.0766947   -3.0917397   0.47800276   -5.0766947     1.984955      1024000 
   16000    1.3127134   -5.0558828   -5.0558828   -3.0868168   0.42783997   -5.0558828    1.9690661      1024000 
   17000    1.3112526   -5.0481889   -5.0481889   -3.0813139   0.40814807   -5.0481889     1.966875      1024000 
   18000    1.3109326   -5.0464042   -5.0464042   -3.0800093   0.40092252   -5.0464042    1.9663949      1024000 
   19000    1.3190768   -5.0517229   -5.0517229   -3.0731117   0.43376837   -5.0517229    1.9786112      1024000 
   20000    1.3248841   -5.0561349   -5.0561349   -3.0688127   0.48431773   -5.0561349    1.9873222      1024000 
   21000    1.3383117   -5.0714546   -5.0714546   -3.0639911   0.86520774   -5.0714546    2.0074635      1024000 
   22000    1.3431483   -5.0752237   -5.0752237   -3.0605052    1.6131248   -5.0752237    2.0147185      1024000 
   23000    1.3532211   -5.0839735   -5.0839735   -3.0541459    2.2386237   -5.0839735    2.0298276      1024000 
   24000    1.3601678   -5.0896498   -5.0896498   -3.0494021    1.8855912   -5.0896498    2.0402477      1024000 
   25000    1.3482045   -5.0649835   -5.0649835   -3.0426809    1.2949855   -5.0649835    2.0223026      1024000 
   26000    1.3114583   -5.0068857   -5.0068857   -3.0397022   0.83762927   -5.0068857    1.9671835      1024000 
   27000    1.2595007   -4.9222823   -4.9222823   -3.0330351   0.56501611   -4.9222823    1.8892472      1024000 
   28000    1.2182178   -4.8566507   -4.8566507   -3.0293276   0.47021001   -4.8566507    1.8273231      1024000 
   29000    1.2005325   -4.8275999   -4.8275999   -3.0268048   0.59901954   -4.8275999    1.8007951      1024000 
   30000    1.2038478   -4.8284785   -4.8284785   -3.0227104   0.71917721   -4.8284785    1.8057681      1024000 
   31000    1.2062918   -4.8278069   -4.8278069   -3.0183729   0.70868397   -4.8278069     1.809434      1024000 
   32000    1.2016574   -4.8174583   -4.8174583   -3.0149759   0.78509782   -4.8174583    1.8024824      1024000 
   33000    1.1798125   -4.7801844   -4.7801844   -3.0104691   0.70646963   -4.7801844    1.7697153      1024000 
   34000     1.123719   -4.6931456   -4.6931456   -3.0075706   0.38164309   -4.6931456    1.6855751      1024000 
   35000    1.0690998   -4.6065965   -4.6065965   -3.0029501   0.14871564   -4.6065965    1.6036465      1024000 
   36000    1.0223062   -4.5337336   -4.5337336   -3.0002773  0.026351287   -4.5337336    1.5334563      1024000 
   37000   0.99222119   -4.4869934   -4.4869934   -2.9986645 -0.013454551   -4.4869934    1.4883288      1024000 
   38000   0.98344927   -4.4708242   -4.4708242   -2.9956533 -0.0041158256   -4.4708242    1.4751709      1024000 
   39000   0.99076583   -4.4776397   -4.4776397   -2.9914939  0.034205976   -4.4776397    1.4861458      1024000 
   40000     1.000449   -4.4884894   -4.4884894    -2.987819  0.076823516   -4.4884894    1.5006704      1024000 
   41000    1.0077785   -4.4985774   -4.4985774   -2.9869127   0.10447849   -4.4985774    1.5116648      1024000 
   42000    1.0175138   -4.5115181   -4.5115181   -2.9852505   0.12350292   -4.5115181    1.5262676      1024000 
   43000    1.0275534   -4.5230953   -4.5230953   -2.9817683   0.14098441   -4.5230953    1.5413271      1024000 
   44000    1.0280935   -4.5226199   -4.5226199   -2.9804828   0.15448102   -4.5226199    1.5421371      1024000 
   45000    1.0261864   -4.5208725   -4.5208725    -2.981596   0.13739448   -4.5208725    1.5392765      1024000 
   46000    1.0268246   -4.5203026   -4.5203026   -2.9800688   0.13980277   -4.5203026    1.5402338      1024000 
   47000    1.0283681   -4.5225839   -4.5225839   -2.9800349   0.14439195   -4.5225839     1.542549      1024000 
   48000    1.0323133   -4.5280071   -4.5280071   -2.9795402   0.15681513   -4.5280071    1.5484669      1024000 
   49000    1.0316912   -4.5285348   -4.5285348    -2.981001   0.15272309   -4.5285348    1.5475338      1024000 
   50000    1.0320315   -4.5309741   -4.5309741   -2.9829299   0.15911449   -4.5309741    1.5480442      1024000 
   51000    1.0348706   -4.5358879   -4.5358879   -2.9835851   0.16314122   -4.5358879    1.5523028      1024000 
   52000    1.0361586   -4.5452616   -4.5452616   -2.9910268   0.17190675   -4.5452616    1.5542348      1024000 
   53000    1.0385201   -4.5602833   -4.5602833   -3.0025063   0.18565639   -4.5602833     1.557777      1024000 
   54000    1.0378103   -4.5715212   -4.5715212   -3.0148089   0.18774648   -4.5715212    1.5567124      1024000 
   55000    1.0355666   -4.5788097   -4.5788097    -3.025463   0.17326787   -4.5788097    1.5533468      1024000 
   56000    1.0340921   -4.5815367   -4.5815367   -3.0304017   0.17948371   -4.5815367     1.551135      1024000 
   57000    1.0334562   -4.5857181   -4.5857181   -3.0355369   0.18642066   -4.5857181    1.5501812      1024000 
   58000    1.0324499   -4.5926612   -4.5926612   -3.0439894   0.18858017   -4.5926612    1.5486718      1024000 
   59000    1.0316551   -4.5990215   -4.5990215    -3.051542   0.19433664   -4.5990215    1.5474796      1024000 
   60000    1.0283692   -4.5992994   -4.5992994   -3.0567488   0.18407662   -4.5992994    1.5425507      1024000 
   61000    1.0263763   -4.5979457   -4.5979457   -3.0583844   0.17410135   -4.5979457    1.5395613      1024000 
   62000    1.0205978    -4.590383    -4.590383   -3.0594893   0.15570269    -4.590383    1.5308937      1024000 
   63000    1.0161396   -4.5850191   -4.5850191   -3.0608128   0.14154865   -4.5850191    1.5242063      1024000 
   64000    1.0131919    -4.578062    -4.578062   -3.0582772   0.13314359    -4.578062    1.5197848      1024000 
   65000     1.012603   -4.5752212   -4.5752212   -3.0563197   0.12728764   -4.5752212    1.5189015      1024000 
   66000    1.0111767   -4.5726826   -4.5726826   -3.0559206   0.12650477   -4.5726826     1.516762      1024000 
   67000    1.0114247   -4.5714317   -4.5714317   -3.0542977   0.12246838   -4.5714317     1.517134      1024000 
   68000     1.014184   -4.5725524   -4.5725524   -3.0512794   0.11856605   -4.5725524     1.521273      1024000 
   69000    1.0148168   -4.5740033   -4.5740033   -3.0517811   0.12735968   -4.5740033    1.5222222      1024000 
   70000    1.0177804   -4.5788058   -4.5788058   -3.0521383   0.13721726   -4.5788058    1.5266675      1024000 
   71000    1.0195177   -4.5825717   -4.5825717   -3.0532982   0.13518261   -4.5825717    1.5292735      1024000 
   72000    1.0200882   -4.5827058   -4.5827058   -3.0525765   0.14417731   -4.5827058    1.5301293      1024000 
   73000    1.0202203   -4.5837734   -4.5837734    -3.053446   0.14378613   -4.5837734    1.5303274      1024000 
   74000    1.0198842   -4.5852025   -4.5852025   -3.0553792   0.14091716   -4.5852025    1.5298233      1024000 
   75000    1.0191569   -4.5843952   -4.5843952   -3.0556629   0.13741319   -4.5843952    1.5287322      1024000 
   76000    1.0184117   -4.5839915   -4.5839915   -3.0563771   0.13666062   -4.5839915    1.5276144      1024000 
   77000    1.0183356   -4.5847023   -4.5847023   -3.0572021   0.12458358   -4.5847023    1.5275003      1024000 
   78000    1.0180272   -4.5836969   -4.5836969   -3.0566592   0.12837372   -4.5836969    1.5270377      1024000 
   79000    1.0175564   -4.5841281   -4.5841281   -3.0577966   0.12235143   -4.5841281    1.5263315      1024000 
   80000    1.0187814    -4.584462    -4.584462   -3.0562929   0.12998986    -4.584462    1.5281691      1024000 
   81000    1.0201309   -4.5875217   -4.5875217   -3.0573285    0.1281558   -4.5875217    1.5301932      1024000 
   82000    1.0215191   -4.5904011   -4.5904011   -3.0581255    0.1318642   -4.5904011    1.5322756      1024000 
   83000    1.0212287   -4.5890388   -4.5890388   -3.0571988   0.13069049   -4.5890388    1.5318399      1024000 
   84000    1.0216824   -4.5893655   -4.5893655    -3.056845   0.13342648   -4.5893655    1.5325205      1024000 
   85000    1.0212801   -4.5904558   -4.5904558   -3.0585387   0.13224042   -4.5904558    1.5319171      1024000 
   86000    1.0233783   -4.5948228   -4.5948228   -3.0597584    0.1247848   -4.5948228    1.5350644      1024000 
   87000     1.022475   -4.5937981   -4.5937981   -3.0600887   0.13710227   -4.5937981    1.5337094      1024000 
   88000     1.024553   -4.5950841   -4.5950841   -3.0582577   0.13838892   -4.5950841    1.5368264      1024000 
   89000    1.0267324   -4.5992248   -4.5992248   -3.0591292   0.14466003   -4.5992248    1.5400956      1024000 
   90000    1.0276047   -4.6033942   -4.6033942   -3.0619903   0.14155665   -4.6033942     1.541404      1024000 
   91000    1.0290904   -4.6055188   -4.6055188   -3.0618863   0.15410907   -4.6055188    1.5436325      1024000 
   92000    1.0297261   -4.6093541   -4.6093541    -3.064768   0.15779685   -4.6093541    1.5445861      1024000 
   93000    1.0317411   -4.6123898   -4.6123898   -3.0647813   0.16058277   -4.6123898    1.5476085      1024000 
   94000    1.0327557   -4.6146284   -4.6146284   -3.0654978   0.17095576   -4.6146284    1.5491305      1024000 
   95000    1.0350178   -4.6189705   -4.6189705   -3.0664469   0.17028892   -4.6189705    1.5525236      1024000 
   96000    1.0357279   -4.6230328   -4.6230328   -3.0694441   0.17694787   -4.6230328    1.5535888      1024000 
   97000    1.0369241   -4.6249626   -4.6249626   -3.0695796   0.18781157   -4.6249626     1.555383      1024000 
   98000    1.0390084    -4.627681    -4.627681   -3.0691716   0.19360315    -4.627681    1.5585094      1024000 
   99000    1.0443937   -4.6371116   -4.6371116   -3.0705241   0.19499442   -4.6371116    1.5665875      1024000 
  100000    1.0445868   -4.6411265   -4.6411265   -3.0742493   0.20857414   -4.6411265    1.5668771      1024000 
  101000    1.0493797   -4.6487178   -4.6487178   -3.0746515   0.21432737   -4.6487178    1.5740664      1024000 
  102000    1.0504524   -4.6511913   -4.6511913   -3.0755158    0.2294405   -4.6511913    1.5756755      1024000 
  103000    1.0506484   -4.6541958   -4.6541958   -3.0782264   0.22661326   -4.6541958    1.5759694      1024000 
  104000    1.0484371    -4.653493    -4.653493   -3.0808405   0.22873509    -4.653493    1.5726525      1024000 
  105000    1.0448396   -4.6500451   -4.6500451   -3.0827888   0.22563498   -4.6500451    1.5672563      1024000 
  106000    1.0430558   -4.6492526   -4.6492526    -3.084672   0.20988767   -4.6492526    1.5645806      1024000 
  107000     1.038799   -4.6456513   -4.6456513   -3.0874559   0.19987853   -4.6456513    1.5581953      1024000 
  108000    1.0368188   -4.6447001   -4.6447001    -3.089475   0.18575666   -4.6447001    1.5552251      1024000 
  109000    1.0335449   -4.6408282   -4.6408282   -3.0905139   0.17309647   -4.6408282    1.5503143      1024000 
  110000    1.0302082   -4.6336964   -4.6336964   -3.0883872   0.16843075   -4.6336964    1.5453092      1024000 
  111000    1.0264847   -4.6272677   -4.6272677   -3.0875438   0.16147017   -4.6272677    1.5397239      1024000 
  112000    1.0221473   -4.6202854   -4.6202854   -3.0870675   0.14850901   -4.6202854    1.5332179      1024000 
  113000    1.0200843   -4.6155434   -4.6155434     -3.08542   0.12581534   -4.6155434    1.5301234      1024000 
  114000    1.0115176   -4.6027296   -4.6027296   -3.0854562   0.11446277   -4.6027296    1.5172734      1024000 
  115000     1.008601    -4.593389    -4.593389   -3.0804906    0.1004102    -4.593389    1.5128985      1024000 
  116000    1.0038514   -4.5881473   -4.5881473   -3.0823733  0.077308299   -4.5881473    1.5057741      1024000 
  117000   0.99941807    -4.577893    -4.577893   -3.0787689  0.066649131    -4.577893    1.4991241      1024000 
  118000   0.99574199   -4.5708603   -4.5708603   -3.0772504  0.055158038   -4.5708603      1.49361      1024000 
  119000   0.99195759   -4.5632263   -4.5632263   -3.0752929  0.044757151   -4.5632263    1.4879334      1024000 
  120000    0.9903468   -4.5570546   -4.5570546   -3.0715374  0.037336496   -4.5570546    1.4855172      1024000 
  121000   0.98668908   -4.5507012   -4.5507012   -3.0706706  0.026633603   -4.5507012    1.4800307      1024000 
  122000   0.98471172   -4.5467417   -4.5467417   -3.0696771  0.019959778   -4.5467417    1.4770646      1024000 
  123000   0.98323985   -4.5395407   -4.5395407   -3.0646838  0.019561996   -4.5395407    1.4748568      1024000 
  124000   0.98282701   -4.5377775   -4.5377775   -3.0635399  0.012241317   -4.5377775    1.4742376      1024000 
  125000   0.98037896   -4.5344108   -4.5344108   -3.0638453  0.013849454   -4.5344108    1.4705655      1024000 
  126000   0.98127138   -4.5328181   -4.5328181    -3.060914  0.011494651   -4.5328181    1.4719041      1024000 
  127000   0.98305161   -4.5333837   -4.5333837   -3.0588092  0.016311554   -4.5333837    1.4745745      1024000 
  128000   0.98263681    -4.531611    -4.531611   -3.0576588   0.01348129    -4.531611    1.4739523      1024000 
  129000   0.98319681   -4.5318097   -4.5318097   -3.0570174  0.016284448   -4.5318097    1.4747923      1024000 
  130000   0.98688543   -4.5324567   -4.5324567   -3.0521315   0.02335339   -4.5324567    1.4803252      1024000 
  131000   0.98572149   -4.5338044   -4.5338044   -3.0552251  0.019093723   -4.5338044    1.4785793      1024000 
  132000   0.98745967   -4.5339214   -4.5339214   -3.0527348  0.032359125   -4.5339214    1.4811865      1024000 
  133000   0.99190649   -4.5408263   -4.5408263   -3.0529695  0.031894693   -4.5408263    1.4878568      1024000 
  134000   0.99515353   -4.5447002   -4.5447002   -3.0519729  0.037879139   -4.5447002    1.4927273      1024000 
  135000   0.99721618   -4.5497292   -4.5497292   -3.0539079  0.040254161   -4.5497292    1.4958213      1024000 
  136000   0.99952958   -4.5525776   -4.5525776   -3.0532863  0.058055076   -4.5525776    1.4992914      1024000 
  137000    1.0023721   -4.5576559   -4.5576559   -3.0541008  0.061880721   -4.5576559    1.5035551      1024000 
  138000    1.0052371   -4.5627928   -4.5627928   -3.0549402  0.073392749   -4.5627928    1.5078526      1024000 
  139000    1.0071817   -4.5646831   -4.5646831   -3.0539136  0.082392451   -4.5646831    1.5107695      1024000 
  140000    1.0072389   -4.5683688   -4.5683688   -3.0575134  0.083533431   -4.5683688    1.5108554      1024000 
  141000     1.008965   -4.5723745   -4.5723745     -3.05893   0.08744071   -4.5723745    1.5134445      1024000 
  142000    1.0102587   -4.5756451   -4.5756451     -3.06026  0.080420326   -4.5756451     1.515385      1024000 
  143000    1.0093437   -4.5755712   -4.5755712   -3.0615587  0.085693103   -4.5755712    1.5140125      1024000 
  144000    1.0105814   -4.5778414   -4.5778414   -3.0619724  0.085488682   -4.5778414     1.515869      1024000 
  145000    1.0090405   -4.5766909   -4.5766909   -3.0631332  0.088645156   -4.5766909    1.5135578      1024000 
  146000    1.0089313   -4.5778366   -4.5778366   -3.0644426  0.083006846   -4.5778366     1.513394      1024000 
  147000    1.0094487   -4.5771604   -4.5771604   -3.0629903  0.086619626   -4.5771604    1.5141701      1024000 
  148000    1.0079574   -4.5767944   -4.5767944   -3.0648613  0.078815757   -4.5767944    1.5119331      1024000 
  149000    1.0066073   -4.5732571   -4.5732571   -3.0633491  0.077486465   -4.5732571    1.5099079      1024000 
  150000    1.0066358   -4.5739041   -4.5739041   -3.0639535  0.075958329   -4.5739041    1.5099506      1024000 
  151000     1.006988   -4.5715861   -4.5715861   -3.0611071  0.076485734   -4.5715861     1.510479      1024000 
  152000    1.0048817   -4.5714176   -4.5714176   -3.0640981  0.074435965   -4.5714176    1.5073195      1024000 
  153000    1.0047053   -4.5690705   -4.5690705   -3.0620156  0.075621663   -4.5690705     1.507055      1024000 
  154000    1.0060821   -4.5708573   -4.5708573   -3.0617372  0.066893269   -4.5708573    1.5091202      1024000 
  155000    1.0050622   -4.5689585   -4.5689585   -3.0613683  0.072892197   -4.5689585    1.5075902      1024000 
  156000    1.0045117   -4.5709658   -4.5709658   -3.0642013  0.065394406   -4.5709658    1.5067645      1024000 
  157000    1.0038195   -4.5687104   -4.5687104   -3.0629842  0.067025096   -4.5687104    1.5057262      1024000 
  158000    1.0037211   -4.5678948   -4.5678948   -3.0623161  0.068541488   -4.5678948    1.5055787      1024000 
  159000    1.0039521   -4.5678035   -4.5678035   -3.0618783  0.070676894   -4.5678035    1.5059252      1024000 
  160000    1.0047149   -4.5690042   -4.5690042   -3.0619348  0.071973905   -4.5690042    1.5070694      1024000 
  161000    1.0052267   -4.5708075   -4.5708075   -3.0629706  0.072680013   -4.5708075     1.507837      1024000 
  162000    1.0046923   -4.5708905   -4.5708905   -3.0638552  0.070804526   -4.5708905    1.5070354      1024000 
  163000    1.0042974   -4.5712838   -4.5712838   -3.0648407  0.070783524   -4.5712838    1.5064431      1024000 
  164000    1.0060993   -4.5741002   -4.5741002   -3.0649542  0.066134014   -4.5741002     1.509146      1024000 
  165000    1.0064409   -4.5715792   -4.5715792   -3.0619209  0.076975981   -4.5715792    1.5096583      1024000 
  166000    1.0069426   -4.5744316   -4.5744316   -3.0640207  0.072997624   -4.5744316    1.5104109      1024000 
  167000    1.0062708   -4.5728139   -4.5728139   -3.0634108  0.077376719   -4.5728139    1.5094031      1024000 
  168000    1.0067721   -4.5751762   -4.5751762   -3.0650211  0.075108269   -4.5751762    1.5101551      1024000 
  169000    1.0065361   -4.5753275   -4.5753275   -3.0655264  0.072652169   -4.5753275    1.5098011      1024000 
  170000    1.0056274   -4.5747343   -4.5747343   -3.0662962  0.076694542   -4.5747343    1.5084381      1024000 
  171000    1.0056666   -4.5763363   -4.5763363   -3.0678394  0.072718944   -4.5763363    1.5084969      1024000 
  172000    1.0064779   -4.5761883   -4.5761883   -3.0664745  0.075996986   -4.5761883    1.5097138      1024000 
  173000    1.0061814   -4.5773024   -4.5773024   -3.0680334  0.076407645   -4.5773024     1.509269      1024000 
  174000    1.0056632    -4.574616    -4.574616   -3.0661242  0.077011019    -4.574616    1.5084918      1024000 
  175000    1.0050287   -4.5733425   -4.5733425   -3.0658024  0.081662997   -4.5733425    1.5075401      1024000 
  176000    1.0056813   -4.5754282   -4.5754282   -3.0669093  0.078724476   -4.5754282    1.5085189      1024000 
  177000    1.0052754   -4.5776839   -4.5776839   -3.0697739    0.0740581   -4.5776839      1.50791      1024000 
  178000    1.0056941   -4.5780297   -4.5780297   -3.0694916  0.072622273   -4.5780297    1.5085381      1024000 
  179000    1.0055674   -4.5771623   -4.5771623   -3.0688143  0.078321635   -4.5771623    1.5083481      1024000 
  180000    1.0059284    -4.578317    -4.578317   -3.0694273  0.071280045    -4.578317    1.5088896      1024000 
  181000     1.004884   -4.5780217   -4.5780217   -3.0706987  0.069149285   -4.5780217     1.507323      1024000 
  182000    1.0059677   -4.5788731   -4.5788731   -3.0699246  0.072334153   -4.5788731    1.5089485      1024000 
  183000      1.00546    -4.577701    -4.577701   -3.0695139   0.07342281    -4.577701     1.508187      1024000 
  184000    1.0045481   -4.5765613   -4.5765613   -3.0697422  0.065648135   -4.5765613    1.5068191      1024000 
  185000    1.0046794   -4.5754964   -4.5754964   -3.0684803  0.069305989   -4.5754964    1.5070161      1024000 
  186000    1.0037991   -4.5752611   -4.5752611   -3.0695654  0.075255645   -4.5752611    1.5056957      1024000 
  187000     1.004541    -4.575118    -4.575118   -3.0683096  0.069005775    -4.575118    1.5068084      1024000 
  188000    1.0041081   -4.5755878   -4.5755878   -3.0694287  0.068789753   -4.5755878    1.5061591      1024000 
  189000    1.0028817   -4.5735313   -4.5735313   -3.0692118  0.072918673   -4.5735313    1.5043195      1024000 
  190000     1.002075   -4.5760862   -4.5760862   -3.0729768   0.06406044   -4.5760862    1.5031095      1024000 
  191000    1.0028712   -4.5742487   -4.5742487   -3.0699449  0.069120752   -4.5742487    1.5043039      1024000 
  192000    1.0032628   -4.5767284   -4.5767284   -3.0718372  0.068968165   -4.5767284    1.5048912      1024000 
  193000    1.0021912   -4.5745456   -4.5745456   -3.0712618  0.069533232   -4.5745456    1.5032838      1024000 
  194000    1.0032237   -4.5736397   -4.5736397   -3.0688072  0.075445945   -4.5736397    1.5048325      1024000 
  195000    1.0046057   -4.5753432   -4.5753432   -3.0684377  0.071555525   -4.5753432    1.5069055      1024000 
  196000    1.0042475   -4.5769943   -4.5769943    -3.070626  0.067440047   -4.5769943    1.5063683      1024000 
  197000    1.0052941   -4.5789305   -4.5789305   -3.0709924  0.066355809   -4.5789305    1.5079381      1024000 
  198000    1.0047654   -4.5769544   -4.5769544   -3.0698093  0.068430775   -4.5769544    1.5071451      1024000 
  199000    1.0029264   -4.5761223   -4.5761223   -3.0717357   0.06892602   -4.5761223    1.5043866      1024000 
  200000    1.0042338   -4.5765384   -4.5765384   -3.0701906  0.064728883   -4.5765384    1.5063477      1024000 
  201000    1.0040979   -4.5782522   -4.5782522   -3.0721084  0.061634782   -4.5782522    1.5061438      1024000 
  202000    1.0017431   -4.5753575   -4.5753575   -3.0727459  0.069832428   -4.5753575    1.5026116      1024000 
  203000    1.0037554   -4.5778316   -4.5778316   -3.0722016   0.06721121   -4.5778316      1.50563      1024000 
  204000    1.0043716   -4.5804742   -4.5804742   -3.0739199  0.058814444   -4.5804742    1.5065543      1024000 
  205000    1.0045113    -4.578233    -4.578233   -3.0714691  0.066914594    -4.578233    1.5067639      1024000 
  206000    1.0040904   -4.5765803   -4.5765803   -3.0704478  0.070683821   -4.5765803    1.5061325      1024000 
  207000    1.0019597   -4.5761428   -4.5761428   -3.0732063  0.070899009   -4.5761428    1.5029365      1024000 
  208000    1.0040657   -4.5771039   -4.5771039   -3.0710083  0.066818352   -4.5771039    1.5060956      1024000 
  209000    1.0046355   -4.5794021   -4.5794021   -3.0724519  0.067407546   -4.5794021    1.5069503      1024000 
  210000    1.0036302   -4.5790461   -4.5790461   -3.0736039  0.066544223   -4.5790461    1.5054422      1024000 
  211000    1.0015176   -4.5787546   -4.5787546   -3.0764813  0.063612031   -4.5787546    1.5022733      1024000 
  212000    1.0017036   -4.5776686   -4.5776686   -3.0751163  0.067837598   -4.5776686    1.5025523      1024000 
  213000    1.0028609   -4.5785463   -4.5785463    -3.074258  0.064306483   -4.5785463    1.5042884      1024000 
  214000    1.0024954   -4.5786457   -4.5786457   -3.0749056  0.067706552   -4.5786457    1.5037401      1024000 
  215000    1.0032458   -4.5789519   -4.5789519   -3.0740862  0.064050653   -4.5789519    1.5048657      1024000 
  216000     1.001708   -4.5778145   -4.5778145   -3.0752554  0.066610475   -4.5778145     1.502559      1024000 
  217000    1.0032157   -4.5809985   -4.5809985    -3.076178  0.061693098   -4.5809985    1.5048206      1024000 
  218000    1.0041819    -4.579607    -4.579607   -3.0733371  0.066657617    -4.579607    1.5062699      1024000 
  219000    1.0028779   -4.5786048   -4.5786048   -3.0742909  0.071069323   -4.5786048    1.5043139      1024000 
  220000    1.0032116   -4.5808161   -4.5808161   -3.0760017  0.066327015   -4.5808161    1.5048144      1024000 
  221000    1.0029822   -4.5815562   -4.5815562   -3.0770859  0.071080853   -4.5815562    1.5044703      1024000 
  222000    1.0038015   -4.5823845   -4.5823845   -3.0766853  0.067952899   -4.5823845    1.5056992      1024000 
  223000    1.0041458   -4.5821413   -4.5821413   -3.0759257  0.068398509   -4.5821413    1.5062156      1024000 
  224000    1.0039308   -4.5823653   -4.5823653   -3.0764722  0.064577792   -4.5823653    1.5058931      1024000 
  225000    1.0026676   -4.5791042   -4.5791042   -3.0751058  0.066530545   -4.5791042    1.5039984      1024000 
  226000    1.0027424    -4.582439    -4.582439   -3.0783284  0.062840414    -4.582439    1.5041106      1024000 
  227000    1.0014782   -4.5811426   -4.5811426   -3.0789284  0.063462232   -4.5811426    1.5022142      1024000 
  228000    1.0021659   -4.5811348   -4.5811348   -3.0778889  0.065743589   -4.5811348    1.5032458      1024000 
  229000    1.0015187   -4.5811246   -4.5811246   -3.0788495  0.066771135   -4.5811246    1.5022751      1024000 
  230000    1.0021666   -4.5824664   -4.5824664   -3.0792196  0.062935552   -4.5824664    1.5032469      1024000 
  231000     1.001755   -4.5825964   -4.5825964   -3.0799669  0.065465571   -4.5825964    1.5026295      1024000 
  232000    1.0015276   -4.5823293   -4.5823293    -3.080041  0.067678176   -4.5823293    1.5022883      1024000 
  233000    1.0032729   -4.5827889   -4.5827889   -3.0778826  0.065682059   -4.5827889    1.5049063      1024000 
  234000    1.0023238   -4.5834832   -4.5834832   -3.0800005  0.057882598   -4.5834832    1.5034827      1024000 
  235000    1.0027432   -4.5836829   -4.5836829   -3.0795711  0.062519779   -4.5836829    1.5041118      1024000 
  236000    1.0030176   -4.5835926   -4.5835926   -3.0790693  0.068563394   -4.5835926    1.5045234      1024000 
  237000    1.0033702   -4.5842786   -4.5842786   -3.0792263  0.067280326   -4.5842786    1.5050523      1024000 
  238000    1.0013788   -4.5819047   -4.5819047   -3.0798395  0.072976083   -4.5819047    1.5020652      1024000 
  239000    1.0022151   -4.5841483   -4.5841483   -3.0808288  0.066416917   -4.5841483    1.5033196      1024000 
  240000    1.0016042   -4.5825044   -4.5825044    -3.080101  0.066688221   -4.5825044    1.5024034      1024000 
  241000    1.0002478   -4.5805575   -4.5805575   -3.0801888  0.068061274   -4.5805575    1.5003687      1024000 
  242000    1.0018356   -4.5815797   -4.5815797   -3.0788294  0.072421342   -4.5815797    1.5027503      1024000 
  243000    1.0019504   -4.5825145   -4.5825145    -3.079592  0.065494446   -4.5825145    1.5029225      1024000 
  244000    1.0020095   -4.5835027   -4.5835027   -3.0804914  0.062389785   -4.5835027    1.5030113      1024000 
  245000    1.0019852    -4.582727    -4.582727   -3.0797523  0.068506681    -4.582727    1.5029748      1024000 
  246000    1.0023837   -4.5840746   -4.5840746   -3.0805022  0.068096831   -4.5840746    1.5035725      1024000 
  247000    1.0015557   -4.5812952   -4.5812952   -3.0789647  0.068705091   -4.5812952    1.5023305      1024000 
  248000    1.0017382   -4.5843596   -4.5843596   -3.0817553  0.062040721   -4.5843596    1.5026042      1024000 
  249000    1.0025814   -4.5849027   -4.5849027   -3.0810336  0.061343545   -4.5849027    1.5038691      1024000 
  250000     1.001296   -4.5825754   -4.5825754   -3.0806344  0.066118336   -4.5825754     1.501941      1024000 
  251000    1.0028409   -4.5842035   -4.5842035   -3.0799452  0.064470403   -4.5842035    1.5042583      1024000 
  252000   0.99965697   -4.5828119   -4.5828119   -3.0833295  0.066058468   -4.5828119    1.4994825      1024000 
  253000     1.002109   -4.5878007   -4.5878007   -3.0846402  0.057971784   -4.5878007    1.5031605      1024000 
  254000    1.0009736   -4.5842294   -4.5842294    -3.082772  0.068295205   -4.5842294    1.5014574      1024000 
  255000    1.0012042   -4.5853358   -4.5853358   -3.0835326   0.06187841   -4.5853358    1.5018032      1024000 
  256000    1.0002863   -4.5837321   -4.5837321   -3.0833056  0.061495086   -4.5837321    1.5004265      1024000 
  257000    1.0018564   -4.5854818   -4.5854818   -3.0827002  0.063910186   -4.5854818    1.5027816      1024000 
  258000    1.0010527   -4.5836337   -4.5836337   -3.0820577   0.06667302   -4.5836337    1.5015761      1024000 
  259000   0.99949492   -4.5831561   -4.5831561   -3.0839167  0.068628168   -4.5831561    1.4992394      1024000 
  260000    1.0011027   -4.5856187   -4.5856187   -3.0839676   0.06243588   -4.5856187    1.5016511      1024000 
  261000    1.0010456   -4.5859012   -4.5859012   -3.0843358  0.060772403   -4.5859012    1.5015653      1024000 
  262000   0.99960578   -4.5841773   -4.5841773   -3.0847717  0.067284225   -4.5841773    1.4994057      1024000 
  263000     1.001926   -4.5849724   -4.5849724   -3.0820864  0.067056512   -4.5849724     1.502886      1024000 
  264000    1.0010983   -4.5848604   -4.5848604   -3.0832159  0.065134041   -4.5848604    1.5016445      1024000 
  265000    1.0005707   -4.5860111   -4.5860111   -3.0851581  0.060944274   -4.5860111     1.500853      1024000 
  266000     1.001381   -4.5842249   -4.5842249   -3.0821564  0.069714717   -4.5842249    1.5020685      1024000 
  267000    1.0014304   -4.5848396   -4.5848396    -3.082697  0.067743118   -4.5848396    1.5021426      1024000 
  268000    1.0019055   -4.5861963   -4.5861963   -3.0833411  0.064060629   -4.5861963    1.5028552      1024000 
  269000    1.0055021    -4.589846    -4.589846    -3.081596  0.066649427    -4.589846    1.5082501      1024000 
  270000    1.0023852   -4.5866515   -4.5866515   -3.0830768  0.071574759   -4.5866515    1.5035748      1024000 
  271000    1.0026889   -4.5868339   -4.5868339   -3.0828035  0.070075028   -4.5868339    1.5040304      1024000 
  272000     1.002288   -4.5855408   -4.5855408   -3.0821118  0.074917264   -4.5855408     1.503429      1024000 
  273000    1.0017481   -4.5851065   -4.5851065   -3.0824874  0.077253221   -4.5851065    1.5026191      1024000 
  274000    1.0012626   -4.5872638   -4.5872638   -3.0853729  0.063394918   -4.5872638    1.5018909      1024000 
  275000    1.0001802   -4.5867718   -4.5867718   -3.0865045  0.067281959   -4.5867718    1.5002673      1024000 
  276000     1.000432   -4.5856072   -4.5856072   -3.0849621  0.068853452   -4.5856072     1.500645      1024000 
  277000    1.0007284   -4.5871196   -4.5871196     -3.08603  0.063055028   -4.5871196    1.5010896      1024000 
  278000    1.0010418   -4.5862396   -4.5862396   -3.0846799  0.067675141   -4.5862396    1.5015597      1024000 
  279000   0.99953059   -4.5869565   -4.5869565   -3.0876636  0.058194204   -4.5869565    1.4992929      1024000 
  280000    1.0009866   -4.5868284   -4.5868284   -3.0853516  0.057668342   -4.5868284    1.5014768      1024000 
  281000    1.0010782   -4.5880717   -4.5880717   -3.0864575   0.06568942   -4.5880717    1.5016142      1024000 
  282000    1.0005284   -4.5857572   -4.5857572   -3.0849676  0.072703181   -4.5857572    1.5007896      1024000 
  283000    1.0003183   -4.5871751   -4.5871751   -3.0867006  0.064755066   -4.5871751    1.5004745      1024000 
  284000   0.99955182   -4.5865739   -4.5865739   -3.0872492  0.068648361   -4.5865739    1.4993247      1024000 
  285000    1.0005414   -4.5887836   -4.5887836   -3.0879745  0.060268361   -4.5887836    1.5008091      1024000 
  286000   0.99927697   -4.5864179   -4.5864179   -3.0875055  0.065887201   -4.5864179    1.4989125      1024000 
  287000   0.99755187   -4.5835653   -4.5835653   -3.0872405  0.067152946   -4.5835653    1.4963248      1024000 
  288000   0.99943253   -4.5865726   -4.5865726   -3.0874268  0.062543154   -4.5865726    1.4991458      1024000 
  289000   0.99887262   -4.5852523   -4.5852523   -3.0869464  0.068108712   -4.5852523    1.4983059      1024000 
  290000   0.99981464   -4.5876617   -4.5876617   -3.0879427  0.060790715   -4.5876617     1.499719      1024000 
  291000   0.99970394   -4.5872519   -4.5872519    -3.087699  0.063321581   -4.5872519    1.4995529      1024000 
  292000     1.001343   -4.5898468   -4.5898468   -3.0878353  0.056970228   -4.5898468    1.5020115      1024000 
  293000   0.99966704   -4.5855297   -4.5855297   -3.0860322  0.072277887   -4.5855297    1.4994976      1024000 
  294000   0.99968381   -4.5884424   -4.5884424   -3.0889197  0.059344604   -4.5884424    1.4995227      1024000 
  295000     0.999143   -4.5853497   -4.5853497   -3.0866382  0.066189266   -4.5853497    1.4987115      1024000 
  296000     1.000961   -4.5863987   -4.5863987   -3.0849603  0.063865059   -4.5863987    1.5014384      1024000 
  297000     1.000731   -4.5880421   -4.5880421   -3.0869486   0.06228353   -4.5880421    1.5010935      1024000 
  298000    1.0003786   -4.5891916   -4.5891916   -3.0886267  0.066467281   -4.5891916    1.5005649      1024000 
  299000    1.0002514   -4.5892628   -4.5892628   -3.0888887   0.07165731   -4.5892628    1.5003741      1024000 
  300000    1.0010327   -4.5892934   -4.5892934   -3.0877473  0.069933081   -4.5892934    1.5015461      1024000 
  301000   0.99902464   -4.5891593   -4.5891593   -3.0906253  0.063673346   -4.5891593     1.498534      1024000 
  302000    1.0000805   -4.5895501   -4.5895501   -3.0894325  0.059852309   -4.5895501    1.5001177      1024000 
  303000    1.0011938   -4.5889269   -4.5889269   -3.0871392  0.063136251   -4.5889269    1.5017877      1024000 
  304000    1.0000225   -4.5886441   -4.5886441   -3.0886133  0.063025973   -4.5886441    1.5000308      1024000 
  305000   0.99875855   -4.5872477   -4.5872477   -3.0891129  0.065389958   -4.5872477    1.4981348      1024000 
  306000   0.99801336   -4.5879798   -4.5879798   -3.0909627  0.065220946   -4.5879798     1.497017      1024000 
  307000   0.99920577   -4.5877187   -4.5877187    -3.088913  0.064757744   -4.5877187    1.4988057      1024000 
  308000   0.99983848   -4.5898647   -4.5898647   -3.0901099  0.062036083   -4.5898647    1.4997547      1024000 
  309000   0.99966406   -4.5899279   -4.5899279   -3.0904348  0.067349387   -4.5899279    1.4994931      1024000 
  310000   0.99851307   -4.5906502   -4.5906502   -3.0928836  0.066476468   -4.5906502    1.4977666      1024000 
  311000   0.99753627   -4.5903863   -4.5903863   -3.0940849  0.059006088   -4.5903863    1.4963014      1024000 
  312000   0.99928019   -4.5910358   -4.5910358   -3.0921186  0.062221736   -4.5910358    1.4989173      1024000 
  313000   0.99803481   -4.5898182   -4.5898182    -3.092769    0.0602528   -4.5898182    1.4970492      1024000 
  314000   0.99889926   -4.5907343   -4.5907343   -3.0923884  0.060643495   -4.5907343    1.4983459      1024000 
  315000   0.99864783   -4.5886884   -4.5886884   -3.0907197  0.070523317   -4.5886884    1.4979687      1024000 
  316000   0.99849143   -4.5915119   -4.5915119   -3.0937778   0.06256232   -4.5915119    1.4977342      1024000 
  317000    1.0004167   -4.5931604   -4.5931604   -3.0925384  0.061967547   -4.5931604    1.5006221      1024000 
  318000    1.0001515   -4.5915568   -4.5915568   -3.0913326  0.066759841   -4.5915568    1.5002242      1024000 
  319000   0.99902737   -4.5910316   -4.5910316   -3.0924935  0.067996493   -4.5910316    1.4985381      1024000 
  320000    1.0002244   -4.5912298   -4.5912298   -3.0908962  0.072421969   -4.5912298    1.5003336      1024000 
  321000    1.0015687   -4.5937939   -4.5937939   -3.0914439  0.064334996   -4.5937939      1.50235      1024000 
  322000   0.99893724   -4.5922425   -4.5922425   -3.0938397  0.069383203   -4.5922425    1.4984029      1024000 
  323000   0.99856068   -4.5912474   -4.5912474   -3.0934094  0.073060607   -4.5912474     1.497838      1024000 
  324000   0.99918877   -4.5926735   -4.5926735   -3.0938934  0.063939473   -4.5926735    1.4987801      1024000 
  325000   0.99841277   -4.5918041   -4.5918041    -3.094188  0.067116516   -4.5918041    1.4976162      1024000 
  326000   0.99944378   -4.5910705   -4.5910705   -3.0919079  0.064893501   -4.5910705    1.4991627      1024000 
  327000   0.99995734   -4.5915907   -4.5915907   -3.0916577  0.066540471   -4.5915907     1.499933      1024000 
  328000   0.99859716   -4.5907156   -4.5907156   -3.0928229  0.069361218   -4.5907156    1.4978927      1024000 
  329000   0.99963463   -4.5922166   -4.5922166   -3.0927677  0.074635009   -4.5922166    1.4994489      1024000 
  330000     1.000011   -4.5932205   -4.5932205    -3.093207  0.067210465   -4.5932205    1.5000135      1024000 
  331000   0.99942001    -4.593439    -4.593439    -3.094312  0.065037178    -4.593439     1.499127      1024000 
  332000    1.0012774   -4.5946694   -4.5946694   -3.0927563  0.067962551   -4.5946694    1.5019131      1024000 
  333000    1.0007766   -4.5926081   -4.5926081   -3.0914462  0.067328317   -4.5926081    1.5011619      1024000 
  334000   0.99921356   -4.5925354   -4.5925354   -3.0937181  0.067450144   -4.5925354    1.4988173      1024000 
  335000   0.99846313   -4.5924028   -4.5924028   -3.0947111  0.060357445   -4.5924028    1.4976917      1024000 
  336000    0.9981143   -4.5905151   -4.5905151   -3.0933466  0.068506116   -4.5905151    1.4971685      1024000 
  337000   0.99839398    -4.591031    -4.591031    -3.093443  0.060419776    -4.591031     1.497588      1024000 
  338000   0.99824019   -4.5930752   -4.5930752   -3.0957179  0.060727968   -4.5930752    1.4973573      1024000 
  339000   0.99977964    -4.591874    -4.591874   -3.0922076  0.067722466    -4.591874    1.4996664      1024000 
  340000   0.99823966   -4.5919158   -4.5919158   -3.0945593  0.062760242   -4.5919158    1.4973565      1024000 
  341000   0.99919457   -4.5926065   -4.5926065   -3.0938177  0.065486725   -4.5926065    1.4987889      1024000 
  342000   0.99845265   -4.5905827   -4.5905827   -3.0929067  0.064186087   -4.5905827     1.497676      1024000 
  343000   0.99806527   -4.5921054   -4.5921054   -3.0950105  0.064908981   -4.5921054    1.4970949      1024000 
  344000   0.99817371   -4.5918252   -4.5918252   -3.0945677  0.059684894   -4.5918252    1.4972576      1024000 
  345000   0.99848036   -4.5925449   -4.5925449   -3.0948273  0.059918648   -4.5925449    1.4977175      1024000 
  346000   0.99742379   -4.5922213   -4.5922213   -3.0960886  0.058435734   -4.5922213    1.4961327      1024000 
  347000    0.9976322   -4.5907209   -4.5907209   -3.0942756  0.060497702   -4.5907209    1.4964453      1024000 
  348000   0.99867758    -4.591622    -4.591622   -3.0936086  0.062541511    -4.591622    1.4980134      1024000 
  349000   0.99872225   -4.5918636   -4.5918636   -3.0937832  0.059663633   -4.5918636    1.4980804      1024000 
  350000   0.99722936   -4.5911913   -4.5911913   -3.0953503  0.068627691   -4.5911913     1.495841      1024000 
  351000   0.99723246   -4.5923173   -4.5923173   -3.0964716  0.064203606   -4.5923173    1.4958457      1024000 
  352000   0.99740373    -4.592237    -4.592237   -3.0961344     0.063304    -4.592237    1.4961026      1024000 
  353000   0.99851983   -4.5933018   -4.5933018   -3.0955251  0.060748208   -4.5933018    1.4977767      1024000 
  354000   0.99878052   -4.5946268   -4.5946268   -3.0964591  0.057113853   -4.5946268    1.4981678      1024000 
  355000   0.99805426    -4.594096    -4.594096   -3.0970176  0.059342411    -4.594096    1.4970784      1024000 
  356000   0.99896707   -4.5936541   -4.5936541   -3.0952064  0.070004471   -4.5936541    1.4984476      1024000 
  357000   0.99906004   -4.5940964   -4.5940964   -3.0955093  0.070444499   -4.5940964    1.4985871      1024000 
  358000   0.99794264   -4.5929036   -4.5929036   -3.0959926   0.06873727   -4.5929036     1.496911      1024000 
  359000   0.99826607   -4.5935068   -4.5935068   -3.0961107  0.069264958   -4.5935068    1.4973961      1024000 
  360000   0.99874563   -4.5934973   -4.5934973   -3.0953819  0.062993257   -4.5934973    1.4981154      1024000 
  361000   0.99907533   -4.5934781   -4.5934781   -3.0948681  0.073559844   -4.5934781      1.49861      1024000 
  362000   0.99867989   -4.5940493   -4.5940493   -3.0960324  0.070437395   -4.5940493    1.4980168      1024000 
  363000   0.99756633   -4.5939189   -4.5939189   -3.0975724  0.071302318   -4.5939189    1.4963465      1024000 
  364000   0.99956401   -4.5962314   -4.5962314   -3.0968884  0.062560197   -4.5962314     1.499343      1024000 
  365000   0.99894077   -4.5940442   -4.5940442    -3.095636  0.069508335   -4.5940442    1.4984082      1024000 
  366000   0.99872519   -4.5936596   -4.5936596   -3.0955748  0.067192951   -4.5936596    1.4980848      1024000 
  367000   0.99754533    -4.593013    -4.593013    -3.096698  0.067570362    -4.593013     1.496315      1024000 
  368000   0.99878103   -4.5946111   -4.5946111   -3.0964426  0.066170118   -4.5946111    1.4981685      1024000 
  369000   0.99648502   -4.5911965   -4.5911965    -3.096472  0.072732096   -4.5911965    1.4947245      1024000 
  370000   0.99830429   -4.5946371   -4.5946371   -3.0971837  0.063957259   -4.5946371    1.4974534      1024000 
  371000   0.99724026   -4.5945559   -4.5945559   -3.0986985  0.065388432   -4.5945559    1.4958574      1024000 
  372000   0.99819927    -4.594644    -4.594644   -3.0973481  0.062380346    -4.594644    1.4972959      1024000 
  373000   0.99704781    -4.593982    -4.593982   -3.0984132  0.063412365    -4.593982    1.4955687      1024000 
  374000   0.99719094   -4.5940292   -4.5940292   -3.0982458  0.069086283   -4.5940292    1.4957834      1024000 
  375000   0.99718258   -4.5942201   -4.5942201   -3.0984492  0.064919704   -4.5942201    1.4957709      1024000 
  376000   0.99683798   -4.5921168   -4.5921168   -3.0968628  0.066229524   -4.5921168     1.495254      1024000 
  377000   0.99722179   -4.5932526   -4.5932526    -3.097423  0.063233928   -4.5932526    1.4958297      1024000 
  378000    0.9976178    -4.593759    -4.593759   -3.0973353  0.062303011    -4.593759    1.4964237      1024000 
  379000   0.99748617   -4.5946972   -4.5946972   -3.0984709  0.061657112   -4.5946972    1.4962263      1024000 
  380000   0.99594684   -4.5947612   -4.5947612   -3.1008439  0.062964657   -4.5947612    1.4939173      1024000 
  381000   0.99741155   -4.5965115   -4.5965115   -3.1003972  0.061837083   -4.5965115    1.4961143      1024000 
  382000   0.99814603   -4.5971516   -4.5971516   -3.0999355  0.064765442   -4.5971516    1.4972161      1024000 
  383000   0.99746926   -4.5965014   -4.5965014   -3.1003005  0.064923043   -4.5965014    1.4962009      1024000 
  384000   0.99845843   -4.5979889   -4.5979889   -3.1003043  0.060094869   -4.5979889    1.4976846      1024000 
  385000   0.99716531   -4.5956864   -4.5956864   -3.0999414  0.067797933   -4.5956864     1.495745      1024000 
  386000   0.99841626   -4.5981578   -4.5981578   -3.1005365   0.06090696   -4.5981578    1.4976214      1024000 
  387000   0.99790578   -4.5968892   -4.5968892   -3.1000335  0.065312297   -4.5968892    1.4968557      1024000 
  388000   0.99874536    -4.597574    -4.597574   -3.0994589  0.064082508    -4.597574     1.498115      1024000 
  389000   0.99772763   -4.5986168   -4.5986168   -3.1020284  0.059537289   -4.5986168    1.4965885      1024000 
  390000   0.99954168   -4.5986825   -4.5986825    -3.099373  0.070758927   -4.5986825    1.4993095      1024000 
  391000   0.99661595   -4.5968733   -4.5968733   -3.1019524  0.069033876   -4.5968733    1.4949209      1024000 
  392000   0.99623059   -4.5955113   -4.5955113   -3.1011684  0.067732453   -4.5955113    1.4943429      1024000 
  393000   0.99717442   -4.5966973   -4.5966973   -3.1009387  0.066146514   -4.5966973    1.4957586      1024000 
  394000   0.99768142   -4.5989648   -4.5989648   -3.1024456  0.061944845   -4.5989648    1.4965191      1024000 
  395000   0.99842636   -4.5978572   -4.5978572   -3.1002206  0.068776675   -4.5978572    1.4976365      1024000 
  396000   0.99857051   -4.5989265   -4.5989265   -3.1010737  0.068365764   -4.5989265    1.4978528      1024000 
  397000      1.00031   -4.6001824   -4.6001824   -3.0997204   0.06845521   -4.6001824     1.500462      1024000 
  398000   0.99816613    -4.598333    -4.598333   -3.1010868  0.067331971    -4.598333    1.4972462      1024000 
  399000   0.99721366   -4.5983263   -4.5983263   -3.1025088  0.064445479   -4.5983263    1.4958175      1024000 
  400000   0.99841768   -4.5984115   -4.5984115    -3.100788  0.067763877   -4.5984115    1.4976235      1024000 
  401000   0.99873989   -4.5977656   -4.5977656   -3.0996588  0.075148501   -4.5977656    1.4981068      1024000 
  402000   0.99937609   -4.5996339   -4.5996339   -3.1005728  0.070536685   -4.5996339    1.4990611      1024000 
  403000   0.99856296   -4.5990513   -4.5990513   -3.1012098  0.067826622   -4.5990513    1.4978414      1024000 
  404000   0.99678697   -4.5978753   -4.5978753   -3.1026978  0.072564358   -4.5978753    1.4951775      1024000 
  405000   0.99640462   -4.5965362   -4.5965362   -3.1019322  0.070073748   -4.5965362    1.4946039      1024000 
  406000   0.99782258   -4.5998015   -4.5998015   -3.1030706  0.063014636   -4.5998015    1.4967309      1024000 
  407000   0.99744177   -4.5963634   -4.5963634   -3.1002038  0.070834531   -4.5963634    1.4961597      1024000 
  408000   0.99792358   -4.5977392   -4.5977392   -3.1008568  0.067233722   -4.5977392    1.4968824      1024000 
  409000   0.99844122   -4.5994408   -4.5994408    -3.101782  0.063162163   -4.5994408    1.4976588      1024000 
  410000   0.99678424   -4.5967819   -4.5967819   -3.1016085  0.069896504   -4.5967819    1.4951734      1024000 
  411000   0.99872449   -4.5988804   -4.5988804   -3.1007967   0.06673883   -4.5988804    1.4980837      1024000 
  412000    0.9961619   -4.5961923   -4.5961923   -3.1019524  0.071920044   -4.5961923    1.4942399      1024000 
  413000   0.99741364    -4.597743    -4.597743   -3.1016255  0.060256044    -4.597743    1.4961175      1024000 
  414000   0.99658933   -4.5975662   -4.5975662   -3.1026852  0.066553629   -4.5975662     1.494881      1024000 
  415000   0.99605383   -4.5982409   -4.5982409   -3.1041631  0.061093817   -4.5982409    1.4940778      1024000 
  416000   0.99659804   -4.5961788   -4.5961788   -3.1012848  0.064524007   -4.5961788    1.4948941      1024000 
  417000   0.99509674   -4.5971078   -4.5971078   -3.1044656  0.060862994   -4.5971078    1.4926421      1024000 
  418000    0.9950844   -4.5950876   -4.5950876    -3.102464  0.060172488   -4.5950876    1.4926236      1024000 
  419000   0.99508395   -4.5954269   -4.5954269    -3.102804  0.063483704   -4.5954269    1.4926229      1024000 
  420000   0.99601397   -4.5972953   -4.5972953   -3.1032773   0.06052726   -4.5972953     1.494018      1024000 
  421000   0.99591183   -4.5971432   -4.5971432   -3.1032784  0.063758327   -4.5971432    1.4938648      1024000 
  422000   0.99720746   -4.5981397   -4.5981397   -3.1023315  0.067061718   -4.5981397    1.4958082      1024000 
  423000   0.99573856   -4.5983424   -4.5983424   -3.1047375   0.06738532   -4.5983424    1.4936049      1024000 
  424000   0.99683713   -4.5999664   -4.5999664   -3.1047137  0.065027798   -4.5999664    1.4952527      1024000 
  425000   0.99571851   -4.5975337   -4.5975337    -3.103959  0.071113671   -4.5975337    1.4935748      1024000 
  426000    0.9981729   -4.6005883   -4.6005883    -3.103332  0.062453849   -4.6005883    1.4972564      1024000 
  427000    0.9979929   -4.5997731   -4.5997731   -3.1027867  0.060836273   -4.5997731    1.4969864      1024000 
  428000   0.99679579   -4.5969612   -4.5969612   -3.1017705  0.073751866   -4.5969612    1.4951907      1024000 
  429000   0.99638562   -4.5971387   -4.5971387   -3.1025633   0.07313319   -4.5971387    1.4945754      1024000 
  430000   0.99709462   -4.5984448   -4.5984448   -3.1028058  0.067271805   -4.5984448    1.4956389      1024000 
  431000   0.99853961   -4.6008187   -4.6008187   -3.1030123  0.062966329   -4.6008187    1.4978064      1024000 
  432000   0.99804754   -4.5991083   -4.5991083     -3.10204  0.072774865   -4.5991083    1.4970683      1024000 
  433000   0.99669128   -4.5990116   -4.5990116   -3.1039777  0.071086744   -4.5990116    1.4950339      1024000 
  434000    0.9981763   -4.6010612   -4.6010612   -3.1037997  0.067982119   -4.6010612    1.4972615      1024000 
  435000   0.99598383   -4.6002217   -4.6002217   -3.1062489  0.064388558   -4.6002217    1.4939727      1024000 
  436000   0.99769733   -4.6014414   -4.6014414   -3.1048985  0.068609446   -4.6014414     1.496543      1024000 
  437000   0.99927229   -4.6014622   -4.6014622   -3.1025568   0.06860431   -4.6014622    1.4989054      1024000 
  438000   0.99838067   -4.6022849   -4.6022849   -3.1047169  0.064517489   -4.6022849     1.497568      1024000 
  439000   0.99594973   -4.5990288   -4.5990288   -3.1051072  0.073176703   -4.5990288    1.4939216      1024000 
  440000   0.99719754   -4.5997539   -4.5997539   -3.1039606   0.06924326   -4.5997539    1.4957933      1024000 
  441000   0.99692413   -4.5991677   -4.5991677   -3.1037845  0.064853082   -4.5991677    1.4953832      1024000 
  442000   0.99796246   -4.5997643   -4.5997643   -3.1028236  0.068599273   -4.5997643    1.4969407      1024000 
  443000   0.99525592   -4.5968008   -4.5968008   -3.1039199  0.073767303   -4.5968008    1.4928809      1024000 
  444000   0.99713247   -4.5974958   -4.5974958   -3.1018001  0.073242784   -4.5974958    1.4956957      1024000 
  445000   0.99781077   -4.5994349   -4.5994349   -3.1027217  0.072153574   -4.5994349    1.4967132      1024000 
  446000   0.99793126   -4.5986709   -4.5986709    -3.101777  0.073076113   -4.5986709    1.4968939      1024000 
  447000   0.99790163   -4.5999488   -4.5999488   -3.1030994  0.066007697   -4.5999488    1.4968494      1024000 
  448000   0.99706293   -4.5986802   -4.5986802   -3.1030888  0.071863241   -4.5986802    1.4955914      1024000 
  449000    0.9977539   -4.5996307   -4.5996307   -3.1030028  0.066214148   -4.5996307    1.4966279      1024000 
  450000   0.99825738   -4.6002436   -4.6002436   -3.1028605  0.066660753   -4.6002436    1.4973831      1024000 
  451000    0.9964228   -4.5984121   -4.5984121   -3.1037809  0.065068079   -4.5984121    1.4946312      1024000 
  452000   0.99595071   -4.5974936   -4.5974936   -3.1035705  0.063602935   -4.5974936    1.4939231      1024000 
  453000   0.99614582   -4.5982315   -4.5982315   -3.1040158  0.063062552   -4.5982315    1.4942157      1024000 
  454000   0.99747742   -4.5995862   -4.5995862   -3.1033731  0.059115361   -4.5995862    1.4962131      1024000 
  455000   0.99611216   -4.5979342   -4.5979342   -3.1037689   0.05676149   -4.5979342    1.4941652      1024000 
  456000   0.99349545   -4.5953367   -4.5953367   -3.1050965   0.06343997   -4.5953367    1.4902402      1024000 
  457000   0.99655888   -4.5962196   -4.5962196   -3.1013843  0.063060712   -4.5962196    1.4948353      1024000 
  458000   0.99662574   -4.5970319   -4.5970319   -3.1020963  0.064472246   -4.5970319    1.4949356      1024000 
  459000   0.99617883   -4.5976404   -4.5976404   -3.1033751  0.066139401   -4.5976404    1.4942653      1024000 
  460000    0.9964977   -4.5985266   -4.5985266    -3.103783  0.061134474   -4.5985266    1.4947435      1024000 
  461000   0.99732877   -4.5989576   -4.5989576   -3.1029674  0.065574837   -4.5989576    1.4959902      1024000 
  462000   0.99726348   -4.5983697   -4.5983697   -3.1024774  0.065357753   -4.5983697    1.4958922      1024000 
  463000   0.99585641   -4.5977219   -4.5977219   -3.1039403   0.06619685   -4.5977219    1.4937816      1024000 
  464000   0.99819416   -4.5998318   -4.5998318   -3.1025435   0.06719907   -4.5998318    1.4972882      1024000 
  465000    0.9954644   -4.5987055   -4.5987055   -3.1055119  0.067052385   -4.5987055    1.4931936      1024000 
  466000   0.99638108   -4.5998391   -4.5998391   -3.1052705  0.059493002   -4.5998391    1.4945686      1024000 
  467000   0.99590708   -4.5978783   -4.5978783   -3.1040207  0.069047168   -4.5978783    1.4938576      1024000 
  468000   0.99786659   -4.6002641   -4.6002641   -3.1034672  0.064174547   -4.6002641    1.4967969      1024000 
  469000   0.99512949    -4.598728    -4.598728   -3.1060367  0.062262119    -4.598728    1.4926912      1024000 
  470000   0.99713043   -4.5999262   -4.5999262   -3.1042336  0.066122374   -4.5999262    1.4956927      1024000 
  471000   0.99658291   -4.5986234   -4.5986234    -3.103752  0.070160257   -4.5986234    1.4948714      1024000 
  472000   0.99637517   -4.6001104   -4.6001104   -3.1055506  0.066209649   -4.6001104    1.4945598      1024000 
  473000   0.99718264   -4.6009095   -4.6009095   -3.1051385   0.06334384   -4.6009095     1.495771      1024000 
  474000   0.99612027   -4.5994145   -4.5994145   -3.1052371  0.074347119   -4.5994145    1.4941774      1024000 
  475000   0.99651887   -4.5989145   -4.5989145   -3.1041392  0.076979281   -4.5989145    1.4947753      1024000 
  476000   0.99635204   -4.5984222   -4.5984222   -3.1038971   0.07642705   -4.5984222    1.4945251      1024000 
  477000   0.99903645   -4.6014537   -4.6014537    -3.102902  0.075672692   -4.6014537    1.4985517      1024000 
  478000   0.99781295   -4.6017282   -4.6017282   -3.1050118    0.0707035   -4.6017282    1.4967164      1024000 
  479000   0.99766282   -4.6015708   -4.6015708   -3.1050795  0.072947462   -4.6015708    1.4964912      1024000 
  480000   0.99799986    -4.601752    -4.601752   -3.1047552  0.068090444    -4.601752    1.4969968      1024000 
  481000   0.99850332   -4.6022172   -4.6022172   -3.1044653  0.069347887   -4.6022172     1.497752      1024000 
  482000   0.99624633   -4.6008968   -4.6008968   -3.1065303  0.068586656   -4.6008968    1.4943665      1024000 
  483000   0.99704754   -4.6004442   -4.6004442   -3.1048758  0.067033781   -4.6004442    1.4955683      1024000 
  484000   0.99600944   -4.6003298   -4.6003298   -3.1063186  0.064661264   -4.6003298    1.4940112      1024000 
  485000   0.99816519   -4.6029718   -4.6029718    -3.105727  0.062775502   -4.6029718    1.4972448      1024000 
  486000   0.99453431   -4.5985179   -4.5985179   -3.1067195  0.067939399   -4.5985179    1.4917985      1024000 
  487000   0.99546323   -4.6013663   -4.6013663   -3.1081745  0.066175521   -4.6013663    1.4931919      1024000 
  488000   0.99652441    -4.600699    -4.600699   -3.1059153  0.064520331    -4.600699    1.4947836      1024000 
  489000    0.9961923   -4.6015332   -4.6015332   -3.1072478  0.071299245   -4.6015332    1.4942855      1024000 
  490000    0.9976325   -4.6019214   -4.6019214   -3.1054757  0.069444856   -4.6019214    1.4964457      1024000 
  491000   0.99575917   -4.6012097   -4.6012097   -3.1075739  0.064341908   -4.6012097    1.4936358      1024000 
  492000   0.99532207   -4.5993435   -4.5993435   -3.1063634  0.063759742   -4.5993435    1.4929801      1024000 
  493000   0.99537084    -4.598863    -4.598863   -3.1058098  0.067659882    -4.598863    1.4930533      1024000 
  494000   0.99663397    -4.598854    -4.598854   -3.1039061  0.072889714    -4.598854     1.494948      1024000 
  495000   0.99685623   -4.6008879   -4.6008879   -3.1056065  0.063683453   -4.6008879    1.4952813      1024000 
  496000   0.99640845   -4.6001749   -4.6001749   -3.1055653  0.067327406   -4.6001749    1.4946097      1024000 
  497000   0.99565945   -4.5987415   -4.5987415   -3.1052553  0.068841825   -4.5987415    1.4934862      1024000 
  498000   0.99600228   -4.5988913   -4.5988913   -3.1048909  0.066892254   -4.5988913    1.4940004      1024000 
  499000   0.99716916   -4.6004079   -4.6004079   -3.1046571   0.06632964   -4.6004079    1.4957507      1024000 
  500000   0.99514511   -4.6008222   -4.6008222   -3.1081075  0.061726969   -4.6008222    1.4927147      1024000 
  501000   0.99576728   -4.5993372   -4.5993372   -3.1056892  0.070782829   -4.5993372    1.4936479      1024000 
  502000   0.99573018   -4.6016557   -4.6016557   -3.1080634  0.063251195   -4.6016557    1.4935923      1024000 
  503000   0.99379607   -4.5993813   -4.5993813   -3.1086902    0.0715572   -4.5993813    1.4906911      1024000 
  504000   0.99639399   -4.6005086   -4.6005086   -3.1059206  0.061420145   -4.6005086     1.494588      1024000 
  505000   0.99646586   -4.6010771   -4.6010771   -3.1063813  0.056022156   -4.6010771    1.4946958      1024000 
  506000   0.99607827   -4.6006901   -4.6006901   -3.1065757  0.060354034   -4.6006901    1.4941144      1024000 
  507000    0.9962799   -4.5984315   -4.5984315   -3.1040146  0.067227852   -4.5984315    1.4944168      1024000 
  508000   0.99544829   -4.5990435   -4.5990435    -3.105874  0.062490948   -4.5990435    1.4931694      1024000 
  509000   0.99482399   -4.5978646   -4.5978646   -3.1056316  0.070686738   -4.5978646     1.492233      1024000 
  510000   0.99702658   -4.6015124   -4.6015124   -3.1059755  0.065726279   -4.6015124    1.4955369      1024000 
  511000   0.99649909   -4.6011182   -4.6011182   -3.1063726   0.06318556   -4.6011182    1.4947456      1024000 
  512000   0.99709793    -4.601111    -4.601111   -3.1054671  0.063662827    -4.601111    1.4956439      1024000 
  513000   0.99679985   -4.6001715   -4.6001715   -3.1049747  0.071448983   -4.6001715    1.4951968      1024000 
  514000    0.9963076   -4.5988482   -4.5988482   -3.1043898   0.07241284   -4.5988482    1.4944584      1024000 
  515000   0.99634485      -4.5994      -4.5994   -3.1048857  0.065203738      -4.5994    1.4945143      1024000 
  516000   0.99683305   -4.6003324   -4.6003324   -3.1050858  0.062361346   -4.6003324    1.4952466      1024000 
  517000   0.99469545   -4.5986923   -4.5986923   -3.1066521  0.066454017   -4.5986923    1.4920402      1024000 
  518000   0.99722911   -4.6006057   -4.6006057    -3.104765   0.06888843   -4.6006057    1.4958407      1024000 
  519000   0.99464916   -4.5992465   -4.5992465   -3.1072757  0.066978062   -4.5992465    1.4919707      1024000 
  520000   0.99562983   -4.6006269   -4.6006269   -3.1071851  0.066174614   -4.6006269    1.4934418      1024000 
  521000   0.99485116   -4.5997294   -4.5997294   -3.1074557  0.066461796   -4.5997294    1.4922738      1024000 
  522000   0.99650868    -4.601773    -4.601773   -3.1070129  0.063197251    -4.601773      1.49476      1024000 
  523000   0.99693947   -4.6021085   -4.6021085   -3.1067023  0.064437503   -4.6021085    1.4954062      1024000 
  524000   0.99550363   -4.5995321   -4.5995321   -3.1062796     0.074374   -4.5995321    1.4932525      1024000 
  525000   0.99595662   -4.6025188   -4.6025188   -3.1085869  0.062976776   -4.6025188    1.4939319      1024000 
  526000   0.99533179   -4.6012864   -4.6012864   -3.1082917  0.064004003   -4.6012864    1.4929947      1024000 
  527000   0.99626788     -4.60246     -4.60246   -3.1080612  0.063351331     -4.60246    1.4943988      1024000 
  528000   0.99451324   -4.5992658   -4.5992658   -3.1074989   0.07085691   -4.5992658    1.4917669      1024000 
  529000    0.9962831   -4.6020361   -4.6020361   -3.1076145  0.063319663   -4.6020361    1.4944216      1024000 
  530000   0.99597326   -4.6004224   -4.6004224   -3.1064655  0.071298294   -4.6004224    1.4939569      1024000 
  531000   0.99631745   -4.6029838   -4.6029838   -3.1085106  0.066616179   -4.6029838    1.4944732      1024000 
  532000   0.99544168    -4.601205    -4.601205   -3.1080454  0.070634418    -4.601205    1.4931595      1024000 
  533000   0.99733976   -4.6057734   -4.6057734   -3.1097668  0.063500896   -4.6057734    1.4960066      1024000 
  534000   0.99610412   -4.6043589   -4.6043589   -3.1102057  0.070753969   -4.6043589    1.4941532      1024000 
  535000   0.99754468   -4.6048746   -4.6048746   -3.1085606  0.072273661   -4.6048746     1.496314      1024000 
  536000    0.9946305   -4.6022657   -4.6022657   -3.1103229  0.074490214   -4.6022657    1.4919428      1024000 
  537000   0.99513727   -4.6019811   -4.6019811   -3.1092782  0.074644089   -4.6019811    1.4927029      1024000 
  538000   0.99429665   -4.6013636   -4.6013636   -3.1099216  0.071766274   -4.6013636     1.491442      1024000 
  539000   0.99575131    -4.602248    -4.602248   -3.1086241  0.068805816    -4.602248     1.493624      1024000 
  540000   0.99518841   -4.6022526   -4.6022526    -3.109473   0.07071433   -4.6022526    1.4927796      1024000 
  541000    0.9961838   -4.6030416   -4.6030416   -3.1087688  0.071036098   -4.6030416    1.4942727      1024000 
  542000   0.99584643   -4.6031241   -4.6031241   -3.1093574  0.074744176   -4.6031241    1.4937667      1024000 
  543000   0.99660107   -4.6046983   -4.6046983   -3.1097997   0.06991932   -4.6046983    1.4948986      1024000 
  544000   0.99829071   -4.6050039   -4.6050039   -3.1075709  0.064701557   -4.6050039    1.4974331      1024000 
  545000   0.99648009   -4.6030176   -4.6030176   -3.1083005  0.073294889   -4.6030176    1.4947171      1024000 
  546000   0.99614305   -4.6036661   -4.6036661   -3.1094545  0.072799603   -4.6036661    1.4942116      1024000 
  547000   0.99378257   -4.6005876   -4.6005876   -3.1099167  0.078768343   -4.6005876    1.4906709      1024000 
  548000   0.99691347   -4.6042775   -4.6042775   -3.1089103  0.068091094   -4.6042775    1.4953672      1024000 
  549000   0.99708197   -4.6035524   -4.6035524   -3.1079324    0.0722042   -4.6035524      1.49562      1024000 
  550000   0.99628183   -4.6015387   -4.6015387    -3.107119  0.072395166   -4.6015387    1.4944197      1024000 
  551000   0.99622535   -4.6015828   -4.6015828   -3.1072478   0.07197263   -4.6015828     1.494335      1024000 
  552000   0.99596454    -4.598798    -4.598798   -3.1048542  0.073828337    -4.598798    1.4939438      1024000 
  553000   0.99611109   -4.5999024   -4.5999024   -3.1057388  0.070346835   -4.5999024    1.4941636      1024000 
  554000   0.99497647   -4.5995646   -4.5995646   -3.1071029  0.071216824   -4.5995646    1.4924617      1024000 
  555000   0.99669965   -4.6019892   -4.6019892   -3.1069427  0.068336829   -4.6019892    1.4950465      1024000 
  556000   0.99531763   -4.6016001   -4.6016001   -3.1086267  0.068870996   -4.6016001    1.4929735      1024000 
  557000   0.99637683   -4.6020638   -4.6020638   -3.1075016  0.065813838   -4.6020638    1.4945623      1024000 
  558000   0.99518703   -4.6001725   -4.6001725   -3.1073949  0.066562326   -4.6001725    1.4927776      1024000 
  559000   0.99385914   -4.5985419   -4.5985419   -3.1077562  0.069211768   -4.5985419    1.4907857      1024000 
  560000   0.99534518   -4.5991639   -4.5991639   -3.1061491  0.070006256   -4.5991639    1.4930148      1024000 
  561000   0.99589752   -4.5994437   -4.5994437   -3.1056004  0.065984045   -4.5994437    1.4938433      1024000 
  562000   0.99517631   -4.5979898   -4.5979898   -3.1052283  0.062732151   -4.5979898    1.4927615      1024000 
  563000   0.99467098   -4.5986606   -4.5986606   -3.1066571  0.062798631   -4.5986606    1.4920035      1024000 
  564000   0.99400364   -4.5974277   -4.5974277   -3.1064253  0.061798464   -4.5974277    1.4910025      1024000 
  565000   0.99335442   -4.5981414   -4.5981414   -3.1081127  0.062015825   -4.5981414    1.4900286      1024000 
  566000    0.9939436    -4.597303    -4.597303   -3.1063906  0.069228762    -4.597303    1.4909124      1024000 
  567000   0.99615406   -4.6000346   -4.6000346   -3.1058065  0.062355491   -4.6000346    1.4942281      1024000 
  568000    0.9939076   -4.5967815   -4.5967815   -3.1059231  0.069381053   -4.5967815    1.4908584      1024000 
  569000   0.99473818   -4.5984823   -4.5984823    -3.106378  0.063580833   -4.5984823    1.4921043      1024000 
  570000   0.99398558   -4.5990013   -4.5990013   -3.1080259  0.065564073   -4.5990013    1.4909754      1024000 
  571000   0.99382302   -4.5969789   -4.5969789   -3.1062473  0.068571576   -4.5969789    1.4907315      1024000 
  572000   0.99494949   -4.5983493   -4.5983493   -3.1059281  0.070133856   -4.5983493    1.4924212      1024000 
  573000    0.9962701   -4.6007583   -4.6007583   -3.1063561   0.06186397   -4.6007583    1.4944022      1024000 
  574000   0.99560331    -4.597598    -4.597598    -3.104196  0.071783456    -4.597598     1.493402      1024000 
  575000   0.99636955   -4.6001842   -4.6001842   -3.1056328  0.068168231   -4.6001842    1.4945513      1024000 
  576000   0.99412086   -4.5994256   -4.5994256   -3.1082473   0.06976214   -4.5994256    1.4911783      1024000 
  577000   0.99611944   -4.5993442   -4.5993442    -3.105168  0.074187527   -4.5993442    1.4941762      1024000 
  578000   0.99456086   -4.5987935   -4.5987935   -3.1069552  0.071244239   -4.5987935    1.4918383      1024000 
  579000     0.995737   -4.6006709   -4.6006709   -3.1070684  0.070719714   -4.6006709    1.4936025      1024000 
  580000   0.99642309   -4.5996255   -4.5996255   -3.1049939  0.069445579   -4.5996255    1.4946316      1024000 
  581000    0.9980272   -4.6005101   -4.6005101   -3.1034723  0.070035874   -4.6005101    1.4970378      1024000 
  582000   0.99457997   -4.5984183   -4.5984183   -3.1065513  0.067562506   -4.5984183     1.491867      1024000 
  583000   0.99509489   -4.5990823   -4.5990823    -3.106443  0.072485889   -4.5990823    1.4926393      1024000 
  584000   0.99646467   -4.6015366   -4.6015366   -3.1068426  0.073461209   -4.6015366     1.494694      1024000 
  585000    0.9969426   -4.6025844   -4.6025844   -3.1071735    0.0690269   -4.6025844    1.4954109      1024000 
  586000   0.99775157     -4.60266     -4.60266   -3.1060356  0.064934666     -4.60266    1.4966243      1024000 
  587000   0.99640707   -4.6014216   -4.6014216    -3.106814  0.074616507   -4.6014216    1.4946076      1024000 
  588000   0.99643645   -4.6021698   -4.6021698   -3.1075181  0.073896657   -4.6021698    1.4946517      1024000 
  589000   0.99623952   -4.6019913   -4.6019913    -3.107635  0.068728248   -4.6019913    1.4943563      1024000 
  590000   0.99605559   -4.5990896   -4.5990896   -3.1050092   0.07157527   -4.5990896    1.4940804      1024000 
  591000   0.99555006   -4.6002061   -4.6002061    -3.106884  0.071847471   -4.6002061    1.4933221      1024000 
  592000   0.99555671   -4.5996582   -4.5996582   -3.1063261  0.068615485   -4.5996582    1.4933321      1024000 
  593000   0.99591129   -4.6014246   -4.6014246   -3.1075607   0.06834733   -4.6014246    1.4938639      1024000 
  594000   0.99419854   -4.5999889   -4.5999889   -3.1086941  0.072896312   -4.5999889    1.4912948      1024000 
  595000   0.99586106   -4.6006167   -4.6006167   -3.1068281  0.068013585   -4.6006167    1.4937886      1024000 
  596000   0.99505654   -4.6011809   -4.6011809   -3.1085991  0.066630536   -4.6011809    1.4925818      1024000 
  597000   0.99454808   -4.6012531   -4.6012531    -3.109434   0.06846135   -4.6012531    1.4918191      1024000 
  598000    0.9944987   -4.5993972   -4.5993972   -3.1076522  0.071046352   -4.5993972    1.4917451      1024000 
  599000   0.99367951   -4.6004665   -4.6004665   -3.1099503  0.066492274   -4.6004665    1.4905163      1024000 
  600000   0.99443967   -4.6005916   -4.6005916   -3.1089351  0.067616565   -4.6005916    1.4916565      1024000 
  601000   0.99481764   -4.6004992   -4.6004992   -3.1082758  0.071229342   -4.6004992    1.4922235      1024000 
  602000   0.99470957   -4.6018604   -4.6018604    -3.109799  0.066251267   -4.6018604    1.4920614      1024000 
  603000   0.99587306   -4.6020994   -4.6020994   -3.1082928  0.071316963   -4.6020994    1.4938066      1024000 
  604000   0.99583843    -4.602336    -4.602336   -3.1085813  0.066350194    -4.602336    1.4937546      1024000 
  605000      0.99473   -4.6016261   -4.6016261   -3.1095341  0.069868612   -4.6016261     1.492092      1024000 
  606000    0.9959308   -4.6026332   -4.6026332     -3.10874  0.066855903   -4.6026332    1.4938932      1024000 
  607000   0.99356963   -4.6005742   -4.6005742   -3.1102227  0.067833216   -4.6005742    1.4903515      1024000 
  608000   0.99657222   -4.6019309   -4.6019309   -3.1070755  0.064135659   -4.6019309    1.4948553      1024000 
  609000   0.99544328   -4.6034415   -4.6034415   -3.1102796  0.062003372   -4.6034415    1.4931619      1024000 
  610000   0.99426339   -4.6026313   -4.6026313   -3.1112392  0.068438013   -4.6026313    1.4913921      1024000 
  611000   0.99605281   -4.6036093   -4.6036093   -3.1095331  0.069949136   -4.6036093    1.4940762      1024000 
  612000   0.99345559   -4.6012749   -4.6012749   -3.1110945  0.074391245   -4.6012749    1.4901804      1024000 
  613000   0.99640984   -4.6038203   -4.6038203   -3.1092085  0.072498704   -4.6038203    1.4946118      1024000 
  614000   0.99600942   -4.6036282   -4.6036282   -3.1096171  0.075093364   -4.6036282    1.4940111      1024000 
  615000   0.99607094   -4.6023927   -4.6023927   -3.1082893  0.074350301   -4.6023927    1.4941034      1024000 
  616000   0.99721124    -4.603297    -4.603297   -3.1074832  0.071617631    -4.603297    1.4958139      1024000 
  617000   0.99583731   -4.6023858   -4.6023858   -3.1086328  0.071846261   -4.6023858     1.493753      1024000 
  618000   0.99602728   -4.6012886   -4.6012886   -3.1072507  0.078082966   -4.6012886    1.4940379      1024000 
  619000   0.99496495   -4.6014417   -4.6014417   -3.1089972  0.073343583   -4.6014417    1.4924444      1024000 
  620000   0.99511284   -4.6035253   -4.6035253    -3.110859  0.067567611   -4.6035253    1.4926663      1024000 
  621000   0.99667533    -4.606606    -4.606606    -3.111596  0.062929822    -4.606606      1.49501      1024000 
  622000    0.9948641    -4.602721    -4.602721   -3.1104279  0.066917394    -4.602721    1.4922932      1024000 
  623000   0.99668771   -4.6029829   -4.6029829   -3.1079544  0.072888756   -4.6029829    1.4950286      1024000 
  624000   0.99547974   -4.6039085   -4.6039085   -3.1106919  0.066904026   -4.6039085    1.4932166      1024000 
  625000   0.99394232   -4.6009469   -4.6009469   -3.1100364  0.067724439   -4.6009469    1.4909105      1024000 
  626000   0.99476673   -4.5998243   -4.5998243   -3.1076772  0.071818332   -4.5998243    1.4921471      1024000 
  627000   0.99358702   -4.5996322   -4.5996322   -3.1092547  0.073330597   -4.5996322    1.4903775      1024000 
  628000   0.99418505   -4.6010489   -4.6010489   -3.1097744  0.068213729   -4.6010489    1.4912746      1024000 
  629000   0.99464029     -4.60105     -4.60105   -3.1090926  0.067229239     -4.60105    1.4919575      1024000 
  630000   0.99496314   -4.6006524   -4.6006524   -3.1082106  0.064770586   -4.6006524    1.4924417      1024000 
  631000    0.9939863    -4.601424    -4.601424   -3.1104476  0.064900522    -4.601424    1.4909765      1024000 
  632000   0.99506132   -4.6011425   -4.6011425   -3.1085535  0.071146569   -4.6011425     1.492589      1024000 
  633000   0.99398313   -4.6005467   -4.6005467    -3.109575  0.070540549   -4.6005467    1.4909717      1024000 
  634000   0.99489465   -4.6013793   -4.6013793   -3.1090403  0.066904944   -4.6013793     1.492339      1024000 
  635000   0.99530199   -4.6007885   -4.6007885   -3.1078385  0.069353262   -4.6007885      1.49295      1024000 
  636000   0.99494429   -4.6013696   -4.6013696   -3.1089561  0.063737855   -4.6013696    1.4924135      1024000 
  637000   0.99512956   -4.6005646   -4.6005646   -3.1078733  0.063331945   -4.6005646    1.4926914      1024000 
  638000   0.99458314   -4.6004058   -4.6004058   -3.1085341  0.065538562   -4.6004058    1.4918717      1024000 
  639000   0.99533052   -4.6020212   -4.6020212   -3.1090284  0.059301558   -4.6020212    1.4929928      1024000 
  640000   0.99468549   -4.6017431   -4.6017431   -3.1097178  0.062129728   -4.6017431    1.4920253      1024000 
  641000   0.99473134   -4.6028172   -4.6028172   -3.1107232  0.064970767   -4.6028172     1.492094      1024000 
  642000   0.99421786   -4.6006584   -4.6006584   -3.1093346  0.065522846   -4.6006584    1.4913238      1024000 
  643000   0.99468415   -4.6010753   -4.6010753   -3.1090521  0.068139731   -4.6010753    1.4920232      1024000 
  644000   0.99299121   -4.6008677   -4.6008677   -3.1113838  0.066268924   -4.6008677    1.4894838      1024000 
  645000   0.99431208    -4.602416    -4.602416   -3.1109509  0.062516369    -4.602416    1.4914651      1024000 
  646000   0.99440052   -4.6020783   -4.6020783   -3.1104805  0.066359262   -4.6020783    1.4915978      1024000 
  647000   0.99343254   -4.6015161   -4.6015161   -3.1113703  0.068789467   -4.6015161    1.4901458      1024000 
  648000   0.99400595   -4.6007443   -4.6007443   -3.1097384   0.06848226   -4.6007443    1.4910059      1024000 
  649000   0.99490184   -4.6015465   -4.6015465   -3.1091968  0.072974733   -4.6015465    1.4923498      1024000 
  650000   0.99649637   -4.6020578   -4.6020578   -3.1073162  0.075662323   -4.6020578    1.4947416      1024000 
  651000   0.99696586   -4.6051313   -4.6051313   -3.1096855   0.06649175   -4.6051313    1.4954458      1024000 
  652000   0.99542901    -4.602182    -4.602182   -3.1090415  0.073653383    -4.602182    1.4931405      1024000 
  653000   0.99592392   -4.6040406   -4.6040406   -3.1101577   0.07392774   -4.6040406    1.4938829      1024000 
  654000   0.99587704   -4.6023465   -4.6023465   -3.1085339  0.073976808   -4.6023465    1.4938126      1024000 
  655000   0.99618406    -4.604358    -4.604358   -3.1100849  0.071924815    -4.604358    1.4942731      1024000 
  656000   0.99681506    -4.604768    -4.604768   -3.1095484  0.072249669    -4.604768    1.4952196      1024000 
  657000   0.99514067   -4.6024237   -4.6024237   -3.1097157  0.076782038   -4.6024237     1.492708      1024000 
  658000   0.99622091   -4.6020817   -4.6020817   -3.1077533  0.078311917   -4.6020817    1.4943284      1024000 
  659000    0.9978699   -4.6050838   -4.6050838    -3.108282  0.067368577   -4.6050838    1.4968018      1024000 
  660000   0.99712205   -4.6054899   -4.6054899   -3.1098098  0.068632779   -4.6054899    1.4956801      1024000 
  661000   0.99514754   -4.6009634   -4.6009634    -3.108245  0.074493785   -4.6009634    1.4927183      1024000 
  662000   0.99384242   -4.6006609   -4.6006609   -3.1099002  0.073312684   -4.6006609    1.4907607      1024000 
  663000   0.99498205   -4.6012041   -4.6012041    -3.108734  0.069062267   -4.6012041    1.4924701      1024000 
  664000   0.99509773   -4.6007761   -4.6007761   -3.1081325  0.070043172   -4.6007761    1.4926436      1024000 
  665000   0.99479859    -4.601512    -4.601512   -3.1093171  0.069800279    -4.601512    1.4921949      1024000 
  666000   0.99458524   -4.6017923   -4.6017923   -3.1099174  0.067949574   -4.6017923    1.4918749      1024000 
  667000   0.99419067   -4.6009527   -4.6009527   -3.1096697  0.066218357   -4.6009527     1.491283      1024000 
  668000   0.99430178   -4.5992164   -4.5992164   -3.1077667   0.06458292   -4.5992164    1.4914497      1024000 
  669000   0.99430062   -4.5991758   -4.5991758   -3.1077279  0.064459457   -4.5991758    1.4914479      1024000 
  670000   0.99524705   -4.6010569   -4.6010569   -3.1081893  0.060590188   -4.6010569    1.4928676      1024000 
  671000   0.99444609   -4.5993329   -4.5993329   -3.1076667   0.06748033   -4.5993329    1.4916661      1024000 
  672000   0.99391912   -4.5974108   -4.5974108   -3.1065351  0.067889524   -4.5974108    1.4908757      1024000 
  673000   0.99368144   -4.5976555   -4.5976555   -3.1071363  0.069288992   -4.5976555    1.4905192      1024000 
  674000   0.99252351   -4.5983891   -4.5983891   -3.1096069  0.068581613   -4.5983891    1.4887823      1024000 
  675000    0.9934343   -4.5980696   -4.5980696   -3.1079212  0.066374801   -4.5980696    1.4901485      1024000 
  676000   0.99326472   -4.5992904   -4.5992904   -3.1093963  0.068969356   -4.5992904    1.4898941      1024000 
  677000    0.9949705   -4.6003179   -4.6003179   -3.1078651  0.058641959   -4.6003179    1.4924528      1024000 
  678000   0.99416354   -4.5997474   -4.5997474   -3.1085051  0.065717257   -4.5997474    1.4912423      1024000 
  679000   0.99547399   -4.6018659   -4.6018659   -3.1086579  0.062651708   -4.6018659     1.493208      1024000 
  680000   0.99558081   -4.5989879   -4.5989879   -3.1056197  0.070220462   -4.5989879    1.4933682      1024000 
  681000   0.99508016   -4.5999585   -4.5999585   -3.1073412  0.069272818   -4.5999585    1.4926173      1024000 
  682000   0.99241371    -4.598981    -4.598981   -3.1103634  0.065004995    -4.598981    1.4886176      1024000 
  683000   0.99358223   -4.5988637   -4.5988637   -3.1084934  0.068366399   -4.5988637    1.4903704      1024000 
  684000   0.99444749   -4.6003691   -4.6003691   -3.1087009  0.067384962   -4.6003691    1.4916683      1024000 
  685000   0.99521793   -4.6001489   -4.6001489    -3.107325  0.068538135   -4.6001489    1.4928239      1024000 
  686000   0.99672818   -4.6021722   -4.6021722    -3.107083  0.067265682   -4.6021722    1.4950893      1024000 
  687000   0.99660292   -4.6022582   -4.6022582   -3.1073568  0.067752926   -4.6022582    1.4949014      1024000 
  688000   0.99739179   -4.6028638   -4.6028638   -3.1067791  0.073980746   -4.6028638    1.4960847      1024000 
  689000   0.99682438   -4.6009552   -4.6009552   -3.1057217   0.07760191   -4.6009552    1.4952336      1024000 
  690000   0.99501286   -4.6006037   -4.6006037   -3.1080874  0.072074943   -4.6006037    1.4925163      1024000 
  691000   0.99770744    -4.603027    -4.603027   -3.1064689  0.075465429    -4.603027    1.4965582      1024000 
  692000   0.99665908   -4.6019818   -4.6019818   -3.1069962  0.075299359   -4.6019818    1.4949856      1024000 
  693000   0.99675168   -4.6012819   -4.6012819   -3.1061574  0.071489767   -4.6012819    1.4951245      1024000 
  694000   0.99643922   -4.6010891   -4.6010891   -3.1064332   0.07464453   -4.6010891    1.4946558      1024000 
  695000   0.99474109   -4.6006153   -4.6006153   -3.1085066  0.078101074   -4.6006153    1.4921086      1024000 
  696000   0.99520102   -4.6010619   -4.6010619   -3.1082634  0.071943324   -4.6010619    1.4927985      1024000 
  697000   0.99686583   -4.6013298   -4.6013298   -3.1060341  0.071956814   -4.6013298    1.4952957      1024000 
  698000   0.99506049   -4.5991326   -4.5991326   -3.1065449  0.074777702   -4.5991326    1.4925877      1024000 
  699000   0.99598864    -4.599718    -4.599718    -3.105738  0.073259605    -4.599718      1.49398      1024000 
  700000   0.99716572   -4.6012642   -4.6012642   -3.1055186  0.068180575   -4.6012642    1.4957456      1024000 
  701000   0.99672359   -4.6004278   -4.6004278   -3.1053454  0.074599704   -4.6004278    1.4950824      1024000 
  702000     0.994242   -4.5966148   -4.5966148   -3.1052548  0.069129858   -4.5966148      1.49136      1024000 
  703000   0.99589536   -4.5994805   -4.5994805   -3.1056404  0.066608449   -4.5994805      1.49384      1024000 
  704000   0.99479779   -4.5982069   -4.5982069   -3.1060132  0.068020401   -4.5982069    1.4921937      1024000 
  705000    0.9948361   -4.5978705   -4.5978705   -3.1056194  0.067324222   -4.5978705    1.4922512      1024000 
  706000   0.99499906   -4.5976934   -4.5976934   -3.1051978  0.067291175   -4.5976934    1.4924956      1024000 
  707000   0.99372518   -4.5972614   -4.5972614   -3.1066766  0.068927898   -4.5972614    1.4905848      1024000 
  708000   0.99263404   -4.5979399   -4.5979399   -3.1089918  0.063797367   -4.5979399    1.4889481      1024000 
  709000   0.99309919   -4.5970132   -4.5970132   -3.1073674  0.062288965   -4.5970132    1.4896458      1024000 
  710000   0.99208841   -4.5954159   -4.5954159   -3.1072862   0.06013088   -4.5954159    1.4881296      1024000 
  711000    0.9931231   -4.5968558   -4.5968558   -3.1071741   0.05680537   -4.5968558    1.4896817      1024000 
  712000   0.99189544   -4.5950616   -4.5950616   -3.1072215  0.064454805   -4.5950616    1.4878402      1024000 
  713000   0.99286518   -4.5963743   -4.5963743   -3.1070795  0.059790153   -4.5963743    1.4892948      1024000 
  714000   0.99432593   -4.5977335   -4.5977335   -3.1062476  0.059509202   -4.5977335    1.4914859      1024000 
  715000   0.99400328   -4.5973295   -4.5973295   -3.1063275  0.068174031   -4.5973295    1.4910019      1024000 
  716000   0.99470095   -4.5979938   -4.5979938   -3.1059453    0.0656297   -4.5979938    1.4920484      1024000 
  717000   0.99469317   -4.5981882   -4.5981882   -3.1061515  0.064371799   -4.5981882    1.4920368      1024000 
  718000   0.99469315   -4.5992953   -4.5992953   -3.1072586  0.065009794   -4.5992953    1.4920367      1024000 
  719000   0.99510287   -4.5997281   -4.5997281   -3.1070768  0.062260064   -4.5997281    1.4926513      1024000 
  720000   0.99420389   -4.5993948   -4.5993948   -3.1080919  0.062778798   -4.5993948    1.4913029      1024000 
  721000   0.99448993   -4.5993369   -4.5993369    -3.107605    0.0694441   -4.5993369    1.4917319      1024000 
  722000   0.99491006   -4.5994067   -4.5994067   -3.1070446  0.072395616   -4.5994067    1.4923621      1024000 
  723000   0.99564589    -4.599838    -4.599838   -3.1063721  0.071095348    -4.599838    1.4934658      1024000 
  724000   0.99557277   -4.5992253   -4.5992253   -3.1058691  0.072212674   -4.5992253    1.4933562      1024000 
  725000    0.9956158   -4.6016879   -4.6016879   -3.1082672  0.070320343   -4.6016879    1.4934207      1024000 
  726000   0.99613158   -4.6021009   -4.6021009   -3.1079066  0.069940324   -4.6021009    1.4941944      1024000 
  727000   0.99679596   -4.6029931   -4.6029931   -3.1078021  0.068061284   -4.6029931    1.4951909      1024000 
  728000   0.99465351   -4.6018518   -4.6018518   -3.1098745  0.068115609   -4.6018518    1.4919773      1024000 
  729000   0.99537051   -4.6026628   -4.6026628     -3.10961  0.067020398   -4.6026628    1.4930528      1024000 
  730000   0.99497949   -4.6016617   -4.6016617   -3.1091954  0.072525718   -4.6016617    1.4924662      1024000 
  731000   0.99642116   -4.6034669   -4.6034669   -3.1088381  0.072010986   -4.6034669    1.4946288      1024000 
  732000   0.99542027   -4.6034336   -4.6034336   -3.1103061   0.07200919   -4.6034336    1.4931274      1024000 
  733000   0.99576731    -4.603227    -4.603227    -3.109579  0.071842458    -4.603227     1.493648      1024000 
  734000   0.99268465   -4.5986247   -4.5986247   -3.1096007  0.077203666   -4.5986247     1.489024      1024000 
  735000   0.99441897   -4.6031603   -4.6031603   -3.1115348   0.07110225   -4.6031603    1.4916255      1024000 
  736000    0.9958966   -4.6024276   -4.6024276   -3.1085857  0.071599209   -4.6024276    1.4938419      1024000 
  737000   0.99645733   -4.6021714   -4.6021714   -3.1074884  0.070991951   -4.6021714     1.494683      1024000 
  738000   0.99488485   -4.6027906   -4.6027906   -3.1104663  0.071575912   -4.6027906    1.4923243      1024000 
  739000   0.99481623   -4.6026048   -4.6026048   -3.1103834  0.068355949   -4.6026048    1.4922214      1024000 
  740000   0.99614911   -4.6044204   -4.6044204   -3.1101998  0.067950962   -4.6044204    1.4942207      1024000 
  741000   0.99533865   -4.6005642   -4.6005642   -3.1075592  0.075211397   -4.6005642     1.493005      1024000 
  742000    0.9947624   -4.5995118   -4.5995118   -3.1073712  0.074921921   -4.5995118    1.4921406      1024000 
  743000   0.99494052    -4.601228    -4.601228   -3.1088202  0.067597879    -4.601228    1.4924078      1024000 
  744000   0.99488321   -4.6000601   -4.6000601   -3.1077383  0.074660436   -4.6000601    1.4923218      1024000 
  745000   0.99583815    -4.601163    -4.601163   -3.1074087  0.073407721    -4.601163    1.4937542      1024000 
  746000   0.99556247   -4.6018169   -4.6018169   -3.1084762  0.071423249   -4.6018169    1.4933407      1024000 
  747000   0.99505264   -4.6005456   -4.6005456   -3.1079696  0.068418449   -4.6005456     1.492576      1024000 
  748000   0.99361664   -4.5972559   -4.5972559    -3.106834  0.078263339   -4.5972559     1.490422      1024000 
  749000   0.99442367   -4.6001325   -4.6001325      -3.1085  0.072987697   -4.6001325    1.4916325      1024000 
  750000   0.99524511    -4.600199    -4.600199   -3.1073343   0.06182143    -4.600199    1.4928647      1024000 
  751000   0.99610436   -4.6005374   -4.6005374   -3.1063839  0.064891187   -4.6005374    1.4941536      1024000 
  752000   0.99394307   -4.5982745   -4.5982745   -3.1073628  0.068909678   -4.5982745    1.4909116      1024000 
  753000   0.99460828   -4.5981447   -4.5981447   -3.1062353  0.071298937   -4.5981447    1.4919094      1024000 
  754000   0.99287038   -4.5989504   -4.5989504   -3.1096479  0.066652272   -4.5989504    1.4893026      1024000 
  755000   0.99430301    -4.597274    -4.597274   -3.1058224  0.065441244    -4.597274    1.4914515      1024000 
  756000   0.99358755   -4.5974605   -4.5974605   -3.1070821  0.068269258   -4.5974605    1.4903783      1024000 
  757000   0.99442995   -4.5980009   -4.5980009   -3.1063589  0.067993822   -4.5980009    1.4916419      1024000 
  758000   0.99309898   -4.5958222   -4.5958222   -3.1061767  0.072363101   -4.5958222    1.4896455      1024000 
  759000   0.99516005   -4.5978476   -4.5978476   -3.1051105  0.063710617   -4.5978476    1.4927371      1024000 
  760000   0.99408989   -4.5976351   -4.5976351   -3.1065033  0.062342224   -4.5976351    1.4911318      1024000 
  761000    0.9953536    -4.597899    -4.597899   -3.1048716  0.068002867    -4.597899    1.4930274      1024000 
  762000   0.99502077   -4.5981983   -4.5981983   -3.1056702  0.065540746   -4.5981983    1.4925282      1024000 
  763000   0.99347407    -4.595947    -4.595947   -3.1057389   0.06981029    -4.595947    1.4902081      1024000 
  764000   0.99467402   -4.5984402   -4.5984402   -3.1064321  0.067763452   -4.5984402     1.492008      1024000 
  765000   0.99339349   -4.5966406   -4.5966406   -3.1065534  0.066049278   -4.5966406    1.4900873      1024000 
  766000   0.99287956   -4.5964088   -4.5964088   -3.1070925  0.074861088   -4.5964088    1.4893164      1024000 
  767000   0.99359354   -4.5977379   -4.5977379   -3.1073506  0.066131191   -4.5977379    1.4903873      1024000 
  768000   0.99377147   -4.5987588   -4.5987588   -3.1081046  0.060993886   -4.5987588    1.4906542      1024000 
  769000   0.99577259   -4.6013634   -4.6013634   -3.1077075  0.062955231   -4.6013634    1.4936559      1024000 
  770000    0.9927668   -4.5982649   -4.5982649   -3.1091177  0.066707098   -4.5982649    1.4891472      1024000 
  771000   0.99456498   -4.5991477   -4.5991477   -3.1073033  0.070567238   -4.5991477    1.4918445      1024000 
  772000   0.99561932   -4.6007529   -4.6007529   -3.1073269  0.073399137   -4.6007529     1.493426      1024000 
  773000   0.99455591   -4.6010309   -4.6010309      -3.1092  0.076896553   -4.6010309    1.4918309      1024000 
  774000   0.99550543   -4.6019892   -4.6019892   -3.1087341  0.073727476   -4.6019892    1.4932552      1024000 
  775000   0.99431498   -4.6002444   -4.6002444   -3.1087749  0.073484425   -4.6002444    1.4914695      1024000 
  776000   0.99601137    -4.601966    -4.601966   -3.1079519   0.07311783    -4.601966    1.4940141      1024000 
  777000    0.9962659   -4.6016477   -4.6016477   -3.1072518  0.079553332   -4.6016477    1.4943959      1024000 
  778000   0.99524936   -4.6020986   -4.6020986   -3.1092276  0.074266625   -4.6020986     1.492871      1024000 
  779000   0.99641311   -4.6016303   -4.6016303   -3.1070136  0.075059757   -4.6016303    1.4946167      1024000 
  780000   0.99603923   -4.6032796   -4.6032796   -3.1092238  0.071714476   -4.6032796    1.4940559      1024000 
  781000   0.99738684   -4.6057326   -4.6057326   -3.1096553  0.069145852   -4.6057326    1.4960773      1024000 
  782000   0.99677259   -4.6044623   -4.6044623   -3.1093065  0.076472324   -4.6044623    1.4951559      1024000 
  783000   0.99672765    -4.602783    -4.602783   -3.1076945  0.079858756    -4.602783    1.4950885      1024000 
  784000    0.9969804    -4.603385    -4.603385   -3.1079173  0.079269359    -4.603385    1.4954676      1024000 
  785000   0.99834304   -4.6047699   -4.6047699   -3.1072583  0.072555956   -4.6047699    1.4975116      1024000 
  786000   0.99638419   -4.6036709   -4.6036709   -3.1090976  0.075607064   -4.6036709    1.4945733      1024000 
  787000   0.99728031   -4.6036086   -4.6036086   -3.1076911  0.072420356   -4.6036086    1.4959175      1024000 
  788000   0.99669005   -4.6023316   -4.6023316   -3.1072995  0.070432887   -4.6023316    1.4950321      1024000 
  789000   0.99528461   -4.5998174   -4.5998174   -3.1068935  0.078304506   -4.5998174    1.4929239      1024000 
  790000   0.99656302   -4.6015422   -4.6015422   -3.1067007  0.070650209   -4.6015422    1.4948415      1024000 
  791000   0.99683574   -4.6022974   -4.6022974   -3.1070468  0.068582097   -4.6022974    1.4952506      1024000 
  792000   0.99491029   -4.6001138   -4.6001138   -3.1077514  0.068532016   -4.6001138    1.4923624      1024000 
  793000   0.99445816   -4.6011659   -4.6011659   -3.1094817  0.069112442   -4.6011659    1.4916843      1024000 
  794000   0.99463976   -4.6001823   -4.6001823   -3.1082257  0.063068182   -4.6001823    1.4919566      1024000 
  795000   0.99483521   -4.5984512   -4.5984512   -3.1062014  0.072468163   -4.5984512    1.4922498      1024000 
  796000   0.99468035   -4.5981064   -4.5981064   -3.1060888    0.0723721   -4.5981064    1.4920175      1024000 
  797000   0.99342002   -4.5972016   -4.5972016   -3.1070746  0.075799146   -4.5972016    1.4901271      1024000 
  798000   0.99375556   -4.5969663   -4.5969663    -3.106336  0.070298841   -4.5969663    1.4906304      1024000 
  799000   0.99511479   -4.5983813   -4.5983813   -3.1057121  0.067054087   -4.5983813    1.4926692      1024000 
  800000     0.993699    -4.597022    -4.597022   -3.1064765  0.066065964    -4.597022    1.4905455      1024000 
  801000   0.99290733   -4.5969443   -4.5969443   -3.1075863  0.062277479   -4.5969443     1.489358      1024000 
  802000   0.99209716   -4.5948621   -4.5948621   -3.1067194  0.066356182   -4.5948621    1.4881428      1024000 
  803000   0.99273236   -4.5961788   -4.5961788   -3.1070832  0.062025178   -4.5961788    1.4890956      1024000 
  804000   0.99340149    -4.594657    -4.594657   -3.1045578   0.06845111    -4.594657    1.4900993      1024000 
  805000   0.99210719   -4.5962415   -4.5962415   -3.1080837  0.067632819   -4.5962415    1.4881578      1024000 
  806000   0.99418037   -4.5973093   -4.5973093   -3.1060417  0.066093675   -4.5973093    1.4912676      1024000 
  807000   0.99314066   -4.5963592   -4.5963592   -3.1066512  0.067085493   -4.5963592     1.489708      1024000 
  808000   0.99559214   -4.5999224   -4.5999224   -3.1065372  0.063831982   -4.5999224    1.4933852      1024000 
  809000   0.99565192   -4.5979511   -4.5979511   -3.1044762  0.071524708   -4.5979511    1.4934749      1024000 
  810000   0.99442876   -4.5970195   -4.5970195   -3.1053793  0.073424151   -4.5970195    1.4916402      1024000 
  811000   0.99566041   -4.5971283   -4.5971283   -3.1036407  0.070505786   -4.5971283    1.4934876      1024000 
  812000   0.99575009   -4.5977697   -4.5977697   -3.1041476  0.067368061   -4.5977697    1.4936221      1024000 
  813000   0.99663892   -4.5994031   -4.5994031   -3.1044477  0.069881273   -4.5994031    1.4949554      1024000 
  814000   0.99561363   -4.5975183   -4.5975183   -3.1041009  0.071247151   -4.5975183    1.4934174      1024000 
  815000   0.99490493   -4.5966936   -4.5966936   -3.1043392  0.073950559   -4.5966936    1.4923544      1024000 
  816000   0.99636505   -4.5982483   -4.5982483   -3.1037037   0.07273607   -4.5982483    1.4945446      1024000 
  817000   0.99664772   -4.5990973   -4.5990973   -3.1041287  0.070295195   -4.5990973    1.4949686      1024000 
  818000   0.99631406   -4.5983174   -4.5983174   -3.1038493  0.069760329   -4.5983174    1.4944681      1024000 
  819000   0.99614944   -4.6001221   -4.6001221   -3.1059009   0.06578184   -4.6001221    1.4942212      1024000 
  820000   0.99544349   -4.5979015   -4.5979015   -3.1047393  0.069986808   -4.5979015    1.4931622      1024000 
  821000   0.99525789   -4.5995892   -4.5995892   -3.1067053  0.066689249   -4.5995892    1.4928838      1024000 
  822000   0.99636598   -4.5994958   -4.5994958   -3.1049498  0.065568847   -4.5994958     1.494546      1024000 
  823000   0.99417211   -4.5982225   -4.5982225   -3.1069673  0.070577974   -4.5982225    1.4912552      1024000 
  824000   0.99400372    -4.597043    -4.597043   -3.1060404  0.069196339    -4.597043    1.4910026      1024000 
  825000   0.99461248   -4.5969409   -4.5969409   -3.1050252   0.07403702   -4.5969409    1.4919157      1024000 
  826000   0.99503857   -4.5970709   -4.5970709    -3.104516  0.072400006   -4.5970709    1.4925549      1024000 
  827000    0.9975013   -4.6005074   -4.6005074   -3.1042584  0.069966843   -4.6005074     1.496249      1024000 
  828000    0.9942703   -4.5953253   -4.5953253   -3.1039229  0.076465122   -4.5953253    1.4914025      1024000 
  829000   0.99563425   -4.5975207   -4.5975207   -3.1040723  0.071062661   -4.5975207    1.4934484      1024000 
  830000   0.99480844   -4.5970913   -4.5970913   -3.1048816  0.070383151   -4.5970913    1.4922097      1024000 
  831000   0.99476957   -4.5964156   -4.5964156   -3.1042642  0.071459905   -4.5964156    1.4921514      1024000 
  832000   0.99451708   -4.5966717   -4.5966717   -3.1048991  0.069016014   -4.5966717    1.4917726      1024000 
  833000   0.99736007   -4.5985879   -4.5985879   -3.1025508  0.070381939   -4.5985879    1.4960371      1024000 
  834000   0.99597984   -4.5968805   -4.5968805   -3.1029138  0.072006146   -4.5968805    1.4939668      1024000 
  835000   0.99415672   -4.5940474   -4.5940474   -3.1028153  0.077479711   -4.5940474    1.4912321      1024000 
  836000   0.99550672   -4.5962129   -4.5962129   -3.1029558  0.067880279   -4.5962129    1.4932571      1024000 
  837000    0.9941987   -4.5955958   -4.5955958   -3.1043007  0.066651682   -4.5955958    1.4912951      1024000 
  838000   0.99437062   -4.5954064   -4.5954064   -3.1038535  0.064752491   -4.5954064    1.4915529      1024000 
  839000   0.99447018   -4.5957628   -4.5957628   -3.1040605  0.063189842   -4.5957628    1.4917023      1024000 
  840000   0.99453317   -4.5945255   -4.5945255   -3.1027287  0.067474201   -4.5945255    1.4917968      1024000 
  841000   0.99511423   -4.5962963   -4.5962963    -3.103628  0.066628138   -4.5962963    1.4926684      1024000 
  842000   0.99499368   -4.5962986   -4.5962986   -3.1038111  0.069448996   -4.5962986    1.4924875      1024000 
  843000   0.99420716   -4.5961395   -4.5961395   -3.1048317  0.067768944   -4.5961395    1.4913078      1024000 
  844000   0.99496708   -4.5968677   -4.5968677   -3.1044201  0.064034129   -4.5968677    1.4924476      1024000 
  845000   0.99544395   -4.5971457   -4.5971457   -3.1039828  0.064295146   -4.5971457    1.4931629      1024000 
  846000    0.9958315   -4.5955795   -4.5955795   -3.1018353  0.068882251   -4.5955795    1.4937443      1024000 
  847000   0.99525964   -4.5955724   -4.5955724   -3.1026859  0.068880235   -4.5955724    1.4928865      1024000 
  848000   0.99588264   -4.5973119   -4.5973119   -3.1034909  0.063739248   -4.5973119     1.493821      1024000 
  849000   0.99503187   -4.5979465   -4.5979465   -3.1054017  0.063756852   -4.5979465    1.4925448      1024000 
  850000   0.99510863   -4.5973396   -4.5973396   -3.1046796   0.06786698   -4.5973396    1.4926599      1024000 
  851000   0.99511852    -4.596485    -4.596485   -3.1038103  0.063978982    -4.596485    1.4926748      1024000 
  852000   0.99525528   -4.5975632   -4.5975632   -3.1046833  0.065142325   -4.5975632    1.4928799      1024000 
  853000   0.99468285   -4.5970726   -4.5970726   -3.1050513  0.069172111   -4.5970726    1.4920213      1024000 
  854000   0.99472433   -4.5968075   -4.5968075    -3.104724  0.063686459   -4.5968075    1.4920835      1024000 
  855000   0.99560143   -4.5971305   -4.5971305   -3.1037314  0.067357562   -4.5971305    1.4933992      1024000 
  856000     0.996242   -4.5993393   -4.5993393   -3.1049793  0.060822094   -4.5993393      1.49436      1024000 
  857000   0.99677168   -4.5985126   -4.5985126   -3.1033581    0.0682403   -4.5985126    1.4951545      1024000 
  858000   0.99507657   -4.5989895   -4.5989895   -3.1063777  0.066621014   -4.5989895    1.4926119      1024000 
  859000   0.99647074   -4.5985822   -4.5985822   -3.1038791  0.071675201   -4.5985822    1.4947031      1024000 
  860000   0.99646194   -4.5984151   -4.5984151   -3.1037251  0.073974414   -4.5984151    1.4946899      1024000 
  861000   0.99658944   -4.5983496   -4.5983496   -3.1034684  0.076106905   -4.5983496    1.4948812      1024000 
  862000   0.99590134    -4.598551    -4.598551    -3.104702  0.071665446    -4.598551     1.493849      1024000 
  863000    0.9955923   -4.5983225   -4.5983225   -3.1049371  0.072250599   -4.5983225    1.4933855      1024000 
  864000    0.9960052   -4.5991191   -4.5991191   -3.1051143   0.06698441   -4.5991191    1.4940048      1024000 
  865000   0.99614434   -4.5988681   -4.5988681   -3.1046546  0.070092426   -4.5988681    1.4942135      1024000 
  866000   0.99616155   -4.5979526   -4.5979526   -3.1037133  0.069516211   -4.5979526    1.4942393      1024000 
  867000   0.99460353   -4.5963175   -4.5963175   -3.1044152  0.076863537   -4.5963175    1.4919023      1024000 
  868000   0.99502358   -4.5985824   -4.5985824     -3.10605  0.069208922   -4.5985824    1.4925324      1024000 
  869000   0.99438941   -4.5969911   -4.5969911     -3.10541  0.072569094   -4.5969911    1.4915811      1024000 
  870000   0.99616162   -4.6002597   -4.6002597   -3.1060203  0.063286794   -4.6002597    1.4942394      1024000 
  871000   0.99602361   -4.5980209   -4.5980209   -3.1039885  0.073295908   -4.5980209    1.4940324      1024000 
  872000   0.99544109   -4.5989393   -4.5989393   -3.1057806  0.071922565   -4.5989393    1.4931586      1024000 
  873000   0.99459656    -4.598322    -4.598322   -3.1064302  0.071791088    -4.598322    1.4918919      1024000 
  874000   0.99618409   -4.5983044   -4.5983044   -3.1040313  0.072848537   -4.5983044    1.4942731      1024000 
  875000    0.9951243   -4.5974008   -4.5974008   -3.1047173  0.073351234   -4.5974008    1.4926835      1024000 
  876000   0.99579601   -4.5980457   -4.5980457   -3.1043547  0.068494115   -4.5980457     1.493691      1024000 
  877000   0.99558249   -4.5986251   -4.5986251   -3.1052544  0.066896996   -4.5986251    1.4933707      1024000 
  878000   0.99642709   -4.5987479   -4.5987479   -3.1041102  0.069986938   -4.5987479    1.4946376      1024000 
  879000   0.99514111   -4.6003474   -4.6003474   -3.1076387   0.06125513   -4.6003474    1.4927087      1024000 
  880000   0.99648074   -4.5981133   -4.5981133   -3.1033952  0.068756191   -4.5981133    1.4947181      1024000 
  881000   0.99584802   -4.5968483   -4.5968483   -3.1030792  0.074033885   -4.5968483     1.493769      1024000 
  882000   0.99594735   -4.5967006   -4.5967006   -3.1027825  0.073077719   -4.5967006     1.493918      1024000 
  883000   0.99485989   -4.5965179   -4.5965179   -3.1042311  0.070106081   -4.5965179    1.4922868      1024000 
  884000   0.99585708   -4.5962597   -4.5962597   -3.1024771  0.070872012   -4.5962597    1.4937826      1024000 
  885000   0.99638837   -4.5969716   -4.5969716    -3.102392  0.069221603   -4.5969716    1.4945796      1024000 
  886000   0.99530522   -4.5968702   -4.5968702   -3.1039153   0.06939852   -4.5968702    1.4929548      1024000 
  887000   0.99483328   -4.5981531   -4.5981531   -3.1059061  0.065981798   -4.5981531    1.4922469      1024000 
  888000   0.99482921   -4.5961457   -4.5961457   -3.1039049  0.074111237   -4.5961457    1.4922408      1024000 
  889000   0.99469009   -4.5954949   -4.5954949   -3.1034627  0.073252044   -4.5954949    1.4920321      1024000 
  890000   0.99458447   -4.5968506   -4.5968506   -3.1049768  0.067698996   -4.5968506    1.4918737      1024000 
  891000   0.99524855   -4.5952639   -4.5952639   -3.1023941  0.068726582   -4.5952639    1.4928698      1024000 
  892000   0.99406137   -4.5948173   -4.5948173   -3.1037282  0.072889728   -4.5948173    1.4910891      1024000 
  893000   0.99426411   -4.5953673   -4.5953673   -3.1039741  0.073395871   -4.5953673    1.4913932      1024000 
  894000   0.99585367   -4.5984104   -4.5984104   -3.1046329  0.064102916   -4.5984104    1.4937775      1024000 
  895000   0.99572039    -4.596557    -4.596557   -3.1029794   0.07007625    -4.596557    1.4935776      1024000 
  896000   0.99486155   -4.5974849   -4.5974849   -3.1051956  0.071017198   -4.5974849    1.4922893      1024000 
  897000   0.99517223   -4.5971895   -4.5971895   -3.1044341  0.071900015   -4.5971895    1.4927554      1024000 
  898000    0.9954011   -4.5975452   -4.5975452   -3.1044466  0.072395822   -4.5975452    1.4930987      1024000 
  899000   0.99631678    -4.597989    -4.597989   -3.1035168  0.069345977    -4.597989    1.4944722      1024000 
  900000   0.99452329   -4.5947159   -4.5947159   -3.1029339   0.07557144   -4.5947159     1.491782      1024000 
  901000     0.995704   -4.5958112   -4.5958112   -3.1022582  0.071836201   -4.5958112     1.493553      1024000 
  902000   0.99607284   -4.5968323   -4.5968323   -3.1027261   0.07176684   -4.5968323    1.4941063      1024000 
  903000   0.99512651   -4.5975596   -4.5975596   -3.1048729  0.069450387   -4.5975596    1.4926868      1024000 
  904000   0.99418666   -4.5968051   -4.5968051   -3.1055281  0.065360456   -4.5968051     1.491277      1024000 
  905000   0.99588508   -4.5972749   -4.5972749   -3.1034503  0.065275753   -4.5972749    1.4938246      1024000 
  906000   0.99552188   -4.5973484   -4.5973484   -3.1040686  0.068721154   -4.5973484    1.4932798      1024000 
  907000   0.99398573   -4.5960015   -4.5960015   -3.1050259  0.071136976   -4.5960015    1.4909756      1024000 
  908000   0.99375672   -4.5974155   -4.5974155   -3.1067834  0.065527193   -4.5974155    1.4906321      1024000 
  909000    0.9941518   -4.5962905   -4.5962905   -3.1050658  0.070355038   -4.5962905    1.4912247      1024000 
  910000   0.99545216   -4.5980443   -4.5980443    -3.104869   0.07257019   -4.5980443    1.4931753      1024000 
  911000   0.99348686   -4.5951591   -4.5951591   -3.1049318  0.075585179   -4.5951591    1.4902273      1024000 
  912000   0.99469096   -4.5963534   -4.5963534   -3.1043199  0.075590778   -4.5963534    1.4920335      1024000 
  913000   0.99571029   -4.5993521   -4.5993521   -3.1057896  0.066905194   -4.5993521    1.4935624      1024000 
  914000   0.99623134   -4.5982198   -4.5982198   -3.1038758  0.068449561   -4.5982198     1.494344      1024000 
  915000   0.99566876   -4.5987767   -4.5987767   -3.1052765  0.068927794   -4.5987767    1.4935002      1024000 
  916000   0.99499024   -4.5995391   -4.5995391   -3.1070568  0.068436735   -4.5995391    1.4924824      1024000 
  917000   0.99640146    -4.597852    -4.597852   -3.1032528  0.075188687    -4.597852    1.4945992      1024000 
  918000   0.99717879   -4.5984187   -4.5984187   -3.1026535  0.075433253   -4.5984187    1.4957652      1024000 
  919000   0.99795205   -4.5999851   -4.5999851   -3.1030601  0.070898994   -4.5999851    1.4969251      1024000 
  920000   0.99655921   -4.5995383   -4.5995383   -3.1047025  0.074534413   -4.5995383    1.4948358      1024000 
  921000   0.99638273   -4.5980277   -4.5980277   -3.1034567  0.071656293   -4.5980277    1.4945711      1024000 
  922000   0.99636682   -4.5989458   -4.5989458   -3.1043986  0.072129103   -4.5989458    1.4945472      1024000 
  923000   0.99590427   -4.5997008   -4.5997008   -3.1058474    0.0719603   -4.5997008    1.4938534      1024000 
  924000   0.99637137   -4.6002907   -4.6002907   -3.1057366  0.072027355   -4.6002907    1.4945541      1024000 
  925000   0.99533807   -4.5998167   -4.5998167   -3.1068126  0.068081928   -4.5998167    1.4930041      1024000 
  926000   0.99626661    -4.600522    -4.600522   -3.1061251  0.067460189    -4.600522    1.4943969      1024000 
  927000   0.99652886   -4.5990869   -4.5990869   -3.1042966  0.071739302   -4.5990869    1.4947903      1024000 
  928000   0.99526597   -4.5981414   -4.5981414   -3.1052454  0.073797781   -4.5981414     1.492896      1024000 
  929000    0.9950868   -4.5989257   -4.5989257   -3.1062985  0.070672651   -4.5989257    1.4926272      1024000 
  930000   0.99579627    -4.597648    -4.597648   -3.1039566   0.07224924    -4.597648    1.4936914      1024000 
  931000   0.99471406   -4.5973597   -4.5973597   -3.1052916  0.073431433   -4.5973597    1.4920681      1024000 
  932000   0.99497808   -4.5986374   -4.5986374   -3.1061732  0.070372937   -4.5986374    1.4924641      1024000 
  933000   0.99612647   -4.6002102   -4.6002102   -3.1060235  0.068089627   -4.6002102    1.4941867      1024000 
  934000   0.99536721   -4.6001032   -4.6001032   -3.1070554  0.062737212   -4.6001032    1.4930478      1024000 
  935000   0.99569047   -4.5962389   -4.5962389   -3.1027062  0.069805793   -4.5962389    1.4935327      1024000 
  936000   0.99519704    -4.598044    -4.598044   -3.1052515  0.068324041    -4.598044    1.4927926      1024000 
  937000   0.99475689   -4.5971833   -4.5971833   -3.1050509  0.066046368   -4.5971833    1.4921324      1024000 
  938000   0.99525771   -4.5975161   -4.5975161   -3.1046325  0.064182091   -4.5975161    1.4928836      1024000 
  939000   0.99510491   -4.5972852   -4.5972852   -3.1046308  0.069055732   -4.5972852    1.4926544      1024000 
  940000   0.99433504    -4.596952    -4.596952   -3.1054525  0.071352401    -4.596952    1.4914996      1024000 
  941000   0.99551059   -4.5981857   -4.5981857   -3.1049228  0.065121741   -4.5981857    1.4932629      1024000 
  942000   0.99459931   -4.5979101   -4.5979101   -3.1060141  0.061989474   -4.5979101     1.491896      1024000 
  943000   0.99487038   -4.5964859   -4.5964859   -3.1041833   0.07065052   -4.5964859    1.4923026      1024000 
  944000   0.99489214   -4.5972991   -4.5972991   -3.1049639   0.06710046   -4.5972991    1.4923352      1024000 
  945000   0.99436924   -4.5958754   -4.5958754   -3.1043246  0.069901473   -4.5958754    1.4915509      1024000 
  946000   0.99520823   -4.5972296   -4.5972296   -3.1044203  0.065011105   -4.5972296    1.4928094      1024000 
  947000   0.99499519   -4.5949132   -4.5949132   -3.1024234  0.069260022   -4.5949132    1.4924898      1024000 
  948000   0.99665248   -4.5980182   -4.5980182   -3.1030424  0.066189832   -4.5980182    1.4949757      1024000 
  949000   0.99329032   -4.5944816   -4.5944816   -3.1045491  0.067721104   -4.5944816    1.4899325      1024000 
  950000   0.99388379   -4.5957354   -4.5957354   -3.1049127  0.068636955   -4.5957354    1.4908227      1024000 
  951000   0.99632826   -4.5979571   -4.5979571   -3.1034677  0.063992746   -4.5979571    1.4944894      1024000 
  952000   0.99497757   -4.5960508   -4.5960508   -3.1035874  0.071848069   -4.5960508    1.4924634      1024000 
  953000   0.99411606   -4.5979781   -4.5979781   -3.1068069  0.064309221   -4.5979781    1.4911711      1024000 
  954000   0.99597892   -4.5972301   -4.5972301   -3.1032648  0.074117661   -4.5972301    1.4939654      1024000 
  955000    0.9955255    -4.597738    -4.597738   -3.1044528  0.069147013    -4.597738    1.4932853      1024000 
  956000   0.99612432   -4.5976653   -4.5976653   -3.1034818  0.070513997   -4.5976653    1.4941835      1024000 
  957000   0.99611094   -4.5960925   -4.5960925   -3.1019291  0.073860841   -4.5960925    1.4941634      1024000 
  958000   0.99657603   -4.5951187   -4.5951187   -3.1002576  0.075233772   -4.5951187    1.4948611      1024000 
  959000   0.99597571    -4.596981    -4.596981   -3.1030204   0.06518875    -4.596981    1.4939606      1024000 
  960000   0.99603423   -4.5962691   -4.5962691   -3.1022207  0.073934642   -4.5962691    1.4940484      1024000 
  961000    0.9958612   -4.5974188   -4.5974188     -3.10363  0.072730039   -4.5974188    1.4937888      1024000 
  962000   0.99616156   -4.5968442   -4.5968442   -3.1026049  0.073593992   -4.5968442    1.4942393      1024000 
  963000   0.99706849    -4.597463    -4.597463   -3.1018633   0.07392354    -4.597463    1.4955997      1024000 
  964000   0.99604875   -4.5974705   -4.5974705   -3.1034004  0.074920713   -4.5974705    1.4940701      1024000 
  965000   0.99722762   -4.5986434   -4.5986434    -3.102805  0.072066617   -4.5986434    1.4958384      1024000 
  966000     0.996458   -4.5967495   -4.5967495   -3.1020655  0.074142568   -4.5967495     1.494684      1024000 
  967000   0.99629814   -4.5960942   -4.5960942     -3.10165  0.071164127   -4.5960942    1.4944442      1024000 
  968000   0.99478372   -4.5943861   -4.5943861   -3.1022135  0.075091521   -4.5943861    1.4921726      1024000 
  969000   0.99552582   -4.5952948   -4.5952948   -3.1020091  0.072571704   -4.5952948    1.4932857      1024000 
  970000   0.99533789   -4.5949651   -4.5949651   -3.1019612  0.067448762   -4.5949651    1.4930038      1024000 
  971000   0.99439478   -4.5939425   -4.5939425   -3.1023533  0.072065976   -4.5939425    1.4915892      1024000 
  972000   0.99487825    -4.596319    -4.596319   -3.1040046  0.063433188    -4.596319    1.4923144      1024000 
  973000   0.99374566   -4.5940524   -4.5940524   -3.1034369  0.063799559   -4.5940524    1.4906155      1024000 
  974000   0.99411229   -4.5949294   -4.5949294    -3.103764  0.062462274   -4.5949294    1.4911654      1024000 
  975000   0.99464176   -4.5943633   -4.5943633   -3.1024037  0.065519951   -4.5943633    1.4919596      1024000 
  976000   0.99444076   -4.5941485   -4.5941485   -3.1024904  0.067716388   -4.5941485    1.4916582      1024000 
  977000   0.99514391   -4.5934781   -4.5934781   -3.1007652  0.072821653   -4.5934781    1.4927129      1024000 
  978000   0.99440044    -4.593565    -4.593565   -3.1019673  0.069673554    -4.593565    1.4915977      1024000 
  979000   0.99505537   -4.5944765   -4.5944765   -3.1018964  0.068913457   -4.5944765    1.4925801      1024000 
  980000   0.99554218   -4.5956278   -4.5956278   -3.1023176  0.066181362   -4.5956278    1.4933103      1024000 
  981000   0.99529705   -4.5934781   -4.5934781   -3.1005355  0.070083696   -4.5934781    1.4929426      1024000 
  982000   0.99474315   -4.5935949   -4.5935949   -3.1014832  0.074316444   -4.5935949    1.4921117      1024000 
  983000   0.99622454   -4.5975123   -4.5975123   -3.1031785   0.06802085   -4.5975123    1.4943338      1024000 
  984000   0.99684328   -4.5963022   -4.5963022   -3.1010402  0.069228833   -4.5963022    1.4952619      1024000 
  985000   0.99679495   -4.5953018   -4.5953018   -3.1001123  0.071128167   -4.5953018    1.4951894      1024000 
  986000   0.99552108   -4.5958562   -4.5958562   -3.1025776  0.066722588   -4.5958562    1.4932786      1024000 
  987000   0.99633544   -4.5957406   -4.5957406   -3.1012404  0.066762809   -4.5957406    1.4945002      1024000 
  988000   0.99588355   -4.5948872   -4.5948872   -3.1010649  0.063419426   -4.5948872    1.4938223      1024000 
  989000   0.99337928   -4.5929491   -4.5929491   -3.1028831  0.073109691   -4.5929491    1.4900659      1024000 
  990000   0.99561995   -4.5949188   -4.5949188   -3.1014919  0.071505514   -4.5949188    1.4934269      1024000 
  991000   0.99577968   -4.5947589   -4.5947589   -3.1010924  0.070678258   -4.5947589    1.4936665      1024000 
  992000   0.99706541   -4.5958206   -4.5958206   -3.1002255  0.071101891   -4.5958206    1.4955951      1024000 
  993000   0.99512939     -4.59452     -4.59452   -3.1018289     0.074393     -4.59452    1.4926911      1024000 
  994000    0.9973615   -4.5960921   -4.5960921   -3.1000528  0.070270429   -4.5960921    1.4960393      1024000 
  995000   0.99701952    -4.595549    -4.595549   -3.1000227  0.075382079    -4.595549    1.4955263      1024000 
  996000   0.99697984    -4.594523    -4.594523   -3.0990562  0.078370357    -4.594523    1.4954668      1024000 
  997000   0.99645737    -4.595121    -4.595121   -3.1004379  0.070820044    -4.595121    1.4946831      1024000 
  998000   0.99451682   -4.5934344   -4.5934344   -3.1016622  0.076717862   -4.5934344    1.4917722      1024000 
  999000   0.99524033   -4.5917959   -4.5917959   -3.0989384  0.074401274   -4.5917959    1.4928575      1024000 
 1000000    0.9959637   -4.5929856   -4.5929856    -3.099043  0.066209341   -4.5929856    1.4939426      1024000 
Loop time of 28692.9 on 64 procs for 1000000 steps with 499200 atoms

Performance: 7527.986 tau/day, 34.852 timesteps/s
99.4% CPU use with 64 MPI tasks x 1 OpenMP threads

MPI task timing breakdown:
Section |  min time  |  avg time  |  max time  |%varavg|  %CPU | %total
-----------------------------------------------------------------------
Pair    | 11150      | 15007      | 22010      |1490.3 |  99.6 | 52.30
Bond    | 0.60477    | 0.70629    | 1.0366     |   7.8 | 100.0 |  0.00
Neigh   | 1874.9     | 2656.3     | 3838.4     | 657.2 |  99.9 |  9.26
Comm    | 2054.1     | 10369      | 14907      |2121.5 |  99.0 | 36.14
Output  | 18.396     | 21.931     | 25.553     |  68.3 | 100.0 |  0.08
Modify  | 116.84     | 207.08     | 558.92     | 997.2 |  99.9 |  0.72
Other   |            | 430.6      |            |       |       |  1.50

Nlocal:    7800 ave 8102 max 7316 min
Histogram: 1 1 1 1 0 18 31 9 0 2
Nghost:    15058.8 ave 16542 max 11033 min
Histogram: 8 8 0 0 0 0 0 0 0 48
Neighs:    1.20621e+06 ave 1.32915e+06 max 808308 min
Histogram: 4 1 3 0 0 0 0 6 42 8

Total # of neighbors = 77197714
Ave neighs/atom = 154.643
Ave special neighs/atom = 0
Neighbor list builds = 66658
Dangerous builds = 642
Total wall time: 7:58:19
