LAMMPS (24 Dec 2020)
OMP_NUM_THREADS environment is not set. Defaulting to 1 thread. (src/comm.cpp:94)
  using 1 OpenMP thread(s) per MPI task
#Read the equilibrated lj fluid and add nanocubes

units           lj
atom_style      full
atom_modify     map array first cubes
dimension       3
boundary        p p f
pair_style      lj/cut/opt 2.5

variable        sigma           equal 1.0
variable        epsilon         equal 1.0
read_restart	restart.dat.3000000
Reading restart file ...
  restart file = 24 Dec 2020, LAMMPS = 24 Dec 2020
WARNING: Restart file used different # of processors: 48 vs. 288 (src/read_restart.cpp:697)
  restoring atom style full from restart
  orthogonal box = (0.0000000 0.0000000 0.0000000) to (80.000000 80.000000 160.00000)
  6 by 4 by 12 MPI processor grid
  restoring pair style lj/cut/opt from restart
  518400 atoms
Finding 1-2 1-3 1-4 neighbors ...
  special bond factors lj:    0        0        0       
  special bond factors coul:  0        0        0       
     0 = max # of 1-2 neighbors
     0 = max # of 1-3 neighbors
     0 = max # of 1-4 neighbors
     1 = max # of special neighbors
  special bonds CPU = 2.363 seconds
  read_restart CPU = 2.674 seconds

group		solvent type 1
518400 atoms in group solvent

read_data	data_125.cubes group cubes add append
Reading data file ...
  orthogonal box = (0.0000000 0.0000000 0.0000000) to (80.000000 80.000000 160.00000)
  6 by 4 by 12 MPI processor grid
  reading atoms ...
  166375 atoms
  reading velocities ...
  166375 velocities
Finding 1-2 1-3 1-4 neighbors ...
  special bond factors lj:    0        0        0       
  special bond factors coul:  0        0        0       
     0 = max # of 1-2 neighbors
     0 = max # of 1-3 neighbors
     0 = max # of 1-4 neighbors
     1 = max # of special neighbors
  special bonds CPU = 0.059 seconds
  read_data CPU = 0.448 seconds

group 		hull  type 2
75250 atoms in group hull
group 		dummy type 3
91125 atoms in group dummy

neighbor      0.4 bin
neigh_modify  exclude molecule/intra cubes


pair_modify   shift yes

pair_coeff    1 1 1.0 1.0 #solvent
pair_coeff    2 2 1.0 1.0 1.12 #np
pair_coeff    3 3 0.0 0.0 0.0 #dummy
pair_coeff    2 3 0.0 0.0 0.0 #np dummy
pair_coeff    1 2 ${sol} 1.0 #np solvent
pair_coeff    1 2 1.0 1.0 
pair_coeff    1 3 0.0 0.0 2.5 #dummy solvent

# delete solvent where the cubes are
delete_atoms  overlap 1.0 solvent cubes
System init for delete_atoms ...
Neighbor list info ...
  update every 1 steps, delay 10 steps, check yes
  max neighbors/atom: 2000, page size: 100000
  master list distance cutoff = 2.9
  ghost atom cutoff = 2.9
  binsize = 1.45, bins = 56 56 111
  2 neighbor lists, perpetual/occasional/extra = 1 1 0
  (1) command delete_atoms, occasional
      attributes: full, newton on
      pair build: full/bin
      stencil: full/bin/3d
      bin: standard
  (2) pair lj/cut/opt, perpetual
      attributes: half, newton on
      pair build: half/bin/newton
      stencil: half/bin/3d/newton
      bin: standard
WARNING: Delete_atoms cutoff > minimum neighbor cutoff (src/delete_atoms.cpp:307)
WARNING: Ignoring 'compress yes' for molecular system (src/delete_atoms.cpp:125)
Deleted 105996 atoms, new total = 578779



pair_coeff    1 1 1.0 1.0 #solvent
pair_coeff    2 2 1.0 1.0 1.12 #np
pair_coeff    3 3 0.0 0.0 0.0 #dummy
pair_coeff    2 3 0.0 0.0 0.0 #np dummy
pair_coeff    1 2 ${sol} 1.0 #np solvent
pair_coeff    1 2 1.0 1.0 
pair_coeff    1 3 0.0 0.0 0.0 #dummy solvent


comm_modify   mode multi cutoff/multi 1 2.5 cutoff/multi 2 2.5 cutoff/multi 3 8.67

reset_timestep 	0

balance 	1.05 shift z 10 1.05
Balancing ...
Neighbor list info ...
  update every 1 steps, delay 10 steps, check yes
  max neighbors/atom: 2000, page size: 100000
  master list distance cutoff = 2.9
  ghost atom cutoff = 8.67
  binsize = 1.45, bins = 56 56 111
  1 neighbor lists, perpetual/occasional/extra = 1 0 0
  (1) pair lj/cut/opt, perpetual
      attributes: half, newton on
      pair build: half/bin/newton
      stencil: half/bin/3d/newton
      bin: standard
 rebalancing time: 0.004 seconds
  iteration count = 4
  initial/final maximal load/proc = 2547.0000 2746.0000
  initial/final imbalance factor  = 1.2673853 1.3664076
  x cuts: 0.0000000 0.16666667 0.33333333 0.50000000 0.66666667 0.83333333 1.0000000
  y cuts: 0.0000000 0.25000000 0.50000000 0.75000000 1.0000000
  z cuts: 0.0000000 0.078125000 0.15104167 0.24479167 0.32812500 0.40104167 0.47395833 0.54687500 0.61979167 0.69270833 0.77604167 0.85937500 1.0000000

####################### WALLS ###########################

variable       epsilonWall equal 2*${epsilon}
variable       epsilonWall equal 2*1
variable       repulsive   equal   0.7147*${sigma}
variable       repulsive   equal   0.7147*1
variable       full	   equal   3*${sigma}
variable       full	   equal   3*1
region         lowWall block EDGE EDGE EDGE EDGE EDGE 2

fix            topWall all wall/lj93 zhi EDGE 	       ${epsilonWall} ${sigma} ${repulsive} units box
fix            topWall all wall/lj93 zhi EDGE 	       2 ${sigma} ${repulsive} units box
fix            topWall all wall/lj93 zhi EDGE 	       2 1 ${repulsive} units box
fix            topWall all wall/lj93 zhi EDGE 	       2 1 0.7147 units box
fix            lowSol solvent wall/lj93 zlo EDGE                ${epsilonWall} ${sigma} ${full} units box
fix            lowSol solvent wall/lj93 zlo EDGE                2 ${sigma} ${full} units box
fix            lowSol solvent wall/lj93 zlo EDGE                2 1 ${full} units box
fix            lowSol solvent wall/lj93 zlo EDGE                2 1 3 units box
fix 	       lowCub cubes wall/lj93 zlo EDGE                ${epsilonWall} ${sigma} ${repulsive} units box
fix 	       lowCub cubes wall/lj93 zlo EDGE                2 ${sigma} ${repulsive} units box
fix 	       lowCub cubes wall/lj93 zlo EDGE                2 1 ${repulsive} units box
fix 	       lowCub cubes wall/lj93 zlo EDGE                2 1 0.7147 units box


###################### COMPUTES ##########################

compute        bin1 solvent chunk/atom bin/1d z lower 1.0 units box


######################  FIXES ############################


fix             peclet solvent ave/chunk 10 10 10000 bin1 density/number norm                  none ave one file density.profile

fix              temp solvent ave/chunk 10 10 10000 bin1 temp norm                  none ave one file temp.profile

fix             1 cubes rigid/nve/small molecule
  create bodies CPU = 0.002 seconds
  125 rigid bodies with 166375 atoms
  8.6602540 = max distance from body owner to body atom

fix             2 solvent nve# temp ${temp} ${temp} 10


## Thermostat
region          regthermo block EDGE EDGE EDGE EDGE 0 15
group           thermo dynamic solvent region regthermo every 1000
dynamic group thermo defined
fix             3 thermo langevin ${temp} ${temp} 10 156453
fix             3 thermo langevin 1.0 ${temp} 10 156453
fix             3 thermo langevin 1.0 1.0 10 156453


#### Load balancing

fix             bal all balance 1000 1.05 shift z 10 1.05

############### Diagnostics and computes ###################

compute        	com cubes          rigid/local   1 mol x y z
compute        	quat cubes         rigid/local   1 mol quatw quati quatj quatk

compute 	cc2 cubes 	   chunk/atom 	 molecule
compute 	msd cubes 	   msd/chunk 	 cc2

fix 		msd all ave/time  1 1 10000 c_msd[*] file dump.msd ave one mode vector

dump            1 all custom 500000 dump.lammpstrj id mol type x y z
dump		cubetrj hull custom 500000 cubes.lammpstrj id mol type x y z
dump            com cubes local 10000 dump.*.xyz c_com[*]
dump	        xyz hull xyz 100000 cubes.xyz
dump            quat cubes      local 10000 dump.*.quat c_quat[*]
#dump		mol cubes molfile 10000 mol.xyz xyz


dump            2 all image 10000 image.*.png type type zoom 2.0
dump_modify     2 pad 8
dump		image cubes image 10000 image_cubes.*.png type type zoom 2.0
dump_modify	image pad 8
dump            3 all movie 5000 movie.avi type type zoom 2.0
dump		4 cubes movie 5000 movie_cubes.avi type type zoom 2.0


thermo          1000
thermo_style    custom step temp epair evdwl etotal press pe ke atoms

restart         1000000 restart.dat
timestep        0.005
timer           full
New timer settings: style=full  mode=nosync  timeout=off

run 		4000000
Per MPI rank memory allocation (min/avg/max) = 15.04 | 20.34 | 23.97 Mbytes
Step Temp E_pair E_vdwl TotEng Press PotEng KinEng Atoms 
       0   0.98893492   -2.4324908   -2.4324908    -1.374867  -0.24398173   -2.4324908    1.0576238   578779 
    1000    1.0277628   -2.4788434   -2.4788434   -1.3796948  0.062565008   -2.4788434    1.0991486   578779 
    2000    1.0315755   -2.4857134   -2.4857134   -1.3824874  0.059401184   -2.4857134     1.103226   578779 
    3000    1.0315627   -2.4895424   -2.4895424     -1.38633  0.080869063   -2.4895424    1.1032124   578779 
    4000    1.0333884   -2.4942809   -2.4942809    -1.389116  0.053535627   -2.4942809    1.1051649   578779 
    5000    1.0325069   -2.4967509   -2.4967509   -1.3925287  0.081968197   -2.4967509    1.1042222   578779 
    6000      1.03351   -2.5009151   -2.5009151   -1.3956202  0.071159766   -2.5009151     1.105295   578779 
    7000    1.0328891   -2.5034226   -2.5034226   -1.3987916  0.058079283   -2.5034226     1.104631   578779 
    8000    1.0300195   -2.5026958   -2.5026958   -1.4011338  0.076550145   -2.5026958     1.101562   578779 
    9000    1.0293915   -2.5037614   -2.5037614   -1.4028711   0.06332003   -2.5037614    1.1008903   578779 
   10000    1.0271218   -2.5030858   -2.5030858   -1.4046228  0.060886807   -2.5030858     1.098463   578779 
   11000     1.026158   -2.5045035   -2.5045035   -1.4070712  0.064084457   -2.5045035    1.0974323   578779 
   12000    1.0237828   -2.5036938   -2.5036938   -1.4088017  0.064651712   -2.5036938    1.0948921   578779 
   13000    1.0246645   -2.5078944   -2.5078944   -1.4120593  0.057316577   -2.5078944    1.0958351   578779 
   14000    1.0227089   -2.5085979   -2.5085979   -1.4148543  0.060197068   -2.5085979    1.0937436   578779 
   15000    1.0224721     -2.51091     -2.51091   -1.4174197  0.055904174     -2.51091    1.0934903   578779 
   16000     1.022853   -2.5125287   -2.5125287   -1.4186309  0.067512648   -2.5125287    1.0938977   578779 
   17000    1.0242636   -2.5148087   -2.5148087   -1.4194023  0.059616928   -2.5148087    1.0954064   578779 
   18000    1.0242603   -2.5162981   -2.5162981   -1.4208954  0.050845045   -2.5162981    1.0954027   578779 
   19000    1.0228219    -2.516353    -2.516353   -1.4224885   0.07249496    -2.516353    1.0938645   578779 
   20000    1.0221501   -2.5165884   -2.5165884   -1.4234423  0.059161732   -2.5165884    1.0931461   578779 
   21000    1.0224123   -2.5177508   -2.5177508   -1.4243245  0.073422787   -2.5177508    1.0934264   578779 
   22000    1.0227258   -2.5183822   -2.5183822   -1.4246205  0.065412734   -2.5183822    1.0937617   578779 
   23000    1.0243036   -2.5206481   -2.5206481   -1.4251991  0.061238261   -2.5206481     1.095449   578779 
   24000    1.0228045   -2.5208655   -2.5208655   -1.4270196  0.067305623   -2.5208655    1.0938458   578779 
   25000    1.0232838   -2.5223579   -2.5223579   -1.4279994  0.059239809   -2.5223579    1.0943584   578779 
   26000    1.0213828   -2.5227698   -2.5227698   -1.4304444   0.06170644   -2.5227698    1.0923254   578779 
   27000    1.0220883   -2.5229225   -2.5229225   -1.4298426  0.060843268   -2.5229225    1.0930799   578779 
   28000    1.0211676   -2.5225764   -2.5225764    -1.430481  0.062192686   -2.5225764    1.0920953   578779 
   29000    1.0212718   -2.5224227   -2.5224227    -1.430216  0.052026034   -2.5224227    1.0922067   578779 
   30000    1.0200785   -2.5222671   -2.5222671   -1.4313366  0.050237095   -2.5222671    1.0909305   578779 
   31000    1.0199865   -2.5224185   -2.5224185   -1.4315864  0.056642702   -2.5224185    1.0908322   578779 
   32000    1.0198071   -2.5227773   -2.5227773   -1.4321369  0.059454734   -2.5227773    1.0906403   578779 
   33000    1.0179118   -2.5219469   -2.5219469   -1.4333336  0.052187347   -2.5219469    1.0886133   578779 
   34000     1.019423   -2.5234787   -2.5234787   -1.4332492  0.064821075   -2.5234787    1.0902295   578779 
   35000     1.016966   -2.5210379   -2.5210379   -1.4334361  0.042398844   -2.5210379    1.0876019   578779 
   36000    1.0194582    -2.523931    -2.523931   -1.4336638   0.04845304    -2.523931    1.0902672   578779 
   37000    1.0199672   -2.5249027   -2.5249027   -1.4340913  0.056363073   -2.5249027    1.0908114   578779 
   38000    1.0187854   -2.5244942   -2.5244942   -1.4349466  0.057693688   -2.5244942    1.0895476   578779 
   39000    1.0207462   -2.5271022   -2.5271022   -1.4354575  0.063147093   -2.5271022    1.0916446   578779 
   40000    1.0196577    -2.526944    -2.526944   -1.4364635  0.055716293    -2.526944    1.0904805   578779 
   41000    1.0191676   -2.5265887   -2.5265887   -1.4366323  0.055672317   -2.5265887    1.0899564   578779 
   42000    1.0170304   -2.5261536   -2.5261536   -1.4384829   0.06499394   -2.5261536    1.0876707   578779 
   43000    1.0176205   -2.5270592   -2.5270592   -1.4387574  0.058220192   -2.5270592    1.0883018   578779 
   44000    1.0191229   -2.5288275   -2.5288275    -1.438919  0.060239274   -2.5288275    1.0899085   578779 
   45000    1.0178374   -2.5275934   -2.5275934   -1.4390596  0.064869479   -2.5275934    1.0885338   578779 
   46000    1.0173945   -2.5268349   -2.5268349   -1.4387749   0.05034144   -2.5268349    1.0880601   578779 
   47000    1.0170203    -2.527125    -2.527125   -1.4394651   0.07130474    -2.527125    1.0876599   578779 
   48000    1.0184807   -2.5288239   -2.5288239   -1.4396021  0.072054182   -2.5288239    1.0892218   578779 
   49000    1.0191657   -2.5296278   -2.5296278   -1.4396735  0.056572209   -2.5296278    1.0899543   578779 
   50000    1.0193059   -2.5301703   -2.5301703    -1.440066  0.063154182   -2.5301703    1.0901042   578779 
   51000    1.0185036   -2.5303517   -2.5303517   -1.4411055  0.051392147   -2.5303517    1.0892462   578779 
   52000    1.0183099   -2.5292328   -2.5292328   -1.4401937  0.048841769   -2.5292328     1.089039   578779 
   53000    1.0178958   -2.5285789   -2.5285789   -1.4399827  0.056924936   -2.5285789    1.0885962   578779 
   54000    1.0189311   -2.5307459   -2.5307459   -1.4410425   0.06249073   -2.5307459    1.0897034   578779 
   55000    1.0187098   -2.5305912   -2.5305912   -1.4411245  0.057249814   -2.5305912    1.0894667   578779 
   56000    1.0191973   -2.5319893   -2.5319893   -1.4420012  0.050232811   -2.5319893    1.0899881   578779 
   57000    1.0165147   -2.5292558   -2.5292558   -1.4421366  0.062861777   -2.5292558    1.0871192   578779 
   58000    1.0164711   -2.5290801   -2.5290801   -1.4420076  0.067255706   -2.5290801    1.0870726   578779 
   59000    1.0177401   -2.5311899   -2.5311899   -1.4427601  0.060675303   -2.5311899    1.0884298   578779 
   60000    1.0183612   -2.5317908   -2.5317908   -1.4426968  0.050540239   -2.5317908     1.089094   578779 
   61000    1.0175312   -2.5312312   -2.5312312   -1.4430249  0.055140482   -2.5312312    1.0882063   578779 
   62000    1.0197247   -2.5329714   -2.5329714   -1.4424192  0.063560396   -2.5329714    1.0905521   578779 
   63000    1.0173088   -2.5320599   -2.5320599   -1.4440915  0.050322431   -2.5320599    1.0879685   578779 
   64000    1.0185798   -2.5330543   -2.5330543   -1.4437266   0.06180121   -2.5330543    1.0893277   578779 
   65000    1.0166346   -2.5320913   -2.5320913    -1.444844   0.07641229   -2.5320913    1.0872474   578779 
   66000    1.0178011   -2.5324015   -2.5324015   -1.4439066  0.055769094   -2.5324015    1.0884949   578779 
   67000     1.017869   -2.5327596   -2.5327596   -1.4441921  0.052190846   -2.5327596    1.0885675   578779 
   68000    1.0160663   -2.5312725   -2.5312725   -1.4446328  0.052426549   -2.5312725    1.0866397   578779 
   69000      1.01645   -2.5323157   -2.5323157   -1.4452657  0.058744952   -2.5323157    1.0870501   578779 
   70000    1.0172474   -2.5338501   -2.5338501   -1.4459474  0.057816003   -2.5338501    1.0879027   578779 
   71000    1.0172202    -2.533846    -2.533846   -1.4459723  0.065542129    -2.533846    1.0878737   578779 
   72000    1.0166476   -2.5339331   -2.5339331   -1.4466717  0.064176114   -2.5339331    1.0872614   578779 
   73000     1.018799   -2.5363212   -2.5363212    -1.446759  0.063043223   -2.5363212    1.0895622   578779 
   74000    1.0180554   -2.5353863   -2.5353863   -1.4466193  0.065456541   -2.5353863     1.088767   578779 
   75000     1.017745   -2.5352299   -2.5352299    -1.446795  0.065701456   -2.5352299    1.0884349   578779 
   76000    1.0180157   -2.5359884   -2.5359884   -1.4472639  0.060492171   -2.5359884    1.0887245   578779 
   77000    1.0172775   -2.5356968   -2.5356968   -1.4477618  0.052917479   -2.5356968     1.087935   578779 
   78000    1.0151243   -2.5335969   -2.5335969   -1.4479647  0.069743743   -2.5335969    1.0856322   578779 
   79000     1.017738   -2.5363613   -2.5363613   -1.4479339  0.055719272   -2.5363613    1.0884274   578779 
   80000     1.018031   -2.5370313   -2.5370313   -1.4482905  0.062523354   -2.5370313    1.0887408   578779 
   81000    1.0161428   -2.5351709   -2.5351709   -1.4484494  0.065234996   -2.5351709    1.0867215   578779 
   82000    1.0183526   -2.5365416   -2.5365416   -1.4474568  0.060318873   -2.5365416    1.0890847   578779 
   83000    1.0160489   -2.5342758   -2.5342758   -1.4476548   0.05817797   -2.5342758     1.086621   578779 
   84000    1.0174236   -2.5359656   -2.5359656   -1.4478744  0.060978127   -2.5359656    1.0880912   578779 
   85000    1.0179265   -2.5363862   -2.5363862   -1.4477571  0.059340527   -2.5363862     1.088629   578779 
   86000    1.0163083   -2.5353712   -2.5353712   -1.4484727  0.065343224   -2.5353712    1.0868985   578779 
   87000    1.0176213    -2.536959    -2.536959   -1.4486564  0.061262775    -2.536959    1.0883026   578779 
   88000     1.016827    -2.536657    -2.536657   -1.4492039  0.053196459    -2.536657    1.0874532   578779 
   89000    1.0186465   -2.5384829   -2.5384829   -1.4490839   0.06977587   -2.5384829    1.0893991   578779 
   90000    1.0170753   -2.5368113   -2.5368113   -1.4490926  0.065964805   -2.5368113    1.0877187   578779 
   91000    1.0161224   -2.5362072   -2.5362072   -1.4495076  0.067285462   -2.5362072    1.0866996   578779 
   92000    1.0187313   -2.5391007   -2.5391007   -1.4496109  0.058484217   -2.5391007    1.0894898   578779 
   93000    1.0163457    -2.536646    -2.536646   -1.4497075  0.054565763    -2.536646    1.0869385   578779 
   94000    1.0166015   -2.5373636   -2.5373636   -1.4501516  0.054999798   -2.5373636     1.087212   578779 
   95000    1.0163621   -2.5369461   -2.5369461   -1.4499901    0.0631414   -2.5369461     1.086956   578779 
   96000     1.017593   -2.5387546   -2.5387546   -1.4504823  0.052858221   -2.5387546    1.0882724   578779 
   97000    1.0168521   -2.5384192   -2.5384192   -1.4509391  0.059618952   -2.5384192    1.0874801   578779 
   98000    1.0188734   -2.5414144   -2.5414144   -1.4517727  0.066996145   -2.5414144    1.0896417   578779 
   99000    1.0180816   -2.5409618   -2.5409618   -1.4521669  0.066101211   -2.5409618    1.0887949   578779 
  100000    1.0169296   -2.5400328   -2.5400328   -1.4524699  0.053800195   -2.5400328     1.087563   578779 
  101000    1.0168584   -2.5394175   -2.5394175   -1.4519307  0.061641632   -2.5394175    1.0874867   578779 
  102000    1.0169196   -2.5402752   -2.5402752    -1.452723   0.06066693   -2.5402752    1.0875522   578779 
  103000     1.019597   -2.5433857   -2.5433857   -1.4529701   0.05890764   -2.5433857    1.0904156   578779 
  104000    1.0157988   -2.5403682   -2.5403682   -1.4540146  0.074158418   -2.5403682    1.0863536   578779 
  105000    1.0174578   -2.5424831   -2.5424831   -1.4543553  0.073459541   -2.5424831    1.0881278   578779 
  106000    1.0168622   -2.5430332   -2.5430332   -1.4555424  0.055599389   -2.5430332    1.0874908   578779 
  107000    1.0178382   -2.5440703   -2.5440703   -1.4555357  0.066478795   -2.5440703    1.0885346   578779 
  108000    1.0178571   -2.5450333   -2.5450333   -1.4564784  0.049881319   -2.5450333    1.0885548   578779 
  109000    1.0154987   -2.5435604   -2.5435604   -1.4575278  0.069984947   -2.5435604    1.0860326   578779 
  110000    1.0164578   -2.5445058   -2.5445058   -1.4574474  0.072402089   -2.5445058    1.0870584   578779 
  111000    1.0151351   -2.5430246   -2.5430246   -1.4573808  0.055520112   -2.5430246    1.0856438   578779 
  112000    1.0170615   -2.5448702   -2.5448702   -1.4571661  0.058920932   -2.5448702     1.087704   578779 
  113000    1.0158772   -2.5440895   -2.5440895   -1.4576522  0.058071273   -2.5440895    1.0864374   578779 
  114000    1.0159584   -2.5439339   -2.5439339   -1.4574096  0.066923091   -2.5439339    1.0865243   578779 
  115000    1.0164992   -2.5452852   -2.5452852   -1.4581826  0.061660564   -2.5452852    1.0871026   578779 
  116000    1.0185343   -2.5466713   -2.5466713   -1.4573922  0.060614679   -2.5466713     1.089279   578779 
  117000    1.0173635    -2.545629    -2.545629   -1.4576021  0.068510406    -2.545629    1.0880269   578779 
  118000    1.0171033   -2.5454783   -2.5454783   -1.4577296  0.069436992   -2.5454783    1.0877487   578779 
  119000    1.0186605   -2.5471485   -2.5471485   -1.4577344  0.071259395   -2.5471485    1.0894141   578779 
  120000    1.0179347   -2.5469171   -2.5469171   -1.4582792  0.065067385   -2.5469171    1.0886378   578779 
  121000    1.0169123   -2.5458795   -2.5458795   -1.4583351  0.061348012   -2.5458795    1.0875444   578779 
  122000    1.0170786   -2.5458764   -2.5458764   -1.4581541  0.074892243   -2.5458764    1.0877223   578779 
  123000    1.0162519   -2.5447093   -2.5447093   -1.4578711  0.059102647   -2.5447093    1.0868382   578779 
  124000    1.0176833    -2.546779    -2.546779     -1.45841   0.06354833    -2.546779     1.088369   578779 
  125000    1.0189858   -2.5479336   -2.5479336   -1.4581717  0.061390211   -2.5479336    1.0897619   578779 
  126000    1.0178942   -2.5478604   -2.5478604   -1.4592659   0.06143854   -2.5478604    1.0885945   578779 
  127000    1.0154755   -2.5460807   -2.5460807   -1.4600729  0.058562327   -2.5460807    1.0860079   578779 
  128000     1.015535   -2.5467928   -2.5467928   -1.4607213  0.052683835   -2.5467928    1.0860715   578779 
  129000    1.0172146   -2.5488149   -2.5488149   -1.4609473  0.058957449   -2.5488149    1.0878677   578779 
  130000    1.0154103   -2.5471859   -2.5471859   -1.4612478  0.060798994   -2.5471859    1.0859381   578779 
  131000    1.0167071   -2.5483395   -2.5483395   -1.4610145  0.059185522   -2.5483395     1.087325   578779 
  132000    1.0168034   -2.5490586   -2.5490586   -1.4616306  0.064912359   -2.5490586     1.087428   578779 
  133000    1.0170386   -2.5492501   -2.5492501   -1.4615706   0.05908265   -2.5492501    1.0876795   578779 
  134000    1.0152153   -2.5479418   -2.5479418   -1.4622123  0.071081554   -2.5479418    1.0857295   578779 
  135000    1.0169311   -2.5498719   -2.5498719   -1.4623074  0.071534676   -2.5498719    1.0875646   578779 
  136000    1.0179146   -2.5510428   -2.5510428   -1.4624265  0.071816446   -2.5510428    1.0886163   578779 
  137000    1.0163821   -2.5495449   -2.5495449   -1.4625675  0.062310439   -2.5495449    1.0869774   578779 
  138000    1.0178758   -2.5512502   -2.5512502   -1.4626754  0.064300197   -2.5512502    1.0885748   578779 
  139000    1.0152896   -2.5483074   -2.5483074   -1.4624984  0.062038571   -2.5483074     1.085809   578779 
  140000     1.015781   -2.5479858   -2.5479858   -1.4616512  0.063494855   -2.5479858    1.0863345   578779 
  141000    1.0149342   -2.5476813   -2.5476813   -1.4622524  0.056274769   -2.5476813    1.0854289   578779 
  142000    1.0168249   -2.5501626   -2.5501626   -1.4627116  0.054289665   -2.5501626     1.087451   578779 
  143000    1.0169455   -2.5502263   -2.5502263   -1.4626464  0.071592004   -2.5502263    1.0875799   578779 
  144000    1.0167951   -2.5499523   -2.5499523   -1.4625332  0.051496646   -2.5499523    1.0874191   578779 
  145000    1.0161737   -2.5497461   -2.5497461   -1.4629916  0.065888049   -2.5497461    1.0867545   578779 
  146000    1.0163922   -2.5509352   -2.5509352    -1.463947  0.063457067   -2.5509352    1.0869882   578779 
  147000    1.0180511   -2.5526367   -2.5526367   -1.4638744  0.063974061   -2.5526367    1.0887623   578779 
  148000    1.0171599   -2.5524902   -2.5524902    -1.464681  0.058028155   -2.5524902    1.0878092   578779 
  149000    1.0172791   -2.5531283   -2.5531283   -1.4651916  0.064317071   -2.5531283    1.0879367   578779 
  150000    1.0163735   -2.5522098   -2.5522098   -1.4652416   0.07033143   -2.5522098    1.0869682   578779 
  151000    1.0171267   -2.5538804   -2.5538804   -1.4661067   0.06985876   -2.5538804    1.0877737   578779 
  152000    1.0151362   -2.5524412   -2.5524412   -1.4667963  0.050331503   -2.5524412    1.0856449   578779 
  153000     1.016971    -2.554656    -2.554656   -1.4670488  0.056375828    -2.554656    1.0876072   578779 
  154000    1.0162419   -2.5547087   -2.5547087   -1.4678812  0.068344615   -2.5547087    1.0868275   578779 
  155000     1.014834   -2.5530107   -2.5530107   -1.4676889  0.054649782   -2.5530107    1.0853218   578779 
  156000    1.0152711   -2.5530939   -2.5530939   -1.4673047  0.062106585   -2.5530939    1.0857892   578779 
  157000    1.0159734   -2.5534567   -2.5534567   -1.4669165  0.073897846   -2.5534567    1.0865403   578779 
  158000    1.0153108   -2.5536234   -2.5536234   -1.4677918  0.070352226   -2.5536234    1.0858317   578779 
  159000    1.0155583    -2.553941    -2.553941   -1.4678447  0.062537656    -2.553941    1.0860963   578779 
  160000    1.0168785   -2.5552747   -2.5552747   -1.4677665  0.052024486   -2.5552747    1.0875082   578779 
  161000    1.0155801   -2.5543697   -2.5543697   -1.4682501  0.057962039   -2.5543697    1.0861197   578779 
  162000    1.0153336   -2.5537959   -2.5537959   -1.4679398  0.065209757   -2.5537959    1.0858561   578779 
  163000    1.0164444   -2.5555145   -2.5555145   -1.4684705  0.060251216   -2.5555145     1.087044   578779 
  164000    1.0168805   -2.5557312   -2.5557312   -1.4682208  0.061144096   -2.5557312    1.0875104   578779 
  165000    1.0146076   -2.5537741   -2.5537741   -1.4686945   0.06268973   -2.5537741    1.0850796   578779 
  166000    1.0155493   -2.5549125   -2.5549125   -1.4688257  0.064829404   -2.5549125    1.0860868   578779 
  167000    1.0172087   -2.5574091   -2.5574091   -1.4695477  0.066914543   -2.5574091    1.0878613   578779 
  168000    1.0145516   -2.5545777   -2.5545777    -1.469558  0.050077736   -2.5545777    1.0850197   578779 
  169000    1.0164236    -2.555559    -2.555559   -1.4685373  0.055215768    -2.555559    1.0870217   578779 
  170000    1.0131727   -2.5528443   -2.5528443   -1.4692993  0.049271524   -2.5528443     1.083545   578779 
  171000    1.0156165   -2.5555169   -2.5555169   -1.4693583  0.072586594   -2.5555169    1.0861586   578779 
  172000    1.0176791   -2.5567585   -2.5567585    -1.468394  0.061244086   -2.5567585    1.0883644   578779 
  173000    1.0161159   -2.5557569   -2.5557569   -1.4690642  0.059934878   -2.5557569    1.0866927   578779 
  174000     1.015876   -2.5550436   -2.5550436   -1.4686075  0.076354714   -2.5550436    1.0864361   578779 
  175000    1.0163283   -2.5564299   -2.5564299   -1.4695101  0.049027945   -2.5564299    1.0869198   578779 
  176000    1.0152201   -2.5553205   -2.5553205   -1.4695858  0.059577334   -2.5553205    1.0857347   578779 
  177000    1.0149581   -2.5552746   -2.5552746   -1.4698201  0.074654503   -2.5552746    1.0854545   578779 
  178000    1.0175525   -2.5581512   -2.5581512   -1.4699221  0.063124965   -2.5581512    1.0882291   578779 
  179000     1.015804   -2.5561257   -2.5561257   -1.4697666  0.053763361   -2.5561257    1.0863591   578779 
  180000     1.016338   -2.5563975   -2.5563975   -1.4694673  0.066717549   -2.5563975    1.0869302   578779 
  181000    1.0168207    -2.556012    -2.556012   -1.4685655  0.072426102    -2.556012    1.0874465   578779 
  182000    1.0173804    -2.556601    -2.556601    -1.468556   0.08223741    -2.556601     1.088045   578779 
  183000     1.016069   -2.5565896   -2.5565896   -1.4699471  0.073588779   -2.5565896    1.0866426   578779 
  184000    1.0167497   -2.5573142   -2.5573142   -1.4699437  0.059802911   -2.5573142    1.0873705   578779 
  185000    1.0153301    -2.556125    -2.556125   -1.4702726  0.043294236    -2.556125    1.0858523   578779 
  186000    1.0145961   -2.5549367   -2.5549367   -1.4698694  0.059278091   -2.5549367    1.0850673   578779 
  187000    1.0149584   -2.5563399   -2.5563399    -1.470885  0.054108104   -2.5563399    1.0854548   578779 
  188000    1.0151361   -2.5564044   -2.5564044   -1.4707596  0.070320584   -2.5564044    1.0856448   578779 
  189000    1.0164029   -2.5581086   -2.5581086   -1.4711089  0.069722742   -2.5581086    1.0869997   578779 
  190000    1.0158425   -2.5582242   -2.5582242   -1.4718238  0.075645925   -2.5582242    1.0864004   578779 
  191000    1.0174475   -2.5606817   -2.5606817   -1.4725649  0.058843078   -2.5606817    1.0881168   578779 
  192000    1.0154737   -2.5588541   -2.5588541   -1.4728482  0.060451181   -2.5588541    1.0860059   578779 
  193000     1.017039   -2.5600611   -2.5600611   -1.4723812  0.056987905   -2.5600611    1.0876799   578779 
  194000    1.0161642   -2.5592342   -2.5592342   -1.4724899  0.078162224   -2.5592342    1.0867443   578779 
  195000    1.0166851    -2.560379    -2.560379   -1.4730776  0.066986304    -2.560379    1.0873015   578779 
  196000    1.0175761   -2.5610521   -2.5610521   -1.4727978   0.05997409   -2.5610521    1.0882543   578779 
  197000    1.0164064   -2.5600732   -2.5600732   -1.4730698  0.064609048   -2.5600732    1.0870034   578779 
  198000     1.014895   -2.5586373   -2.5586373   -1.4732503   0.04982061   -2.5586373     1.085387   578779 
  199000    1.0138193   -2.5568138   -2.5568138   -1.4725772  0.059322104   -2.5568138    1.0842366   578779 
  200000    1.0149654   -2.5579438   -2.5579438   -1.4724815  0.066337835   -2.5579438    1.0854623   578779 
  201000     1.015821   -2.5585596   -2.5585596   -1.4721823  0.070332514   -2.5585596    1.0863773   578779 
  202000    1.0147842   -2.5578652   -2.5578652   -1.4725967  0.067342126   -2.5578652    1.0852685   578779 
  203000    1.0153307   -2.5586396   -2.5586396   -1.4727866  0.068717668   -2.5586396     1.085853   578779 
  204000    1.0168306    -2.560157    -2.560157   -1.4726999  0.059909441    -2.560157     1.087457   578779 
  205000    1.0167409   -2.5599685   -2.5599685   -1.4726074  0.071462444   -2.5599685    1.0873611   578779 
  206000    1.0155862   -2.5589588   -2.5589588   -1.4728326  0.063229034   -2.5589588    1.0861262   578779 
  207000    1.0164286    -2.560408    -2.560408   -1.4733809  0.061180125    -2.560408    1.0870272   578779 
  208000     1.014955    -2.558226    -2.558226   -1.4727748  0.069134278    -2.558226    1.0854512   578779 
  209000    1.0163181   -2.5604454   -2.5604454   -1.4735365  0.065209056   -2.5604454    1.0869089   578779 
  210000    1.0142751   -2.5583889   -2.5583889   -1.4736649  0.075348149   -2.5583889     1.084724   578779 
  211000    1.0141676    -2.558925    -2.558925    -1.474316  0.071418806    -2.558925    1.0846091   578779 
  212000    1.0140538   -2.5594998   -2.5594998   -1.4750124  0.069142328   -2.5594998    1.0844874   578779 
  213000    1.0150748   -2.5602586   -2.5602586   -1.4746794  0.059421982   -2.5602586    1.0855793   578779 
  214000    1.0165067   -2.5620477   -2.5620477   -1.4749371   0.05285048   -2.5620477    1.0871106   578779 
  215000    1.0155084   -2.5611317   -2.5611317   -1.4750887   0.05862374   -2.5611317     1.086043   578779 
  216000    1.0146621   -2.5599584   -2.5599584   -1.4748204  0.057504092   -2.5599584     1.085138   578779 
  217000    1.0165256    -2.562206    -2.562206   -1.4750751  0.062805797    -2.562206    1.0871309   578779 
  218000    1.0159423   -2.5614643   -2.5614643   -1.4749572   0.06698614   -2.5614643     1.086507   578779 
  219000    1.0158394   -2.5622395   -2.5622395   -1.4758425  0.061593616   -2.5622395     1.086397   578779 
  220000    1.0186059   -2.5646529   -2.5646529   -1.4752973  0.076413586   -2.5646529    1.0893556   578779 
  221000    1.0167811    -2.563059    -2.563059   -1.4756549  0.057183129    -2.563059    1.0874041   578779 
  222000    1.0170944   -2.5632926   -2.5632926   -1.4755534  0.064442047   -2.5632926    1.0877392   578779 
  223000      1.01673   -2.5629457   -2.5629457   -1.4755963  0.065826964   -2.5629457    1.0873495   578779 
  224000     1.017143   -2.5644871   -2.5644871    -1.476696  0.067968384   -2.5644871    1.0877912   578779 
  225000    1.0151672   -2.5620272   -2.5620272   -1.4763491  0.065270885   -2.5620272    1.0856782   578779 
  226000    1.0159896   -2.5620739   -2.5620739   -1.4755162  0.071282326   -2.5620739    1.0865577   578779 
  227000    1.0159501   -2.5624038   -2.5624038   -1.4758884  0.063697924   -2.5624038    1.0865154   578779 
  228000    1.0168171   -2.5629155   -2.5629155   -1.4754729  0.057698297   -2.5629155    1.0874426   578779 
  229000    1.0159706   -2.5630372   -2.5630372   -1.4764999  0.062804783   -2.5630372    1.0865374   578779 
  230000    1.0155518    -2.561846    -2.561846   -1.4757566  0.066444685    -2.561846    1.0860895   578779 
  231000    1.0145759   -2.5624342   -2.5624342   -1.4773884  0.075618668   -2.5624342    1.0850457   578779 
  232000    1.0135825   -2.5620635   -2.5620635   -1.4780802  0.062713495   -2.5620635    1.0839833   578779 
  233000    1.0144097   -2.5621284   -2.5621284   -1.4772604  0.066699295   -2.5621284     1.084868   578779 
  234000    1.0153409   -2.5638315   -2.5638315   -1.4779676  0.055864772   -2.5638315    1.0858639   578779 
  235000    1.0139809    -2.563271    -2.563271   -1.4788616  0.055334526    -2.563271    1.0844094   578779 
  236000    1.0144649   -2.5641292   -2.5641292   -1.4792022  0.070963197   -2.5641292     1.084927   578779 
  237000    1.0133643   -2.5631226   -2.5631226   -1.4793726  0.058464568   -2.5631226      1.08375   578779 
  238000    1.0126343   -2.5626873   -2.5626873   -1.4797181  0.057814902   -2.5626873    1.0829692   578779 
  239000    1.0139635   -2.5646399   -2.5646399   -1.4802491  0.064152045   -2.5646399    1.0843908   578779 
  240000    1.0151123   -2.5647167   -2.5647167   -1.4790974  0.073676462   -2.5647167    1.0856193   578779 
  241000    1.0139354   -2.5638728   -2.5638728    -1.479512  0.062981584   -2.5638728    1.0843608   578779 
  242000    1.0146417   -2.5647197   -2.5647197   -1.4796036  0.066254348   -2.5647197    1.0851161   578779 
  243000    1.0161674   -2.5660846   -2.5660846   -1.4793368  0.066700272   -2.5660846    1.0867477   578779 
  244000    1.0160502   -2.5662926   -2.5662926   -1.4796702  0.058881876   -2.5662926    1.0866224   578779 
  245000    1.0149059   -2.5655253   -2.5655253   -1.4801266  0.067311966   -2.5655253    1.0853987   578779 
  246000    1.0160466   -2.5667304   -2.5667304   -1.4801118  0.064253158   -2.5667304    1.0866186   578779 
  247000    1.0165875   -2.5665925   -2.5665925   -1.4793954  0.070126062   -2.5665925    1.0871971   578779 
  248000    1.0158521   -2.5658539   -2.5658539   -1.4794434  0.069028521   -2.5658539    1.0864105   578779 
  249000    1.0116177   -2.5616966   -2.5616966   -1.4798145  0.068573481   -2.5616966    1.0818821   578779 
  250000    1.0142017   -2.5640488   -2.5640488   -1.4794033  0.055630607   -2.5640488    1.0846455   578779 
  251000    1.0140325   -2.5632034   -2.5632034   -1.4787389  0.067031703   -2.5632034    1.0844646   578779 
  252000    1.0148651   -2.5645238   -2.5645238   -1.4791689  0.050001745   -2.5645238     1.085355   578779 
  253000    1.0131906   -2.5637286   -2.5637286   -1.4801643  0.062471775   -2.5637286    1.0835643   578779 
  254000    1.0147776     -2.56564     -2.56564   -1.4803785  0.066497625     -2.56564    1.0852615   578779 
  255000    1.0152989   -2.5652116   -2.5652116   -1.4793926  0.064001986   -2.5652116     1.085819   578779 
  256000    1.0150305   -2.5654993   -2.5654993   -1.4799674  0.076305964   -2.5654993    1.0855319   578779 
  257000    1.0171874   -2.5677893   -2.5677893   -1.4799507  0.066798325   -2.5677893    1.0878386   578779 
  258000    1.0165515   -2.5679184   -2.5679184   -1.4807598  0.067361445   -2.5679184    1.0871586   578779 
  259000    1.0151993   -2.5676782   -2.5676782   -1.4819658   0.06146085   -2.5676782    1.0857124   578779 
  260000    1.0150923   -2.5675661   -2.5675661   -1.4819681  0.073186707   -2.5675661     1.085598   578779 
  261000    1.0144422   -2.5666715   -2.5666715   -1.4817688  0.072216602   -2.5666715    1.0849027   578779 
  262000    1.0152796   -2.5677228   -2.5677228   -1.4819245  0.067086255   -2.5677228    1.0857983   578779 
  263000    1.0146267   -2.5670769   -2.5670769   -1.4819768  0.070043337   -2.5670769    1.0851001   578779 
  264000    1.0127392   -2.5660167   -2.5660167   -1.4829353  0.062047975   -2.5660167    1.0830815   578779 
  265000    1.0141637   -2.5668839   -2.5668839   -1.4822789  0.055897151   -2.5668839    1.0846049   578779 
  266000     1.014256   -2.5666656   -2.5666656    -1.481962  0.063551512   -2.5666656    1.0847036   578779 
  267000    1.0139126   -2.5664433   -2.5664433    -1.482107  0.062288536   -2.5664433    1.0843363   578779 
  268000    1.0127329    -2.565043    -2.565043   -1.4819682  0.056836555    -2.565043    1.0830748   578779 
  269000    1.0137479   -2.5673335   -2.5673335   -1.4831732  0.063109386   -2.5673335    1.0841602   578779 
  270000    1.0143656   -2.5682967   -2.5682967   -1.4834759  0.057601978   -2.5682967    1.0848208   578779 
  271000     1.014117   -2.5682733   -2.5682733   -1.4837183  0.065460435   -2.5682733     1.084555   578779 
  272000    1.0146863   -2.5675126   -2.5675126   -1.4823488  0.067620218   -2.5675126    1.0851638   578779 
  273000    1.0149155   -2.5679213   -2.5679213   -1.4825124  0.066776441   -2.5679213    1.0854089   578779 
  274000    1.0136145   -2.5670139   -2.5670139   -1.4829963  0.065117104   -2.5670139    1.0840175   578779 
  275000    1.0149503   -2.5678283   -2.5678283   -1.4823822  0.063499979   -2.5678283    1.0854461   578779 
  276000    1.0150912   -2.5679939   -2.5679939    -1.482397  0.066441084   -2.5679939    1.0855968   578779 
  277000    1.0156737   -2.5690352   -2.5690352   -1.4828154  0.057801304   -2.5690352    1.0862198   578779 
  278000    1.0135315   -2.5665204   -2.5665204   -1.4825916  0.064518065   -2.5665204    1.0839288   578779 
  279000    1.0151451   -2.5675067   -2.5675067   -1.4818522  0.053260908   -2.5675067    1.0856545   578779 
  280000    1.0137262   -2.5665028   -2.5665028   -1.4823658  0.065405943   -2.5665028     1.084137   578779 
  281000    1.0136088   -2.5662779   -2.5662779   -1.4822665  0.066078134   -2.5662779    1.0840114   578779 
  282000    1.0126343   -2.5657975   -2.5657975   -1.4828282  0.066066396   -2.5657975    1.0829693   578779 
  283000    1.0144373   -2.5675264   -2.5675264    -1.482629  0.056731047   -2.5675264    1.0848975   578779 
  284000     1.013749    -2.565365    -2.565365   -1.4812036  0.065402451    -2.565365    1.0841614   578779 
  285000    1.0150894   -2.5676419   -2.5676419    -1.482047  0.052821376   -2.5676419    1.0855949   578779 
  286000    1.0147167    -2.567299    -2.567299   -1.4821027  0.067539814    -2.567299    1.0851963   578779 
  287000    1.0140775   -2.5671888   -2.5671888   -1.4826761  0.061197345   -2.5671888    1.0845127   578779 
  288000    1.0136367    -2.567204    -2.567204   -1.4831628   0.06042615    -2.567204    1.0840412   578779 
  289000    1.0136101   -2.5675189   -2.5675189   -1.4835061  0.071186095   -2.5675189    1.0840128   578779 
  290000     1.016313   -2.5707157   -2.5707157   -1.4838122  0.076772181   -2.5707157    1.0869035   578779 
  291000    1.0145094   -2.5693505   -2.5693505   -1.4843759  0.068286032   -2.5693505    1.0849746   578779 
  292000     1.013142   -2.5677157   -2.5677157   -1.4842034  0.066032862   -2.5677157    1.0835122   578779 
  293000    1.0130211   -2.5688055   -2.5688055   -1.4854225  0.066739122   -2.5688055    1.0833829   578779 
  294000    1.0140298   -2.5693169   -2.5693169   -1.4848552  0.067710301   -2.5693169    1.0844617   578779 
  295000    1.0137564   -2.5691226   -2.5691226   -1.4849533  0.055680466   -2.5691226    1.0841693   578779 
  296000      1.01313   -2.5684107   -2.5684107   -1.4849113  0.071623197   -2.5684107    1.0834994   578779 
  297000    1.0125043   -2.5682912   -2.5682912    -1.485461  0.053264424   -2.5682912    1.0828302   578779 
  298000    1.0124836   -2.5684327   -2.5684327   -1.4856246  0.057398583   -2.5684327    1.0828081   578779 
  299000    1.0134524   -2.5697902   -2.5697902    -1.485946  0.058201033   -2.5697902    1.0838442   578779 
  300000    1.0135508   -2.5701998   -2.5701998   -1.4862503  0.069939712   -2.5701998    1.0839494   578779 
  301000    1.0144027    -2.571621    -2.571621   -1.4867606  0.051237458    -2.571621    1.0848605   578779 
  302000     1.014249   -2.5716316   -2.5716316   -1.4869354  0.062483023   -2.5716316    1.0846961   578779 
  303000    1.0155691   -2.5732936   -2.5732936   -1.4871856  0.061692011   -2.5732936    1.0861079   578779 
  304000     1.014032   -2.5720679   -2.5720679   -1.4876038  0.070923179   -2.5720679    1.0844641   578779 
  305000    1.0147391   -2.5736063   -2.5736063    -1.488386  0.064481888   -2.5736063    1.0852202   578779 
  306000    1.0137498   -2.5726157   -2.5726157   -1.4884534  0.062325059   -2.5726157    1.0841623   578779 
  307000    1.0141279   -2.5728104   -2.5728104   -1.4882438  0.058881598   -2.5728104    1.0845666   578779 
  308000    1.0138955   -2.5727926   -2.5727926   -1.4884746  0.058775987   -2.5727926     1.084318   578779 
  309000    1.0134179   -2.5724673   -2.5724673   -1.4886599  0.060374674   -2.5724673    1.0838074   578779 
  310000    1.0124016   -2.5708974   -2.5708974    -1.488177  0.067283356   -2.5708974    1.0827204   578779 
  311000    1.0128382   -2.5715879   -2.5715879   -1.4884005  0.064570475   -2.5715879    1.0831874   578779 
  312000    1.0131553   -2.5702376   -2.5702376   -1.4867111  0.064311778   -2.5702376    1.0835264   578779 
  313000    1.0116668   -2.5697598   -2.5697598   -1.4878252  0.061066185   -2.5697598    1.0819346   578779 
  314000    1.0138105   -2.5712871   -2.5712871     -1.48706  0.049149668   -2.5712871    1.0842271   578779 
  315000     1.014235   -2.5728176   -2.5728176   -1.4881365  0.054483158   -2.5728176    1.0846811   578779 
  316000    1.0127346   -2.5701563   -2.5701563   -1.4870798  0.076695218   -2.5701563    1.0830765   578779 
  317000    1.0152588   -2.5724539   -2.5724539   -1.4866778  0.073678399   -2.5724539    1.0857761   578779 
  318000    1.0142023   -2.5720201   -2.5720201   -1.4873739  0.073816586   -2.5720201    1.0846461   578779 
  319000    1.0158892   -2.5741718   -2.5741718   -1.4877215  0.067586555   -2.5741718    1.0864503   578779 
  320000    1.0140654   -2.5720707   -2.5720707   -1.4875708  0.064886881   -2.5720707    1.0844998   578779 
  321000    1.0116952    -2.570276    -2.570276    -1.488311  0.054707459    -2.570276     1.081965   578779 
  322000    1.0132049   -2.5720055   -2.5720055    -1.488426  0.066468793   -2.5720055    1.0835795   578779 
  323000    1.0133646   -2.5722156   -2.5722156   -1.4884653  0.063397883   -2.5722156    1.0837504   578779 
  324000    1.0126872   -2.5717361   -2.5717361   -1.4887103  0.062641813   -2.5717361    1.0830258   578779 
  325000    1.0135359   -2.5720306   -2.5720306   -1.4880971  0.061693198   -2.5720306    1.0839335   578779 
  326000    1.0136128   -2.5717929   -2.5717929   -1.4877772  0.061742154   -2.5717929    1.0840158   578779 
  327000    1.0146845   -2.5734067   -2.5734067   -1.4882448   0.06303326   -2.5734067    1.0851619   578779 
  328000    1.0135058    -2.573079    -2.573079   -1.4891777  0.075913578    -2.573079    1.0839013   578779 
  329000    1.0127174    -2.572072    -2.572072   -1.4890139  0.062259928    -2.572072    1.0830581   578779 
  330000    1.0136638   -2.5727456   -2.5727456   -1.4886753  0.064613309   -2.5727456    1.0840703   578779 
  331000    1.0130315   -2.5726294   -2.5726294   -1.4892354  0.064832182   -2.5726294     1.083394   578779 
  332000     1.014287   -2.5739019   -2.5739019   -1.4891651  0.080256963   -2.5739019    1.0847367   578779 
  333000    1.0145896   -2.5745048   -2.5745048   -1.4894444  0.067981027   -2.5745048    1.0850604   578779 
  334000    1.0158568   -2.5759579   -2.5759579   -1.4895424  0.067738527   -2.5759579    1.0864155   578779 
  335000    1.0142687   -2.5735779   -2.5735779   -1.4888607  0.071864238   -2.5735779    1.0847172   578779 
  336000    1.0128176   -2.5730367   -2.5730367   -1.4898714  0.062005827   -2.5730367    1.0831653   578779 
  337000    1.0136038   -2.5735203   -2.5735203   -1.4895142  0.068089371   -2.5735203    1.0840061   578779 
  338000    1.0136718    -2.574189    -2.574189   -1.4901102  0.056211021    -2.574189    1.0840789   578779 
  339000    1.0138641   -2.5743682   -2.5743682   -1.4900837  0.071723078   -2.5743682    1.0842845   578779 
  340000     1.012398   -2.5729276   -2.5729276    -1.490211  0.063545697   -2.5729276    1.0827165   578779 
  341000    1.0134421   -2.5738014   -2.5738014   -1.4899682  0.060853718   -2.5738014    1.0838332   578779 
  342000    1.0103463   -2.5704405   -2.5704405   -1.4899181  0.065731309   -2.5704405    1.0805223   578779 
  343000     1.014283   -2.5742606   -2.5742606   -1.4895281  0.061195856   -2.5742606    1.0847325   578779 
  344000    1.0136316   -2.5743045   -2.5743045   -1.4902686  0.059291744   -2.5743045    1.0840359   578779 
  345000    1.0150139   -2.5759818   -2.5759818   -1.4904677  0.075722712   -2.5759818    1.0855141   578779 
  346000    1.0137615   -2.5753493   -2.5753493   -1.4911745  0.061637688   -2.5753493    1.0841748   578779 
  347000    1.0161043   -2.5783892   -2.5783892   -1.4917089  0.068634472   -2.5783892    1.0866803   578779 
  348000    1.0149422   -2.5776587   -2.5776587   -1.4922212  0.062401741   -2.5776587    1.0854375   578779 
  349000    1.0131431   -2.5758865   -2.5758865   -1.4923731  0.072435121   -2.5758865    1.0835134   578779 
  350000    1.0135313   -2.5755715   -2.5755715   -1.4916429  0.062831072   -2.5755715    1.0839286   578779 
  351000    1.0126453   -2.5744664   -2.5744664   -1.4914854  0.066032533   -2.5744664     1.082981   578779 
  352000    1.0114982   -2.5730047   -2.5730047   -1.4912505  0.063544537   -2.5730047    1.0817542   578779 
  353000    1.0111021     -2.57304     -2.57304   -1.4917093  0.064081419     -2.57304    1.0813307   578779 
  354000    1.0110753   -2.5740605   -2.5740605   -1.4927584  0.055574309   -2.5740605     1.081302   578779 
  355000    1.0104032   -2.5724292   -2.5724292    -1.491846  0.061232407   -2.5724292    1.0805832   578779 
  356000    1.0119926   -2.5746514   -2.5746514   -1.4923684  0.054288767   -2.5746514     1.082283   578779 
  357000    1.0118734   -2.5743512   -2.5743512   -1.4921956  0.062284898   -2.5743512    1.0821555   578779 
  358000    1.0121899   -2.5750618   -2.5750618   -1.4925677  0.060819001   -2.5750618     1.082494   578779 
  359000      1.01403   -2.5761185   -2.5761185   -1.4916566  0.063723404   -2.5761185    1.0844619   578779 
  360000    1.0123546    -2.575399    -2.575399   -1.4927289  0.055585827    -2.575399    1.0826701   578779 
  361000    1.0129048   -2.5757822   -2.5757822   -1.4925237  0.073965303   -2.5757822    1.0832586   578779 
  362000    1.0140012    -2.577053    -2.577053   -1.4926219  0.069714908    -2.577053    1.0844311   578779 
  363000    1.0151418   -2.5773894   -2.5773894   -1.4917385  0.078117097   -2.5773894    1.0856509   578779 
  364000    1.0133611   -2.5768152   -2.5768152   -1.4930686  0.061797939   -2.5768152    1.0837466   578779 
  365000     1.012823   -2.5758122   -2.5758122   -1.4926411  0.068578993   -2.5758122    1.0831711   578779 
  366000     1.013133   -2.5757869   -2.5757869   -1.4922843   0.05609191   -2.5757869    1.0835026   578779 
  367000    1.0134497   -2.5775255   -2.5775255   -1.4936842  0.057282952   -2.5775255    1.0838414   578779 
  368000    1.0117592   -2.5764465   -2.5764465    -1.494413    0.0521093   -2.5764465    1.0820334   578779 
  369000    1.0141683   -2.5785873   -2.5785873   -1.4939775  0.065691929   -2.5785873    1.0846098   578779 
  370000    1.0143454   -2.5789131   -2.5789131   -1.4941138  0.069899786   -2.5789131    1.0847993   578779 
  371000    1.0121795   -2.5765645   -2.5765645   -1.4940816  0.053781921   -2.5765645    1.0824829   578779 
  372000    1.0119002     -2.57694     -2.57694   -1.4947559  0.060853623     -2.57694    1.0821841   578779 
  373000    1.0129172   -2.5776213   -2.5776213   -1.4943495  0.050472495   -2.5776213    1.0832718   578779 
  374000    1.0099474    -2.574896    -2.574896   -1.4948003   0.05486082    -2.574896    1.0800957   578779 
  375000    1.0113603   -2.5760877   -2.5760877   -1.4944809  0.069141839   -2.5760877    1.0816068   578779 
  376000    1.0111248   -2.5751789   -2.5751789   -1.4938239  0.061738822   -2.5751789     1.081355   578779 
  377000    1.0126191   -2.5760838   -2.5760838   -1.4931307  0.064227998   -2.5760838    1.0829531   578779 
  378000    1.0136223   -2.5767293   -2.5767293   -1.4927034  0.065687893   -2.5767293    1.0840259   578779 
  379000    1.0125264   -2.5757457   -2.5757457   -1.4928917  0.062571312   -2.5757457    1.0828539   578779 
  380000    1.0128406   -2.5761819   -2.5761819    -1.492992  0.047296334   -2.5761819    1.0831899   578779 
  381000    1.0147093   -2.5780051   -2.5780051   -1.4928167  0.055474821   -2.5780051    1.0851884   578779 
  382000    1.0134058   -2.5766411   -2.5766411   -1.4928467  0.068703919   -2.5766411    1.0837943   578779 
  383000    1.0122557   -2.5751001   -2.5751001   -1.4925357  0.063866125   -2.5751001    1.0825644   578779 
  384000    1.0125311   -2.5753011   -2.5753011   -1.4924423  0.067729418   -2.5753011    1.0828589   578779 
  385000    1.0114774   -2.5742167   -2.5742167   -1.4924848  0.064810747   -2.5742167     1.081732   578779 
  386000    1.0114862     -2.57493     -2.57493   -1.4931886  0.062593796     -2.57493    1.0817414   578779 
  387000    1.0113181   -2.5735609   -2.5735609   -1.4919992  0.056352573   -2.5735609    1.0815617   578779 
  388000    1.0112364   -2.5752119   -2.5752119   -1.4937376  0.051890848   -2.5752119    1.0814743   578779 
  389000    1.0137346   -2.5778983   -2.5778983   -1.4937523  0.054964128   -2.5778983     1.084146   578779 
  390000    1.0117133   -2.5762165   -2.5762165   -1.4942322  0.069673836   -2.5762165    1.0819843   578779 
  391000    1.0125657   -2.5772421   -2.5772421   -1.4943463   0.05399647   -2.5772421    1.0828959   578779 
  392000    1.0119269   -2.5762603   -2.5762603   -1.4940475  0.064988014   -2.5762603    1.0822127   578779 
  393000    1.0136454   -2.5795523   -2.5795523   -1.4955017  0.060574949   -2.5795523    1.0840506   578779 
  394000    1.0135846   -2.5791244   -2.5791244   -1.4951389   0.07146594   -2.5791244    1.0839856   578779 
  395000     1.012904   -2.5784313   -2.5784313   -1.4951735  0.057858482   -2.5784313    1.0832577   578779 
  396000    1.0120822   -2.5777097   -2.5777097   -1.4953309  0.071692401   -2.5777097    1.0823789   578779 
  397000    1.0110952    -2.577312    -2.577312   -1.4959887  0.071337316    -2.577312    1.0813233   578779 
  398000    1.0119757   -2.5786142   -2.5786142   -1.4963492  0.075965198   -2.5786142    1.0822649   578779 
  399000    1.0124292   -2.5791569   -2.5791569    -1.496407  0.059015932   -2.5791569    1.0827499   578779 
  400000    1.0128481   -2.5786409   -2.5786409   -1.4954429  0.059636095   -2.5786409    1.0831979   578779 
  401000    1.0118007   -2.5774368   -2.5774368   -1.4953591  0.059025879   -2.5774368    1.0820777   578779 
  402000    1.0126769   -2.5786295   -2.5786295   -1.4956147  0.055062123   -2.5786295    1.0830148   578779 
  403000    1.0113887   -2.5773765   -2.5773765   -1.4957393  0.056077648   -2.5773765    1.0816371   578779 
  404000     1.011329   -2.5771297   -2.5771297   -1.4955565  0.064807996   -2.5771297    1.0815733   578779 
  405000    1.0115375   -2.5784569   -2.5784569   -1.4966607  0.067676675   -2.5784569    1.0817962   578779 
  406000    1.0107813   -2.5772061   -2.5772061   -1.4962186  0.067907839   -2.5772061    1.0809875   578779 
  407000       1.0116   -2.5789916   -2.5789916   -1.4971285  0.061944136   -2.5789916    1.0818631   578779 
  408000    1.0125612   -2.5801601   -2.5801601    -1.497269  0.059758674   -2.5801601    1.0828911   578779 
  409000    1.0123568   -2.5793203   -2.5793203   -1.4966478   0.06134303   -2.5793203    1.0826725   578779 
  410000    1.0114904   -2.5781845   -2.5781845   -1.4964386  0.055991383   -2.5781845    1.0817459   578779 
  411000    1.0118265   -2.5792366   -2.5792366   -1.4971312  0.056226298   -2.5792366    1.0821054   578779 
  412000    1.0117838   -2.5795005   -2.5795005   -1.4974407  0.066398223   -2.5795005    1.0820597   578779 
  413000    1.0103065   -2.5789165   -2.5789165   -1.4984367  0.063538491   -2.5789165    1.0804798   578779 
  414000    1.0101767   -2.5787261   -2.5787261   -1.4983852  0.061379082   -2.5787261    1.0803409   578779 
  415000    1.0110408   -2.5796067   -2.5796067   -1.4983416  0.073161827   -2.5796067    1.0812651   578779 
  416000    1.0107438   -2.5792362   -2.5792362   -1.4982888  0.077038969   -2.5792362    1.0809474   578779 
  417000    1.0113474   -2.5795623   -2.5795623   -1.4979693  0.070452576   -2.5795623     1.081593   578779 
  418000    1.0135128   -2.5818848   -2.5818848    -1.497976  0.066965659   -2.5818848    1.0839088   578779 
  419000    1.0118804   -2.5798181   -2.5798181   -1.4976551  0.060265218   -2.5798181     1.082163   578779 
  420000    1.0131301    -2.580829    -2.580829   -1.4973295  0.065850479    -2.580829    1.0834995   578779 
  421000     1.011557   -2.5793324   -2.5793324   -1.4975152  0.058247206   -2.5793324    1.0818171   578779 
  422000    1.0121824   -2.5800466   -2.5800466   -1.4975606  0.068736485   -2.5800466     1.082486   578779 
  423000    1.0120866   -2.5800757   -2.5800757   -1.4976922  0.062857328   -2.5800757    1.0823835   578779 
  424000    1.0119206   -2.5793857   -2.5793857   -1.4971797  0.066308943   -2.5793857     1.082206   578779 
  425000    1.0123112   -2.5794135   -2.5794135   -1.4967898  0.074217951   -2.5794135    1.0826238   578779 
  426000    1.0126467   -2.5799791   -2.5799791   -1.4969965  0.054381358   -2.5799791    1.0829826   578779 
  427000    1.0135615   -2.5807053   -2.5807053   -1.4967445  0.056671974   -2.5807053    1.0839608   578779 
  428000    1.0115802   -2.5795319   -2.5795319   -1.4976899  0.063308661   -2.5795319     1.081842   578779 
  429000    1.0108504   -2.5783052   -2.5783052   -1.4972437  0.061693998   -2.5783052    1.0810615   578779 
  430000    1.0112124   -2.5784139   -2.5784139   -1.4969652  0.069658237   -2.5784139    1.0814487   578779 
  431000    1.0123642   -2.5798356   -2.5798356   -1.4971552   0.05394731   -2.5798356    1.0826805   578779 
  432000     1.011514   -2.5790974   -2.5790974   -1.4973263   0.05860182   -2.5790974    1.0817711   578779 
  433000    1.0123347   -2.5804549   -2.5804549    -1.497806  0.061620968   -2.5804549    1.0826488   578779 
  434000    1.0119743   -2.5798461   -2.5798461   -1.4975826   0.07829675   -2.5798461    1.0822634   578779 
  435000    1.0144498   -2.5819304   -2.5819304   -1.4970195  0.069357399   -2.5819304    1.0849109   578779 
  436000    1.0138935   -2.5819624   -2.5819624   -1.4976465  0.069361606   -2.5819624    1.0843159   578779 
  437000    1.0137793   -2.5821704   -2.5821704   -1.4979766  0.067607466   -2.5821704    1.0841939   578779 
  438000    1.0118687   -2.5807274   -2.5807274    -1.498577  0.061278964   -2.5807274    1.0821505   578779 
  439000    1.0154619   -2.5837571   -2.5837571   -1.4977638  0.058466676   -2.5837571    1.0859933   578779 
  440000    1.0138621    -2.582389    -2.582389   -1.4981067   0.06274844    -2.582389    1.0842823   578779 
  441000    1.0138913    -2.582058    -2.582058   -1.4977444  0.052025364    -2.582058    1.0843136   578779 
  442000    1.0143517   -2.5824991   -2.5824991   -1.4976931  0.065177496   -2.5824991    1.0848059   578779 
  443000     1.013042   -2.5811284   -2.5811284   -1.4977231  0.068865315   -2.5811284    1.0834053   578779 
  444000    1.0123729     -2.58087     -2.58087   -1.4981802  0.072843547     -2.58087    1.0826897   578779 
  445000    1.0133154   -2.5818976   -2.5818976   -1.4981999  0.064258158   -2.5818976    1.0836977   578779 
  446000     1.015128   -2.5840069   -2.5840069   -1.4983708  0.061008079   -2.5840069    1.0856361   578779 
  447000    1.0138135   -2.5826506   -2.5826506   -1.4984202   0.07720801   -2.5826506    1.0842304   578779 
  448000    1.0131961   -2.5816459   -2.5816459   -1.4980758  0.066060102   -2.5816459    1.0835701   578779 
  449000    1.0133643    -2.582151    -2.582151   -1.4984011  0.064480969    -2.582151      1.08375   578779 
  450000    1.0146827   -2.5835686   -2.5835686   -1.4984087  0.071437949   -2.5835686      1.08516   578779 
  451000    1.0128071   -2.5819201   -2.5819201    -1.498766  0.063068451   -2.5819201    1.0831541   578779 
  452000    1.0142155    -2.583074    -2.583074   -1.4984138   0.06698814    -2.583074    1.0846603   578779 
  453000    1.0144842   -2.5829874   -2.5829874   -1.4980397  0.059801767   -2.5829874    1.0849476   578779 
  454000    1.0124172   -2.5812712   -2.5812712   -1.4985341  0.056971977   -2.5812712    1.0827371   578779 
  455000    1.0129577    -2.581571    -2.581571   -1.4982559  0.062949614    -2.581571    1.0833152   578779 
  456000    1.0146557   -2.5845587   -2.5845587   -1.4994276  0.067161102   -2.5845587    1.0851311   578779 
  457000    1.0123711   -2.5819842   -2.5819842   -1.4992964  0.062702556   -2.5819842    1.0826878   578779 
  458000    1.0134953   -2.5831687   -2.5831687   -1.4992786  0.056724168   -2.5831687    1.0838901   578779 
  459000    1.0122164   -2.5818492   -2.5818492   -1.4993268  0.059897821   -2.5818492    1.0825224   578779 
  460000    1.0108283   -2.5809617   -2.5809617   -1.4999238  0.055288211   -2.5809617    1.0810378   578779 
  461000     1.011395   -2.5821136   -2.5821136   -1.5004697   0.06383939   -2.5821136    1.0816439   578779 
  462000    1.0110971   -2.5816577   -2.5816577   -1.5003323  0.066547119   -2.5816577    1.0813253   578779 
  463000    1.0099202   -2.5803634   -2.5803634   -1.5002967  0.063107151   -2.5803634    1.0800667   578779 
  464000    1.0112846   -2.5819401   -2.5819401   -1.5004142  0.070800495   -2.5819401    1.0815259   578779 
  465000    1.0110035   -2.5818546   -2.5818546   -1.5006294  0.061332035   -2.5818546    1.0812252   578779 
  466000     1.011704   -2.5831794   -2.5831794   -1.5012051  0.061063023   -2.5831794    1.0819744   578779 
  467000    1.0100192   -2.5816339   -2.5816339   -1.5014614  0.065081709   -2.5816339    1.0801725   578779 
  468000    1.0120199   -2.5832732   -2.5832732    -1.500961  0.054179756   -2.5832732    1.0823122   578779 
  469000    1.0136835   -2.5852609   -2.5852609   -1.5011696  0.062786695   -2.5852609    1.0840914   578779 
  470000    1.0107903   -2.5823297   -2.5823297   -1.5013325  0.064721239   -2.5823297    1.0809972   578779 
  471000    1.0104369   -2.5816106   -2.5816106   -1.5009913  0.060759299   -2.5816106    1.0806192   578779 
  472000      1.01136   -2.5833978   -2.5833978   -1.5017914  0.061688541   -2.5833978    1.0816065   578779 
  473000    1.0109565   -2.5821164   -2.5821164   -1.5009415  0.062938998   -2.5821164    1.0811749   578779 
  474000     1.011776   -2.5835763   -2.5835763   -1.5015249  0.068997425   -2.5835763    1.0820514   578779 
  475000    1.0133247   -2.5849594   -2.5849594   -1.5012518  0.061672322   -2.5849594    1.0837076   578779 
  476000    1.0153475   -2.5862164   -2.5862164   -1.5003455  0.076189525   -2.5862164     1.085871   578779 
  477000    1.0144605   -2.5852571   -2.5852571   -1.5003348  0.064580637   -2.5852571    1.0849223   578779 
  478000    1.0132931   -2.5856613   -2.5856613   -1.5019876  0.065933454   -2.5856613    1.0836738   578779 
  479000    1.0106489    -2.582421    -2.582421    -1.501575  0.059141691    -2.582421     1.080846   578779 
  480000    1.0113234   -2.5827231   -2.5827231   -1.5011558   0.06348877   -2.5827231    1.0815673   578779 
  481000    1.0110394   -2.5816505   -2.5816505   -1.5003869  0.059320806   -2.5816505    1.0812636   578779 
  482000    1.0100345   -2.5809751   -2.5809751   -1.5007862  0.067659579   -2.5809751    1.0801889   578779 
  483000    1.0098859    -2.580997    -2.580997    -1.500967  0.056439548    -2.580997      1.08003   578779 
  484000     1.008285   -2.5800846   -2.5800846   -1.5017667  0.061565146   -2.5800846    1.0783179   578779 
  485000    1.0096297    -2.581627    -2.581627   -1.5018711  0.055451762    -2.581627     1.079756   578779 
  486000    1.0108943   -2.5827066   -2.5827066   -1.5015981  0.070147602   -2.5827066    1.0811084   578779 
  487000    1.0121875   -2.5830626   -2.5830626   -1.5005711  0.071736162   -2.5830626    1.0824915   578779 
  488000    1.0112555   -2.5825125   -2.5825125   -1.5010178  0.070074544   -2.5825125    1.0814947   578779 
  489000    1.0116194   -2.5826437   -2.5826437   -1.5007598  0.059450822   -2.5826437    1.0818839   578779 
  490000    1.0121137   -2.5834953   -2.5834953   -1.5010828  0.070316895   -2.5834953    1.0824125   578779 
  491000    1.0139962   -2.5857786   -2.5857786   -1.5013529  0.075817623   -2.5857786    1.0844257   578779 
  492000    1.0130635   -2.5852495   -2.5852495   -1.5018213  0.066093022   -2.5852495    1.0834283   578779 
  493000    1.0126712    -2.585317    -2.585317   -1.5023082  0.064540961    -2.585317    1.0830088   578779 
  494000    1.0128037   -2.5850912   -2.5850912   -1.5019408  0.060829772   -2.5850912    1.0831504   578779 
  495000    1.0146657   -2.5870837   -2.5870837   -1.5019419  0.059733076   -2.5870837    1.0851418   578779 
  496000    1.0143857   -2.5858806   -2.5858806   -1.5010383  0.071981057   -2.5858806    1.0848423   578779 
  497000    1.0138281   -2.5853694   -2.5853694   -1.5011234  0.058292621   -2.5853694     1.084246   578779 
  498000    1.0114731    -2.583066    -2.583066   -1.5013386  0.065712196    -2.583066    1.0817274   578779 
  499000    1.0104718   -2.5813718   -2.5813718   -1.5007152  0.053938266   -2.5813718    1.0806566   578779 
  500000    1.0127742   -2.5839902   -2.5839902   -1.5008713  0.066293809   -2.5839902    1.0831189   578779 
  501000    1.0106543   -2.5826671   -2.5826671   -1.5018153  0.056091764   -2.5826671    1.0808518   578779 
  502000    1.0114601   -2.5836712   -2.5836712   -1.5019577  0.066279933   -2.5836712    1.0817135   578779 
  503000    1.0107506   -2.5833155   -2.5833155   -1.5023607  0.065904146   -2.5833155    1.0809548   578779 
  504000    1.0082626   -2.5809911   -2.5809911   -1.5026973  0.070471431   -2.5809911    1.0782939   578779 
  505000    1.0133903   -2.5869317   -2.5869317    -1.503154  0.058238944   -2.5869317    1.0837778   578779 
  506000    1.0123027   -2.5854004   -2.5854004   -1.5027857  0.059459066   -2.5854004    1.0826147   578779 
  507000    1.0118332   -2.5846736   -2.5846736   -1.5025611  0.062687984   -2.5846736    1.0821125   578779 
  508000    1.0115616    -2.585411    -2.585411   -1.5035889  0.069598014    -2.585411    1.0818221   578779 
  509000    1.0108071   -2.5851523   -2.5851523   -1.5041371  0.067002957   -2.5851523    1.0810152   578779 
  510000    1.0106637   -2.5849495   -2.5849495   -1.5040877  0.055515955   -2.5849495    1.0808618   578779 
  511000    1.0096286    -2.583438    -2.583438   -1.5036831  0.058028844    -2.583438    1.0797549   578779 
  512000    1.0100205   -2.5840816   -2.5840816   -1.5039077  0.056924878   -2.5840816     1.080174   578779 
  513000    1.0103312   -2.5840686   -2.5840686   -1.5035624  0.064598573   -2.5840686    1.0805062   578779 
  514000    1.0106289   -2.5836802   -2.5836802   -1.5028556  0.062942362   -2.5836802    1.0808246   578779 
  515000       1.0116   -2.5851539   -2.5851539   -1.5032908  0.057995725   -2.5851539    1.0818632   578779 
  516000    1.0112957   -2.5844301   -2.5844301   -1.5028925  0.060626608   -2.5844301    1.0815377   578779 
  517000    1.0119527   -2.5853362   -2.5853362   -1.5030959  0.059366035   -2.5853362    1.0822403   578779 
  518000    1.0113903   -2.5830798   -2.5830798    -1.501441   0.06739062   -2.5830798    1.0816388   578779 
  519000    1.0108942   -2.5827441   -2.5827441   -1.5016358  0.076319149   -2.5827441    1.0811083   578779 
  520000    1.0110342   -2.5844501   -2.5844501   -1.5031921  0.074325743   -2.5844501     1.081258   578779 
  521000    1.0124035   -2.5856186   -2.5856186   -1.5028962  0.056269524   -2.5856186    1.0827225   578779 
  522000    1.0109192   -2.5841298   -2.5841298   -1.5029948  0.064722559   -2.5841298    1.0811351   578779 
  523000    1.0125547   -2.5852568   -2.5852568   -1.5023727  0.066998327   -2.5852568    1.0828842   578779 
  524000    1.0116659   -2.5836796   -2.5836796    -1.501746  0.065087828   -2.5836796    1.0819336   578779 
  525000    1.0127418   -2.5854264   -2.5854264   -1.5023421  0.056281857   -2.5854264    1.0830843   578779 
  526000    1.0103438   -2.5836492   -2.5836492   -1.5031295  0.060575747   -2.5836492    1.0805197   578779 
  527000    1.0116184   -2.5849979   -2.5849979   -1.5031151  0.060657214   -2.5849979    1.0818829   578779 
  528000    1.0112757   -2.5849833   -2.5849833    -1.503467  0.061320496   -2.5849833    1.0815163   578779 
  529000    1.0125377   -2.5859727   -2.5859727   -1.5031067  0.055893568   -2.5859727    1.0828659   578779 
  530000    1.0129119   -2.5870934   -2.5870934   -1.5038272  0.055490526   -2.5870934    1.0832662   578779 
  531000    1.0114572   -2.5865273   -2.5865273   -1.5048169  0.067180878   -2.5865273    1.0817104   578779 
  532000    1.0105581   -2.5855338   -2.5855338   -1.5047849  0.063740859   -2.5855338    1.0807489   578779 
  533000    1.0121244   -2.5880806   -2.5880806   -1.5056567  0.064527973   -2.5880806    1.0824239   578779 
  534000    1.0111157   -2.5873175   -2.5873175   -1.5059723  0.061564841   -2.5873175    1.0813452   578779 
  535000    1.0119828   -2.5877012   -2.5877012   -1.5054286  0.061986359   -2.5877012    1.0822725   578779 
  536000      1.01054   -2.5865581   -2.5865581   -1.5058286  0.061208433   -2.5865581    1.0807295   578779 
  537000     1.010692   -2.5870705   -2.5870705   -1.5061785  0.069542421   -2.5870705     1.080892   578779 
  538000    1.0110049   -2.5871881   -2.5871881   -1.5059614  0.064285767   -2.5871881    1.0812267   578779 
  539000    1.0110006   -2.5871591   -2.5871591    -1.505937  0.062431598   -2.5871591    1.0812221   578779 
  540000    1.0110582    -2.588314    -2.588314   -1.5070303  0.060612519    -2.588314    1.0812837   578779 
  541000    1.0112465   -2.5884075   -2.5884075   -1.5069224  0.055528577   -2.5884075    1.0814851   578779 
  542000    1.0096062   -2.5867036   -2.5867036   -1.5069728  0.062829408   -2.5867036    1.0797308   578779 
  543000    1.0084171   -2.5855816   -2.5855816   -1.5071225  0.058229445   -2.5855816    1.0784591   578779 
  544000    1.0118894   -2.5892973   -2.5892973   -1.5071246  0.047387685   -2.5892973    1.0821727   578779 
  545000    1.0100831   -2.5868084   -2.5868084   -1.5065675  0.074299418   -2.5868084    1.0802409   578779 
  546000    1.0105117   -2.5875217   -2.5875217   -1.5068224   0.06471592   -2.5875217    1.0806993   578779 
  547000    1.0090416   -2.5858415   -2.5858415   -1.5067144  0.069614354   -2.5858415    1.0791271   578779 
  548000    1.0088013      -2.5856      -2.5856     -1.50673  0.061487547      -2.5856    1.0788701   578779 
  549000    1.0114081   -2.5874292   -2.5874292   -1.5057714   0.06348223   -2.5874292    1.0816579   578779 
  550000    1.0109245   -2.5866972   -2.5866972   -1.5055565  0.058708737   -2.5866972    1.0811407   578779 
  551000    1.0110287   -2.5873238   -2.5873238   -1.5060716  0.058548822   -2.5873238    1.0812522   578779 
  552000     1.011478   -2.5883113   -2.5883113   -1.5065786  0.067056945   -2.5883113    1.0817327   578779 
  553000     1.012824   -2.5895466   -2.5895466   -1.5063745  0.061438952   -2.5895466    1.0831721   578779 
  554000    1.0113574   -2.5881016   -2.5881016    -1.506498  0.065523484   -2.5881016    1.0816037   578779 
  555000    1.0130498   -2.5901954   -2.5901954   -1.5067818  0.068948428   -2.5901954    1.0834136   578779 
  556000    1.0112429   -2.5885425   -2.5885425   -1.5070613  0.055352033   -2.5885425    1.0814812   578779 
  557000    1.0092771   -2.5862096   -2.5862096   -1.5068307  0.055625478   -2.5862096    1.0793789   578779 
  558000    1.0109238   -2.5879986   -2.5879986   -1.5068587  0.072333185   -2.5879986      1.08114   578779 
  559000    1.0112567   -2.5886235   -2.5886235   -1.5071275  0.059176512   -2.5886235     1.081496   578779 
  560000    1.0105956    -2.588419    -2.588419   -1.5076301  0.072638666    -2.588419    1.0807889   578779 
  561000    1.0113434    -2.588771    -2.588771   -1.5071823  0.068739144    -2.588771    1.0815888   578779 
  562000    1.0103177   -2.5882206   -2.5882206   -1.5077288  0.058199216   -2.5882206    1.0804918   578779 
  563000    1.0103754   -2.5889716   -2.5889716   -1.5084181   0.04926752   -2.5889716    1.0805535   578779 
  564000    1.0100748   -2.5887428   -2.5887428   -1.5085108  0.057303732   -2.5887428     1.080232   578779 
  565000    1.0106362   -2.5896349   -2.5896349   -1.5088025  0.058483572   -2.5896349    1.0808324   578779 
  566000    1.0111417   -2.5903944   -2.5903944   -1.5090214  0.055733076   -2.5903944     1.081373   578779 
  567000     1.011034   -2.5902457   -2.5902457   -1.5089878  0.059773295   -2.5902457    1.0812578   578779 
  568000    1.0099745   -2.5899181   -2.5899181   -1.5097934  0.060498565   -2.5899181    1.0801247   578779 
  569000    1.0104383   -2.5889763   -2.5889763   -1.5083556  0.059882422   -2.5889763    1.0806207   578779 
  570000    1.0097245   -2.5886913   -2.5886913   -1.5088339  0.067251136   -2.5886913    1.0798574   578779 
  571000    1.0118854   -2.5907196   -2.5907196   -1.5085512  0.074003748   -2.5907196    1.0821684   578779 
  572000    1.0103727    -2.589117    -2.589117   -1.5085665  0.061926785    -2.589117    1.0805505   578779 
  573000    1.0091027   -2.5880333   -2.5880333    -1.508841  0.064567719   -2.5880333    1.0791923   578779 
  574000    1.0090015   -2.5886484   -2.5886484   -1.5095643  0.060218791   -2.5886484    1.0790842   578779 
  575000    1.0099565   -2.5899226   -2.5899226   -1.5098171  0.055759567   -2.5899226    1.0801055   578779 
  576000    1.0099542   -2.5900026   -2.5900026   -1.5098996  0.060689709   -2.5900026     1.080103   578779 
  577000    1.0089001   -2.5903861   -2.5903861   -1.5114104  0.064396186   -2.5903861    1.0789757   578779 
  578000    1.0096289   -2.5913684   -2.5913684   -1.5116132  0.065906388   -2.5913684    1.0797552   578779 
  579000    1.0091793   -2.5905618   -2.5905618   -1.5112875  0.054670806   -2.5905618    1.0792743   578779 
  580000     1.010129   -2.5912128   -2.5912128   -1.5109228  0.061450077   -2.5912128    1.0802899   578779 
  581000    1.0129297   -2.5937926   -2.5937926   -1.5105074  0.053666588   -2.5937926    1.0832852   578779 
  582000     1.010083   -2.5903724   -2.5903724   -1.5101316  0.058433546   -2.5903724    1.0802408   578779 
  583000    1.0089703   -2.5894669   -2.5894669   -1.5104162  0.067118537   -2.5894669    1.0790507   578779 
  584000    1.0105171   -2.5913962   -2.5913962   -1.5106911  0.064979454   -2.5913962     1.080705   578779 
  585000    1.0114525   -2.5917879   -2.5917879   -1.5100825  0.070713732   -2.5917879    1.0817054   578779 
  586000    1.0103296   -2.5906478   -2.5906478   -1.5101433   0.07813773   -2.5906478    1.0805045   578779 
  587000    1.0113292   -2.5920691   -2.5920691   -1.5104955  0.063210959   -2.5920691    1.0815736   578779 
  588000    1.0107589   -2.5906012   -2.5906012   -1.5096376  0.063158906   -2.5906012    1.0809636   578779 
  589000    1.0098409   -2.5897329   -2.5897329   -1.5097511  0.063848759   -2.5897329    1.0799818   578779 
  590000    1.0118072     -2.59073     -2.59073   -1.5086453  0.069051786     -2.59073    1.0820847   578779 
  591000    1.0103349   -2.5903458   -2.5903458   -1.5098356  0.065043754   -2.5903458    1.0805102   578779 
  592000    1.0084574   -2.5888243   -2.5888243   -1.5103221  0.062226109   -2.5888243    1.0785023   578779 
  593000     1.012143    -2.591783    -2.591783   -1.5093392  0.052042719    -2.591783    1.0824438   578779 
  594000    1.0108248   -2.5901426   -2.5901426   -1.5091084  0.058590915   -2.5901426    1.0810341   578779 
  595000    1.0098823   -2.5890706   -2.5890706   -1.5090444   0.06872707   -2.5890706    1.0800261   578779 
  596000    1.0097345   -2.5900705   -2.5900705   -1.5102025  0.064953111   -2.5900705     1.079868   578779 
  597000    1.0111571   -2.5905854   -2.5905854    -1.509196   0.05962409   -2.5905854    1.0813895   578779 
  598000    1.0106964   -2.5913533   -2.5913533   -1.5104566  0.063215279   -2.5913533    1.0808967   578779 
  599000    1.0093655   -2.5900334   -2.5900334     -1.51056  0.066119459   -2.5900334    1.0794734   578779 
  600000    1.0124886   -2.5932428   -2.5932428   -1.5104294  0.065523977   -2.5932428    1.0828134   578779 
  601000    1.0085762   -2.5894094   -2.5894094   -1.5107801  0.068076216   -2.5894094    1.0786293   578779 
  602000    1.0098761   -2.5900742   -2.5900742   -1.5100547  0.055854439   -2.5900742    1.0800195   578779 
  603000    1.0110214   -2.5908129   -2.5908129   -1.5095686  0.057912948   -2.5908129    1.0812443   578779 
  604000    1.0111221   -2.5921064   -2.5921064   -1.5107544  0.070553125   -2.5921064     1.081352   578779 
  605000    1.0109173   -2.5915934   -2.5915934   -1.5104603  0.068538845   -2.5915934    1.0811331   578779 
  606000    1.0105767   -2.5916412   -2.5916412   -1.5108724   0.06419963   -2.5916412    1.0807688   578779 
  607000    1.0107554   -2.5911393   -2.5911393   -1.5101794  0.061901033   -2.5911393    1.0809599   578779 
  608000     1.010946   -2.5912831   -2.5912831   -1.5101194  0.051347761   -2.5912831    1.0811637   578779 
  609000    1.0104993   -2.5902704   -2.5902704   -1.5095844   0.05077712   -2.5902704    1.0806859   578779 
  610000    1.0095892   -2.5894138   -2.5894138   -1.5097012  0.053906585   -2.5894138    1.0797126   578779 
  611000    1.0098549   -2.5894054   -2.5894054   -1.5094086  0.060281377   -2.5894054    1.0799968   578779 
  612000     1.011658   -2.5913496   -2.5913496   -1.5094244  0.064049789   -2.5913496    1.0819252   578779 
  613000    1.0129909   -2.5923885   -2.5923885   -1.5090379  0.061084034   -2.5923885    1.0833506   578779 
  614000    1.0112799   -2.5915773   -2.5915773   -1.5100565  0.066152524   -2.5915773    1.0815208   578779 
  615000     1.010943   -2.5915054   -2.5915054    -1.510345  0.069751276   -2.5915054    1.0811605   578779 
  616000    1.0124512   -2.5923261   -2.5923261   -1.5095527  0.058320248   -2.5923261    1.0827734   578779 
  617000    1.0116964   -2.5919362   -2.5919362   -1.5099699  0.066317186   -2.5919362    1.0819662   578779 
  618000    1.0107947   -2.5920592   -2.5920592   -1.5110574  0.049430264   -2.5920592    1.0810019   578779 
  619000    1.0101598   -2.5914522   -2.5914522   -1.5111293  0.064989469   -2.5914522    1.0803229   578779 
  620000    1.0109071    -2.592398    -2.592398   -1.5112759   0.06481544    -2.592398    1.0811221   578779 
  621000    1.0124239    -2.594236    -2.594236   -1.5114917  0.058070486    -2.594236    1.0827443   578779 
  622000    1.0104621   -2.5924027   -2.5924027   -1.5117565  0.061565012   -2.5924027    1.0806462   578779 
  623000     1.010044   -2.5917246   -2.5917246   -1.5115255  0.071536204   -2.5917246    1.0801991   578779 
  624000    1.0086233   -2.5912035   -2.5912035   -1.5125238   0.05750035   -2.5912035    1.0786797   578779 
  625000    1.0089925   -2.5915986   -2.5915986    -1.512524  0.052310504   -2.5915986    1.0790746   578779 
  626000    1.0100626    -2.592454    -2.592454   -1.5122351  0.060675871    -2.592454    1.0802189   578779 
  627000    1.0095794   -2.5917306   -2.5917306   -1.5120283  0.062999897   -2.5917306    1.0797022   578779 
  628000    1.0088722   -2.5910809   -2.5910809    -1.512135  0.060570724   -2.5910809    1.0789459   578779 
  629000    1.0104101     -2.59192     -2.59192   -1.5113294  0.064966504     -2.59192    1.0805906   578779 
  630000    1.0103697    -2.593175    -2.593175   -1.5126276  0.060994132    -2.593175    1.0805474   578779 
  631000    1.0109806   -2.5934073   -2.5934073   -1.5122066  0.066936355   -2.5934073    1.0812007   578779 
  632000    1.0123064   -2.5953761   -2.5953761   -1.5127575  0.072689135   -2.5953761    1.0826186   578779 
  633000    1.0112682   -2.5940659   -2.5940659   -1.5125576  0.072100494   -2.5940659    1.0815083   578779 
  634000    1.0086486   -2.5913021   -2.5913021   -1.5125954  0.071562183   -2.5913021    1.0787067   578779 
  635000    1.0113481    -2.594459    -2.594459   -1.5128652  0.070756448    -2.594459    1.0815938   578779 
  636000    1.0108777   -2.5934151   -2.5934151   -1.5123244  0.054337273   -2.5934151    1.0810907   578779 
  637000    1.0108976   -2.5933479   -2.5933479   -1.5122359  0.055427212   -2.5933479     1.081112   578779 
  638000    1.0115402   -2.5935427   -2.5935427   -1.5117434  0.058200994   -2.5935427    1.0817992   578779 
  639000    1.0116318   -2.5927623   -2.5927623   -1.5108652  0.065946813   -2.5927623    1.0818971   578779 
  640000    1.0087939   -2.5912154   -2.5912154   -1.5123533  0.051137442   -2.5912154    1.0788621   578779 
  641000    1.0088536   -2.5912325   -2.5912325   -1.5123065  0.073789573   -2.5912325     1.078926   578779 
  642000    1.0093599   -2.5916185   -2.5916185    -1.512151  0.063814029   -2.5916185    1.0794675   578779 
  643000    1.0125178   -2.5941828   -2.5941828   -1.5113382  0.057654096   -2.5941828    1.0828446   578779 
  644000    1.0115627   -2.5942803   -2.5942803    -1.512457   0.06441542   -2.5942803    1.0818233   578779 
  645000    1.0112487   -2.5942035   -2.5942035   -1.5127161  0.073894692   -2.5942035    1.0814874   578779 
  646000      1.01079   -2.5939973   -2.5939973   -1.5130005  0.054190471   -2.5939973    1.0809969   578779 
  647000    1.0107631   -2.5937522   -2.5937522   -1.5127841  0.058608131   -2.5937522    1.0809681   578779 
  648000    1.0103332   -2.5934055   -2.5934055   -1.5128971  0.069655701   -2.5934055    1.0805083   578779 
  649000    1.0107909   -2.5939774   -2.5939774   -1.5129796  0.064911315   -2.5939774    1.0809979   578779 
  650000    1.0113513   -2.5940399   -2.5940399   -1.5124427  0.074202705   -2.5940399    1.0815972   578779 
  651000    1.0118826   -2.5949465   -2.5949465   -1.5127812  0.060792602   -2.5949465    1.0821653   578779 
  652000     1.010418   -2.5939798   -2.5939798   -1.5133808  0.053945119   -2.5939798     1.080599   578779 
  653000    1.0090454   -2.5923133   -2.5923133   -1.5131822  0.058959428   -2.5923133    1.0791311   578779 
  654000    1.0097758   -2.5926356   -2.5926356   -1.5127234  0.065344048   -2.5926356    1.0799122   578779 
  655000    1.0093692   -2.5926328   -2.5926328   -1.5131554  0.058659392   -2.5926328    1.0794774   578779 
  656000    1.0093465   -2.5925894   -2.5925894   -1.5131363  0.058451923   -2.5925894    1.0794531   578779 
  657000    1.0097223   -2.5929687   -2.5929687   -1.5131137  0.065225142   -2.5929687     1.079855   578779 
  658000    1.0102884   -2.5943118   -2.5943118   -1.5138514  0.063852801   -2.5943118    1.0804604   578779 
  659000    1.0104255   -2.5945483   -2.5945483   -1.5139412  0.060373484   -2.5945483     1.080607   578779 
  660000    1.0105278   -2.5946177   -2.5946177   -1.5139012  0.066134591   -2.5946177    1.0807165   578779 
  661000    1.0097676   -2.5946247   -2.5946247   -1.5147213   0.06318698   -2.5946247    1.0799034   578779 
  662000    1.0101043   -2.5938014   -2.5938014   -1.5135379  0.058862388   -2.5938014    1.0802635   578779 
  663000    1.0103613   -2.5941862   -2.5941862   -1.5136478   0.07035796   -2.5941862    1.0805384   578779 
  664000    1.0096897   -2.5937214   -2.5937214   -1.5139013  0.059944731   -2.5937214    1.0798201   578779 
  665000    1.0075002   -2.5916217   -2.5916217   -1.5141431  0.065722401   -2.5916217    1.0774786   578779 
  666000    1.0098287   -2.5940848   -2.5940848   -1.5141159  0.067291745   -2.5940848    1.0799689   578779 
  667000    1.0094681   -2.5937272   -2.5937272    -1.514144  0.065643756   -2.5937272    1.0795831   578779 
  668000    1.0096932   -2.5935518   -2.5935518   -1.5137279  0.057209083   -2.5935518    1.0798239   578779 
  669000    1.0109264   -2.5949762   -2.5949762   -1.5138335  0.059687026   -2.5949762    1.0811427   578779 
  670000    1.0106634    -2.593624    -2.593624   -1.5127624  0.072148172    -2.593624    1.0808615   578779 
  671000    1.0102332   -2.5937153   -2.5937153   -1.5133139   0.05407802   -2.5937153    1.0804014   578779 
  672000    1.0106287   -2.5939138   -2.5939138   -1.5130894  0.070500812   -2.5939138    1.0808244   578779 
  673000    1.0111507    -2.594436    -2.594436   -1.5130534  0.064564781    -2.594436    1.0813827   578779 
  674000     1.012199   -2.5960992   -2.5960992   -1.5135955  0.061137452   -2.5960992    1.0825037   578779 
  675000    1.0100285   -2.5936318   -2.5936318   -1.5134493  0.061848877   -2.5936318    1.0801825   578779 
  676000    1.0097799   -2.5946444   -2.5946444   -1.5147278  0.057460329   -2.5946444    1.0799167   578779 
  677000     1.009695   -2.5946309   -2.5946309   -1.5148051  0.059029717   -2.5946309    1.0798258   578779 
  678000    1.0107281   -2.5952401   -2.5952401   -1.5143094  0.063241558   -2.5952401    1.0809307   578779 
  679000      1.01144   -2.5970214   -2.5970214   -1.5153294  0.062718102   -2.5970214     1.081692   578779 
  680000    1.0111165   -2.5958698   -2.5958698   -1.5145237  0.076833601   -2.5958698    1.0813461   578779 
  681000    1.0091941   -2.5944223   -2.5944223   -1.5151322  0.058888126   -2.5944223    1.0792901   578779 
  682000    1.0105438   -2.5958088   -2.5958088   -1.5150752  0.070127971   -2.5958088    1.0807336   578779 
  683000    1.0106069   -2.5960674   -2.5960674   -1.5152663  0.053775119   -2.5960674    1.0808011   578779 
  684000    1.0113991   -2.5967791   -2.5967791   -1.5151308  0.066976202   -2.5967791    1.0816483   578779 
  685000    1.0101249   -2.5953182   -2.5953182   -1.5150327  0.069150467   -2.5953182    1.0802855   578779 
  686000     1.009601   -2.5947711   -2.5947711   -1.5150458  0.066902584   -2.5947711    1.0797253   578779 
  687000    1.0116665   -2.5978016   -2.5978016   -1.5158673  0.068991906   -2.5978016    1.0819343   578779 
  688000     1.012585    -2.599265    -2.599265   -1.5163484   0.05571108    -2.599265    1.0829166   578779 
  689000    1.0133952   -2.5995519   -2.5995519   -1.5157688  0.054614906   -2.5995519     1.083783   578779 
  690000    1.0118982   -2.5984434   -2.5984434   -1.5162613  0.071522917   -2.5984434    1.0821821   578779 
  691000    1.0105837   -2.5973749   -2.5973749   -1.5165987  0.067159252   -2.5973749    1.0807762   578779 
  692000    1.0120756   -2.5986451   -2.5986451   -1.5162733  0.064421137   -2.5986451    1.0823718   578779 
  693000    1.0115125   -2.5967762   -2.5967762   -1.5150067  0.065246792   -2.5967762    1.0817695   578779 
  694000    1.0091905   -2.5948486   -2.5948486   -1.5155624  0.065556702   -2.5948486    1.0792863   578779 
  695000    1.0090919   -2.5952115   -2.5952115   -1.5160307  0.060596986   -2.5952115    1.0791808   578779 
  696000    1.0081852   -2.5948189   -2.5948189   -1.5166077   0.05468167   -2.5948189    1.0782111   578779 
  697000    1.0094991   -2.5947872   -2.5947872   -1.5151709  0.068778014   -2.5947872    1.0796163   578779 
  698000    1.0079716   -2.5935622   -2.5935622   -1.5155794  0.059724272   -2.5935622    1.0779828   578779 
  699000    1.0069138   -2.5933571   -2.5933571   -1.5165056   0.05570383   -2.5933571    1.0768515   578779 
  700000    1.0084028   -2.5958348   -2.5958348   -1.5173909  0.052786442   -2.5958348    1.0784438   578779 
  701000    1.0080305   -2.5948187   -2.5948187    -1.516773  0.062890494   -2.5948187    1.0780458   578779 
  702000    1.0089675   -2.5958457   -2.5958457   -1.5167979  0.060009701   -2.5958457    1.0790478   578779 
  703000    1.0089627   -2.5966503   -2.5966503   -1.5176076  0.055959316   -2.5966503    1.0790426   578779 
  704000     1.011085   -2.5994034   -2.5994034    -1.518091  0.070087941   -2.5994034    1.0813124   578779 
  705000    1.0123283   -2.6004622   -2.6004622   -1.5178202  0.074035394   -2.6004622    1.0826421   578779 
  706000     1.011166    -2.598965    -2.598965   -1.5175661  0.087926629    -2.598965     1.081399   578779 
  707000     1.011333   -2.5995051   -2.5995051   -1.5179275  0.073277189   -2.5995051    1.0815776   578779 
  708000    1.0104717   -2.5988377   -2.5988377   -1.5181812  0.063125184   -2.5988377    1.0806564   578779 
  709000    1.0098346   -2.5989906   -2.5989906   -1.5190155  0.064404659   -2.5989906    1.0799752   578779 
  710000    1.0101409   -2.5982992   -2.5982992   -1.5179966  0.061120167   -2.5982992    1.0803027   578779 
  711000    1.0097121   -2.5975783   -2.5975783   -1.5177342   0.06176083   -2.5975783    1.0798441   578779 
  712000    1.0078379   -2.5962614   -2.5962614   -1.5184217   0.06609786   -2.5962614    1.0778397   578779 
  713000    1.0103624   -2.5981054   -2.5981054   -1.5175659  0.056288955   -2.5981054    1.0805395   578779 
  714000    1.0070589   -2.5949064   -2.5949064   -1.5178998  0.055946899   -2.5949064    1.0770066   578779 
  715000    1.0113922   -2.5991579   -2.5991579    -1.517517  0.073982799   -2.5991579    1.0816409   578779 
  716000     1.010277   -2.5983693   -2.5983693   -1.5179211  0.072463907   -2.5983693    1.0804482   578779 
  717000    1.0112649   -2.5996581   -2.5996581   -1.5181534  0.057621088   -2.5996581    1.0815047   578779 
  718000     1.008526   -2.5967896   -2.5967896    -1.518214  0.058015053   -2.5967896    1.0785756   578779 
  719000    1.0082395   -2.5955791   -2.5955791   -1.5173099  0.056615353   -2.5955791    1.0782692   578779 
  720000    1.0103502   -2.5992561   -2.5992561   -1.5187295  0.063210539   -2.5992561    1.0805266   578779 
  721000    1.0101142   -2.5991685   -2.5991685   -1.5188944  0.063908631   -2.5991685    1.0802741   578779 
  722000    1.0116921   -2.6004697   -2.6004697   -1.5185081  0.065074921   -2.6004697    1.0819616   578779 
  723000    1.0093141   -2.5972691   -2.5972691   -1.5178506  0.063986104   -2.5972691    1.0794184   578779 
  724000    1.0098959   -2.5983779   -2.5983779   -1.5183373  0.060074711   -2.5983779    1.0800406   578779 
  725000    1.0094289   -2.5975415   -2.5975415   -1.5180003   0.06384642   -2.5975415    1.0795412   578779 
  726000    1.0086891   -2.5972054   -2.5972054   -1.5184554  0.068718829   -2.5972054      1.07875   578779 
  727000    1.0109872    -2.599734    -2.599734   -1.5185262  0.057585386    -2.599734    1.0812078   578779 
  728000    1.0112684   -2.5987595   -2.5987595    -1.517251  0.067317436   -2.5987595    1.0815085   578779 
  729000    1.0108859   -2.5988638   -2.5988638   -1.5177643  0.074484098   -2.5988638    1.0810995   578779 
  730000     1.010489   -2.5992192   -2.5992192   -1.5185442   0.06805788   -2.5992192     1.080675   578779 
  731000    1.0104141   -2.5998117   -2.5998117   -1.5192169  0.059000176   -2.5998117    1.0805949   578779 
  732000    1.0112541   -2.6006855   -2.6006855   -1.5191923  0.063200491   -2.6006855    1.0814932   578779 
  733000    1.0100861   -2.5990785   -2.5990785   -1.5188344   0.06328896   -2.5990785    1.0802441   578779 
  734000     1.011158   -2.5999709   -2.5999709   -1.5185805  0.073491024   -2.5999709    1.0813905   578779 
  735000    1.0112368   -2.6004381   -2.6004381   -1.5189634   0.06072826   -2.6004381    1.0814747   578779 
  736000    1.0100139   -2.5985387   -2.5985387   -1.5183719  0.077426224   -2.5985387    1.0801668   578779 
  737000    1.0121496   -2.6007626   -2.6007626   -1.5183118  0.063185244   -2.6007626    1.0824509   578779 
  738000    1.0092175   -2.5989923   -2.5989923   -1.5196772  0.063256487   -2.5989923    1.0793151   578779 
  739000    1.0111191   -2.6010981   -2.6010981   -1.5197493  0.070848357   -2.6010981    1.0813488   578779 
  740000    1.0118755   -2.6017886   -2.6017886   -1.5196308  0.062115323   -2.6017886    1.0821578   578779 
  741000    1.0121402   -2.6021935   -2.6021935   -1.5197526  0.067089325   -2.6021935    1.0824409   578779 
  742000    1.0105615   -2.6005908   -2.6005908   -1.5198383  0.071216085   -2.6005908    1.0807525   578779 
  743000    1.0099696   -2.6010166   -2.6010166   -1.5208971  0.058026986   -2.6010166    1.0801195   578779 
  744000    1.0092403   -2.5996774   -2.5996774   -1.5203378  0.072315006   -2.5996774    1.0793396   578779 
  745000    1.0107888   -2.6012533   -2.6012533   -1.5202577  0.055281703   -2.6012533    1.0809956   578779 
  746000    1.0098869   -2.6007844   -2.6007844   -1.5207533  0.056658125   -2.6007844    1.0800311   578779 
  747000    1.0103749   -2.6013531   -2.6013531   -1.5208001  0.066455432   -2.6013531    1.0805529   578779 
  748000      1.00994    -2.600852    -2.600852   -1.5207642  0.062400049    -2.600852    1.0800879   578779 
  749000    1.0105884   -2.6008966   -2.6008966   -1.5201153  0.061314762   -2.6008966    1.0807813   578779 
  750000    1.0084998   -2.5990939   -2.5990939   -1.5205463  0.055240819   -2.5990939    1.0785476   578779 
  751000     1.009152   -2.5998565   -2.5998565   -1.5206114  0.066574143   -2.5998565    1.0792451   578779 
  752000    1.0097435   -2.5999305   -2.5999305   -1.5200528  0.065876288   -2.5999305    1.0798777   578779 
  753000    1.0093377   -2.5994632   -2.5994632   -1.5200195  0.060004541   -2.5994632    1.0794437   578779 
  754000    1.0105914   -2.6013496   -2.6013496    -1.520565   0.05783374   -2.6013496    1.0807845   578779 
  755000    1.0115027   -2.6024409   -2.6024409   -1.5206818  0.068663761   -2.6024409    1.0817591   578779 
  756000    1.0125897   -2.6034666   -2.6034666   -1.5205451   0.06309072   -2.6034666    1.0829216   578779 
  757000    1.0100577   -2.6003271   -2.6003271   -1.5201134  0.061585771   -2.6003271    1.0802137   578779 
  758000    1.0090657   -2.5998352   -2.5998352   -1.5206824  0.054467086   -2.5998352    1.0791528   578779 
  759000    1.0086922   -2.5997717   -2.5997717   -1.5210183  0.060722729   -2.5997717    1.0787534   578779 
  760000    1.0096959   -2.5999759   -2.5999759   -1.5201491  0.048987058   -2.5999759    1.0798268   578779 
  761000    1.0106795   -2.6005029   -2.6005029   -1.5196243  0.066856715   -2.6005029    1.0808787   578779 
  762000    1.0100285   -2.5997857   -2.5997857   -1.5196032  0.066054952   -2.5997857    1.0801825   578779 
  763000    1.0092967   -2.5984499   -2.5984499     -1.51905   0.07058345   -2.5984499    1.0793999   578779 
  764000    1.0107581   -2.6009003   -2.6009003   -1.5199375  0.056663814   -2.6009003    1.0809628   578779 
  765000    1.0080225   -2.5982509   -2.5982509   -1.5202137  0.069785532   -2.5982509    1.0780372   578779 
  766000    1.0073126   -2.5981408   -2.5981408   -1.5208628  0.069286561   -2.5981408    1.0772779   578779 
  767000     1.008275   -2.5988139   -2.5988139   -1.5205067  0.060200598   -2.5988139    1.0783072   578779 
  768000    1.0088385     -2.59956     -2.59956   -1.5206502  0.061253563     -2.59956    1.0789098   578779 
  769000    1.0092325   -2.5996847   -2.5996847   -1.5203535   0.06782036   -2.5996847    1.0793312   578779 
  770000    1.0101219   -2.6011197   -2.6011197   -1.5208373  0.054733483   -2.6011197    1.0802824   578779 
  771000    1.0073373   -2.5985524   -2.5985524    -1.521248  0.060106264   -2.5985524    1.0773044   578779 
  772000    1.0104443   -2.6020163   -2.6020163   -1.5213892  0.053574721   -2.6020163    1.0806272   578779 
  773000     1.009852   -2.6019742   -2.6019742   -1.5219806  0.061458779   -2.6019742    1.0799937   578779 
  774000    1.0070138   -2.5990252   -2.5990252   -1.5220669  0.057003373   -2.5990252    1.0769584   578779 
  775000    1.0093451   -2.6010353   -2.6010353   -1.5215837  0.060854648   -2.6010353    1.0794516   578779 
  776000    1.0086759   -2.6001901   -2.6001901   -1.5214541  0.055566366   -2.6001901     1.078736   578779 
  777000    1.0112853   -2.6019428   -2.6019428   -1.5204162  0.064233385   -2.6019428    1.0815265   578779 
  778000    1.0117439   -2.6028309   -2.6028309   -1.5208139  0.046560063   -2.6028309     1.082017   578779 
  779000    1.0080444   -2.6000585   -2.6000585   -1.5219979  0.063785986   -2.6000585    1.0780606   578779 
  780000    1.0092347   -2.6018259   -2.6018259   -1.5224924  0.062333861   -2.6018259    1.0793335   578779 
  781000    1.0087804   -2.6008203   -2.6008203   -1.5219726   0.05763003   -2.6008203    1.0788477   578779 
  782000    1.0113082   -2.6030278   -2.6030278   -1.5214767  0.058440967   -2.6030278    1.0815511   578779 
  783000    1.0103446   -2.6026314   -2.6026314   -1.5221108  0.052295357   -2.6026314    1.0805206   578779 
  784000    1.0111346     -2.60388     -2.60388   -1.5225146  0.072786912     -2.60388    1.0813654   578779 
  785000    1.0100305    -2.603024    -2.603024   -1.5228394  0.057260529    -2.603024    1.0801846   578779 
  786000    1.0111056   -2.6045088   -2.6045088   -1.5231744  0.053309191   -2.6045088    1.0813344   578779 
  787000    1.0117966   -2.6051408   -2.6051408   -1.5230674  0.064908726   -2.6051408    1.0820734   578779 
  788000    1.0110139   -2.6047849   -2.6047849   -1.5235485  0.057593636   -2.6047849    1.0812364   578779 
  789000    1.0110136   -2.6053214   -2.6053214   -1.5240853  0.065020784   -2.6053214    1.0812361   578779 
  790000    1.0084115   -2.6023642   -2.6023642    -1.523911  0.074629115   -2.6023642    1.0784532   578779 
  791000    1.0098873   -2.6036664   -2.6036664    -1.523635   0.06303931   -2.6036664    1.0800314   578779 
  792000    1.0098664   -2.6043885   -2.6043885   -1.5243794   0.06207284   -2.6043885    1.0800091   578779 
  793000    1.0100597   -2.6042861   -2.6042861   -1.5240703  0.059817525   -2.6042861    1.0802159   578779 
  794000    1.0099983   -2.6043749   -2.6043749   -1.5242246  0.060290927   -2.6043749    1.0801502   578779 
  795000    1.0093428   -2.6037607   -2.6037607   -1.5243115  0.054955008   -2.6037607    1.0794492   578779 
  796000    1.0104985   -2.6041423   -2.6041423   -1.5234572  0.059059921   -2.6041423    1.0806851   578779 
  797000    1.0116804   -2.6053029   -2.6053029   -1.5233538   0.06655649   -2.6053029    1.0819491   578779 
  798000     1.010081   -2.6041723   -2.6041723   -1.5239337  0.059490242   -2.6041723    1.0802386   578779 
  799000    1.0103391   -2.6043754   -2.6043754   -1.5238608  0.047221312   -2.6043754    1.0805147   578779 
  800000    1.0105536   -2.6051128   -2.6051128   -1.5243688  0.069420589   -2.6051128    1.0807441   578779 
  801000    1.0104382   -2.6049087   -2.6049087   -1.5242881  0.069921956   -2.6049087    1.0806206   578779 
  802000    1.0087478   -2.6036564   -2.6036564   -1.5248436  0.058226776   -2.6036564    1.0788128   578779 
  803000    1.0082851    -2.602195    -2.602195    -1.523877  0.060660599    -2.602195     1.078318   578779 
  804000    1.0090823   -2.6031631   -2.6031631   -1.5239926  0.059279143   -2.6031631    1.0791706   578779 
  805000    1.0102818   -2.6043647   -2.6043647   -1.5239114  0.061991181   -2.6043647    1.0804533   578779 
  806000    1.0081387    -2.601491    -2.601491   -1.5233295  0.064660204    -2.601491    1.0781615   578779 
  807000    1.0096902   -2.6036855   -2.6036855   -1.5238648  0.058498197   -2.6036855    1.0798207   578779 
  808000    1.0083841   -2.6026132   -2.6026132   -1.5241893  0.064791613   -2.6026132    1.0784239   578779 
  809000     1.008276   -2.6021898   -2.6021898   -1.5238815  0.061053817   -2.6021898    1.0783082   578779 
  810000    1.0109659   -2.6055533   -2.6055533   -1.5243683  0.047624579   -2.6055533     1.081185   578779 
  811000    1.0085667   -2.6036618   -2.6036618   -1.5250427  0.054501374   -2.6036618    1.0786191   578779 
  812000    1.0081694   -2.6027695   -2.6027695   -1.5245753  0.063969362   -2.6027695    1.0781942   578779 
  813000    1.0075826   -2.6019438   -2.6019438   -1.5243771  0.073340662   -2.6019438    1.0775667   578779 
  814000    1.0081389   -2.6020153   -2.6020153   -1.5238537  0.068499812   -2.6020153    1.0781616   578779 
  815000    1.0098652   -2.6027833   -2.6027833   -1.5227755  0.063028792   -2.6027833    1.0800078   578779 
  816000    1.0115542   -2.6042461   -2.6042461    -1.522432  0.070101123   -2.6042461    1.0818141   578779 
  817000      1.01067   -2.6040346   -2.6040346    -1.523166  0.066415287   -2.6040346    1.0808685   578779 
  818000    1.0105489   -2.6045941   -2.6045941   -1.5238551  0.069726807   -2.6045941     1.080739   578779 
  819000    1.0088811   -2.6030238   -2.6030238   -1.5240683  0.071341705   -2.6030238    1.0789554   578779 
  820000    1.0110716   -2.6050399   -2.6050399   -1.5237419  0.064177452   -2.6050399     1.081298   578779 
  821000    1.0089866    -2.603111    -2.603111   -1.5240427  0.067009271    -2.603111    1.0790683   578779 
  822000    1.0113643   -2.6060213   -2.6060213   -1.5244103  0.050320739   -2.6060213     1.081611   578779 
  823000    1.0113216   -2.6058852   -2.6058852   -1.5243199  0.063567983   -2.6058852    1.0815654   578779 
  824000    1.0099125   -2.6045267   -2.6045267   -1.5244683  0.059948503   -2.6045267    1.0800584   578779 
  825000    1.0092264   -2.6040923   -2.6040923   -1.5247677  0.072069422   -2.6040923    1.0793246   578779 
  826000    1.0089893   -2.6046334   -2.6046334   -1.5255624  0.065370492   -2.6046334    1.0790711   578779 
  827000    1.0086691    -2.604508    -2.604508   -1.5257793  0.059404087    -2.604508    1.0787286   578779 
  828000    1.0084394   -2.6038823   -2.6038823   -1.5253993  0.060226129   -2.6038823     1.078483   578779 
  829000    1.0098603   -2.6047672   -2.6047672   -1.5247645  0.063390415   -2.6047672    1.0800026   578779 
  830000    1.0088907   -2.6037501   -2.6037501   -1.5247844  0.068447317   -2.6037501    1.0789657   578779 
  831000     1.007597   -2.6030542   -2.6030542   -1.5254721  0.054014505   -2.6030542    1.0775821   578779 
  832000    1.0073829   -2.6018588   -2.6018588   -1.5245056  0.064325526   -2.6018588    1.0773531   578779 
  833000    1.0096257   -2.6042815   -2.6042815   -1.5245298  0.065112099   -2.6042815    1.0797517   578779 
  834000    1.0099518   -2.6051802   -2.6051802   -1.5250798  0.049065913   -2.6051802    1.0801004   578779 
  835000    1.0076529   -2.6032397   -2.6032397   -1.5255979  0.070002856   -2.6032397    1.0776418   578779 
  836000    1.0077923   -2.6038065   -2.6038065   -1.5260155  0.073272205   -2.6038065     1.077791   578779 
  837000    1.0085892   -2.6046827   -2.6046827   -1.5260395  0.075203068   -2.6046827    1.0786432   578779 
  838000    1.0099661    -2.605875    -2.605875   -1.5257593  0.067159952    -2.605875    1.0801158   578779 
  839000    1.0087361   -2.6054003   -2.6054003      -1.5266   0.06022096   -2.6054003    1.0788003   578779 
  840000    1.0067962    -2.603341    -2.603341   -1.5266154  0.059854581    -2.603341    1.0767257   578779 
  841000    1.0082476   -2.6050965   -2.6050965   -1.5268186  0.062672276   -2.6050965    1.0782779   578779 
  842000    1.0063544   -2.6036109   -2.6036109   -1.5273577  0.057700949   -2.6036109    1.0762532   578779 
  843000    1.0071597   -2.6042309   -2.6042309   -1.5271165  0.067341651   -2.6042309    1.0771145   578779 
  844000    1.0069753   -2.6043626   -2.6043626   -1.5274454  0.058495341   -2.6043626    1.0769172   578779 
  845000     1.008739   -2.6066507   -2.6066507   -1.5278473  0.053849532   -2.6066507    1.0788034   578779 
  846000    1.0076949   -2.6055881   -2.6055881   -1.5279013  0.061027401   -2.6055881    1.0776868   578779 
  847000    1.0102205   -2.6085881   -2.6085881   -1.5282003  0.051551282   -2.6085881    1.0803878   578779 
  848000    1.0087292    -2.607291    -2.607291   -1.5284981  0.068017145    -2.607291     1.078793   578779 
  849000    1.0088346   -2.6068704   -2.6068704   -1.5279647  0.065116947   -2.6068704    1.0789056   578779 
  850000    1.0105667   -2.6086316   -2.6086316   -1.5278735   0.07007944   -2.6086316    1.0807581   578779 
  851000    1.0075958   -2.6051711   -2.6051711   -1.5275903  0.063436445   -2.6051711    1.0775808   578779 
  852000    1.0081127   -2.6063379   -2.6063379   -1.5282042  0.071398716   -2.6063379    1.0781336   578779 
  853000    1.0097033   -2.6081633   -2.6081633   -1.5283285  0.068913926   -2.6081633    1.0798347   578779 
  854000    1.0079768    -2.606285    -2.606285   -1.5282968  0.065192513    -2.606285    1.0779882   578779 
  855000     1.009311   -2.6073031   -2.6073031    -1.527888  0.076183519   -2.6073031    1.0794152   578779 
  856000    1.0093617   -2.6073808   -2.6073808   -1.5279113  0.055253005   -2.6073808    1.0794694   578779 
  857000    1.0091663    -2.607481    -2.607481   -1.5282206  0.063270092    -2.607481    1.0792604   578779 
  858000    1.0099842   -2.6083074   -2.6083074   -1.5281723  0.072232901   -2.6083074    1.0801351   578779 
  859000    1.0098968    -2.608578    -2.608578   -1.5285364  0.060202258    -2.608578    1.0800416   578779 
  860000    1.0088947   -2.6079307   -2.6079307   -1.5289608   0.06412918   -2.6079307    1.0789699   578779 
  861000    1.0076848   -2.6072904   -2.6072904   -1.5296144  0.061272121   -2.6072904     1.077676   578779 
  862000    1.0085311   -2.6079279   -2.6079279   -1.5293468  0.072319373   -2.6079279     1.078581   578779 
  863000    1.0096765   -2.6081919   -2.6081919   -1.5283859  0.059664739   -2.6081919     1.079806   578779 
  864000    1.0096898   -2.6089532   -2.6089532    -1.529133  0.054939259   -2.6089532    1.0798202   578779 
  865000    1.0073572   -2.6070217   -2.6070217   -1.5296961  0.061640181   -2.6070217    1.0773256   578779 
  866000    1.0091624   -2.6085341   -2.6085341   -1.5292778  0.066749198   -2.6085341    1.0792563   578779 
  867000     1.008511   -2.6089636   -2.6089636    -1.530404  0.052402796   -2.6089636    1.0785596   578779 
  868000    1.0093513    -2.609248    -2.609248   -1.5297897  0.044139132    -2.609248    1.0794582   578779 
  869000    1.0102134    -2.609413    -2.609413   -1.5290327  0.064121465    -2.609413    1.0803802   578779 
  870000    1.0092727   -2.6075543   -2.6075543   -1.5281801  0.066803111   -2.6075543    1.0793742   578779 
  871000    1.0110703   -2.6093201   -2.6093201   -1.5280235  0.053703238   -2.6093201    1.0812966   578779 
  872000    1.0087071   -2.6071428   -2.6071428   -1.5283736  0.051520888   -2.6071428    1.0787693   578779 
  873000    1.0082978   -2.6059835   -2.6059835   -1.5276518   0.06389364   -2.6059835    1.0783316   578779 
  874000    1.0073083   -2.6061889   -2.6061889   -1.5289156  0.071634089   -2.6061889    1.0772733   578779 
  875000    1.0109205   -2.6099052   -2.6099052   -1.5287688  0.055845244   -2.6099052    1.0811364   578779 
  876000    1.0100505   -2.6094465   -2.6094465   -1.5292405  0.059636966   -2.6094465     1.080206   578779 
  877000     1.007852   -2.6068611   -2.6068611   -1.5290063  0.064960945   -2.6068611    1.0778548   578779 
  878000    1.0077127   -2.6070716   -2.6070716   -1.5293657  0.059815687   -2.6070716    1.0777059   578779 
  879000    1.0057046   -2.6055055   -2.6055055   -1.5299472  0.064563102   -2.6055055    1.0755583   578779 
  880000    1.0051312   -2.6040501   -2.6040501   -1.5291051  0.064956781   -2.6040501     1.074945   578779 
  881000    1.0092742   -2.6079009   -2.6079009   -1.5285252   0.06006115   -2.6079009    1.0793758   578779 
  882000    1.0087253   -2.6071535   -2.6071535   -1.5283647  0.051418048   -2.6071535    1.0787888   578779 
  883000    1.0098761    -2.608913    -2.608913   -1.5288936  0.062690771    -2.608913    1.0800194   578779 
  884000    1.0074998   -2.6068017   -2.6068017   -1.5293236  0.062067436   -2.6068017    1.0774781   578779 
  885000     1.008999   -2.6083365   -2.6083365   -1.5292551  0.059533288   -2.6083365    1.0790814   578779 
  886000    1.0089617   -2.6081928   -2.6081928   -1.5291513  0.081535015   -2.6081928    1.0790415   578779 
  887000    1.0084418   -2.6073329   -2.6073329   -1.5288473   0.07358763   -2.6073329    1.0784856   578779 
  888000    1.0085309   -2.6071061   -2.6071061   -1.5285252  0.058201672   -2.6071061    1.0785809   578779 
  889000    1.0093023   -2.6084489   -2.6084489   -1.5290431  0.067101127   -2.6084489    1.0794058   578779 
  890000    1.0097274   -2.6084964   -2.6084964    -1.528636  0.069326445   -2.6084964    1.0798605   578779 
  891000    1.0097007   -2.6082843   -2.6082843   -1.5284525  0.064493217   -2.6082843    1.0798319   578779 
  892000    1.0101999   -2.6089085   -2.6089085   -1.5285426  0.060220782   -2.6089085    1.0803658   578779 
  893000    1.0096836   -2.6092834   -2.6092834   -1.5294697  0.044217421   -2.6092834    1.0798136   578779 
  894000    1.0108296   -2.6099894   -2.6099894   -1.5289502  0.062408294   -2.6099894    1.0810392   578779 
  895000     1.010232   -2.6104148   -2.6104148   -1.5300146  0.053031132   -2.6104148    1.0804001   578779 
  896000    1.0098585   -2.6098323   -2.6098323   -1.5298316  0.055718718   -2.6098323    1.0800007   578779 
  897000    1.0088208   -2.6091457   -2.6091457   -1.5302548   0.07825301   -2.6091457    1.0788909   578779 
  898000    1.0087122    -2.609794    -2.609794   -1.5310193   0.06441678    -2.609794    1.0787747   578779 
  899000    1.0075903   -2.6083005   -2.6083005   -1.5307256  0.066964706   -2.6083005     1.077575   578779 
  900000    1.0089787   -2.6104721   -2.6104721   -1.5314124  0.060876915   -2.6104721    1.0790597   578779 
  901000    1.0095229    -2.610744    -2.610744   -1.5311022  0.065355899    -2.610744    1.0796417   578779 
  902000    1.0084517   -2.6103634   -2.6103634   -1.5318672  0.062867066   -2.6103634    1.0784962   578779 
  903000    1.0078956   -2.6102102   -2.6102102   -1.5323088  0.065739763   -2.6102102    1.0779015   578779 
  904000    1.0104731   -2.6124395   -2.6124395   -1.5317815  0.059548104   -2.6124395     1.080658   578779 
  905000    1.0071029   -2.6095904   -2.6095904   -1.5325367  0.058107862   -2.6095904    1.0770537   578779 
  906000    1.0085062   -2.6105977   -2.6105977   -1.5320433  0.062425874   -2.6105977    1.0785545   578779 
  907000    1.0077214   -2.6100341   -2.6100341   -1.5323189  0.063919355   -2.6100341    1.0777152   578779 
  908000     1.009767   -2.6123651   -2.6123651   -1.5324623  0.054376762   -2.6123651    1.0799029   578779 
  909000    1.0093558   -2.6118524   -2.6118524   -1.5323893  0.054784682   -2.6118524     1.079463   578779 
  910000    1.0088023    -2.611315    -2.611315   -1.5324438  0.062628636    -2.611315    1.0788712   578779 
  911000    1.0091103   -2.6104823   -2.6104823   -1.5312818  0.077223831   -2.6104823    1.0792005   578779 
  912000    1.0092133   -2.6102646   -2.6102646   -1.5309539   0.06427044   -2.6102646    1.0793106   578779 
  913000    1.0086842    -2.609473    -2.609473   -1.5307282  0.071571061    -2.609473    1.0787448   578779 
  914000    1.0086476   -2.6097217   -2.6097217    -1.531016  0.062536925   -2.6097217    1.0787056   578779 
  915000    1.0072782    -2.608714    -2.608714   -1.5314729  0.060407579    -2.608714    1.0772411   578779 
  916000    1.0074735   -2.6091561   -2.6091561   -1.5317061  0.061451414   -2.6091561      1.07745   578779 
  917000    1.0072018   -2.6086923   -2.6086923   -1.5315328  0.072349776   -2.6086923    1.0771595   578779 
  918000    1.0071243   -2.6091116   -2.6091116   -1.5320351  0.055651406   -2.6091116    1.0770765   578779 
  919000    1.0082761   -2.6108699   -2.6108699   -1.5325616  0.061675803   -2.6108699    1.0783084   578779 
  920000     1.007177   -2.6098759   -2.6098759   -1.5327429  0.072846418   -2.6098759     1.077133   578779 
  921000     1.006374    -2.608618    -2.608618   -1.5323438  0.069335288    -2.608618    1.0762742   578779 
  922000    1.0073775   -2.6097437   -2.6097437   -1.5323964  0.057018406   -2.6097437    1.0773473   578779 
  923000    1.0087144   -2.6111632   -2.6111632    -1.532386   0.06022133   -2.6111632    1.0787771   578779 
  924000    1.0088796   -2.6105865   -2.6105865   -1.5316327  0.066633336   -2.6105865    1.0789538   578779 
  925000     1.008789   -2.6101752   -2.6101752   -1.5313183  0.066713781   -2.6101752    1.0788569   578779 
  926000    1.0084055   -2.6098221   -2.6098221   -1.5313754  0.055588997   -2.6098221    1.0784467   578779 
  927000    1.0080583   -2.6100877   -2.6100877   -1.5320122  0.067606703   -2.6100877    1.0780755   578779 
  928000    1.0082643   -2.6103026   -2.6103026   -1.5320069  0.064151154   -2.6103026    1.0782957   578779 
  929000     1.009253    -2.610669    -2.610669   -1.5313158  0.065109539    -2.610669    1.0793531   578779 
  930000    1.0074937   -2.6090573   -2.6090573   -1.5315856  0.051859854   -2.6090573    1.0774716   578779 
  931000     1.007839   -2.6088133   -2.6088133   -1.5309724  0.058928245   -2.6088133    1.0778409   578779 
  932000    1.0079764   -2.6101964   -2.6101964   -1.5322085  0.055892615   -2.6101964    1.0779878   578779 
  933000    1.0118988   -2.6136963   -2.6136963   -1.5315136   0.06058022   -2.6136963    1.0821827   578779 
  934000    1.0100562   -2.6118957   -2.6118957   -1.5316837  0.051417596   -2.6118957    1.0802121   578779 
  935000    1.0082918   -2.6101171   -2.6101171   -1.5317919  0.070602196   -2.6101171    1.0783252   578779 
  936000    1.0070874   -2.6091098   -2.6091098   -1.5320727  0.067556607   -2.6091098    1.0770371   578779 
  937000    1.0092683   -2.6111766   -2.6111766   -1.5318071  0.056570014   -2.6111766    1.0793695   578779 
  938000    1.0077219   -2.6097676   -2.6097676   -1.5320519  0.065527863   -2.6097676    1.0777156   578779 
  939000    1.0079592   -2.6098499   -2.6098499   -1.5318805  0.047800718   -2.6098499    1.0779694   578779 
  940000    1.0089096   -2.6116084   -2.6116084   -1.5326225  0.061506124   -2.6116084    1.0789859   578779 
  941000    1.0088144    -2.611047    -2.611047    -1.532163  0.058573753    -2.611047     1.078884   578779 
  942000    1.0071726   -2.6095774   -2.6095774   -1.5324492  0.066254982   -2.6095774    1.0771282   578779 
  943000    1.0088621   -2.6120523   -2.6120523   -1.5331173    0.0627056   -2.6120523     1.078935   578779 
  944000    1.0093351   -2.6124626   -2.6124626   -1.5330217  0.050549113   -2.6124626    1.0794409   578779 
  945000    1.0083907   -2.6118516   -2.6118516   -1.5334207  0.058897887   -2.6118516    1.0784309   578779 
  946000    1.0083648   -2.6115762   -2.6115762   -1.5331729   0.07114966   -2.6115762    1.0784033   578779 
  947000     1.008804   -2.6131424   -2.6131424   -1.5342695  0.061242607   -2.6131424    1.0788729   578779 
  948000    1.0091655    -2.613033    -2.613033   -1.5337734  0.064423845    -2.613033    1.0792595   578779 
  949000    1.0101259   -2.6148008   -2.6148008   -1.5345141  0.066984484   -2.6148008    1.0802867   578779 
  950000    1.0088116   -2.6136038   -2.6136038   -1.5347228  0.066106968   -2.6136038    1.0788811   578779 
  951000    1.0103405   -2.6147618   -2.6147618   -1.5342456  0.056345151   -2.6147618    1.0805161   578779 
  952000    1.0091815   -2.6133515   -2.6133515   -1.5340749  0.059130462   -2.6133515    1.0792766   578779 
  953000    1.0082285   -2.6130075   -2.6130075   -1.5347501  0.060863408   -2.6130075    1.0782575   578779 
  954000    1.0088345    -2.613612    -2.613612   -1.5347064  0.078064005    -2.613612    1.0789055   578779 
  955000    1.0082554   -2.6131794   -2.6131794   -1.5348932  0.056404932   -2.6131794    1.0782863   578779 
  956000    1.0088203   -2.6140444   -2.6140444    -1.535154  0.068352869   -2.6140444    1.0788904   578779 
  957000    1.0076973   -2.6133315   -2.6133315   -1.5356421  0.056075228   -2.6133315    1.0776894   578779 
  958000    1.0095158   -2.6154652   -2.6154652    -1.535831  0.059179659   -2.6154652    1.0796342   578779 
  959000    1.0093598   -2.6148627   -2.6148627   -1.5353953  0.070458977   -2.6148627    1.0794674   578779 
  960000    1.0082589   -2.6136933   -2.6136933   -1.5354033  0.068254277   -2.6136933      1.07829   578779 
  961000    1.0070105   -2.6136514   -2.6136514   -1.5366965  0.059100887   -2.6136514    1.0769548   578779 
  962000     1.006011   -2.6121696   -2.6121696   -1.5362837  0.062962782   -2.6121696     1.075886   578779 
  963000    1.0066879   -2.6134675   -2.6134675   -1.5368577  0.061743831   -2.6134675    1.0766098   578779 
  964000    1.0069622   -2.6141761   -2.6141761   -1.5372728  0.066272034   -2.6141761    1.0769032   578779 
  965000    1.0085495   -2.6144907   -2.6144907     -1.53589  0.064175349   -2.6144907    1.0786007   578779 
  966000    1.0097126   -2.6149376   -2.6149376    -1.535093  0.061453345   -2.6149376    1.0798446   578779 
  967000    1.0087259   -2.6154181   -2.6154181   -1.5366286  0.067377854   -2.6154181    1.0787895   578779 
  968000    1.0070218   -2.6135575   -2.6135575   -1.5365905  0.048937855   -2.6135575    1.0769669   578779 
  969000    1.0073533   -2.6126499   -2.6126499   -1.5353285   0.07043108   -2.6126499    1.0773214   578779 
  970000    1.0080628   -2.6129153   -2.6129153   -1.5348351    0.0530696   -2.6129153    1.0780802   578779 
  971000    1.0090656   -2.6133228   -2.6133228   -1.5341701  0.059763589   -2.6133228    1.0791527   578779 
  972000    1.0088496   -2.6136026   -2.6136026   -1.5346809   0.06479794   -2.6136026    1.0789217   578779 
  973000    1.0077711   -2.6118749   -2.6118749   -1.5341066  0.071232554   -2.6118749    1.0777683   578779 
  974000    1.0074874   -2.6121988   -2.6121988   -1.5347339  0.062028948   -2.6121988    1.0774649   578779 
  975000    1.0069849   -2.6115584   -2.6115584    -1.534631  0.056778063   -2.6115584    1.0769274   578779 
  976000    1.0068529   -2.6110181   -2.6110181   -1.5342318  0.063623982   -2.6110181    1.0767863   578779 
  977000    1.0083206   -2.6118177   -2.6118177   -1.5334618  0.058358889   -2.6118177    1.0783559   578779 
  978000    1.0086804   -2.6126679   -2.6126679   -1.5339272  0.056774794   -2.6126679    1.0787408   578779 
  979000    1.0091137   -2.6129399   -2.6129399   -1.5337358  0.067240748   -2.6129399    1.0792042   578779 
  980000    1.0074454   -2.6114509   -2.6114509   -1.5340309  0.070710366   -2.6114509      1.07742   578779 
  981000    1.0094322   -2.6150654   -2.6150654   -1.5355206  0.066979598   -2.6150654    1.0795448   578779 
  982000    1.0077305   -2.6127978   -2.6127978   -1.5350729  0.055708935   -2.6127978    1.0777248   578779 
  983000    1.0076449   -2.6123657   -2.6123657   -1.5347325  0.074700709   -2.6123657    1.0776333   578779 
  984000    1.0068574   -2.6115997   -2.6115997   -1.5348086  0.064500413   -2.6115997    1.0767911   578779 
  985000    1.0083041    -2.613578    -2.613578   -1.5352397  0.056878069    -2.613578    1.0783383   578779 
  986000    1.0077395   -2.6128443   -2.6128443   -1.5351098  0.059672286   -2.6128443    1.0777345   578779 
  987000    1.0095619   -2.6147621   -2.6147621   -1.5350787   0.05808902   -2.6147621    1.0796835   578779 
  988000    1.0086557    -2.613906    -2.613906   -1.5351916  0.076209716    -2.613906    1.0787144   578779 
  989000     1.008391   -2.6147729   -2.6147729   -1.5363416  0.054942934   -2.6147729    1.0784312   578779 
  990000    1.0069206   -2.6132034   -2.6132034   -1.5363447  0.073395264   -2.6132034    1.0768587   578779 
  991000     1.007573   -2.6141921   -2.6141921   -1.5366356  0.056001109   -2.6141921    1.0775564   578779 
  992000    1.0076817   -2.6148866   -2.6148866   -1.5372139   0.07143578   -2.6148866    1.0776727   578779 
  993000    1.0082198   -2.6161364   -2.6161364   -1.5378882  0.058071951   -2.6161364    1.0782482   578779 
  994000    1.0079376   -2.6155226   -2.6155226   -1.5375763  0.068849547   -2.6155226    1.0779463   578779 
  995000    1.0062884   -2.6131588   -2.6131588   -1.5369761  0.066281785   -2.6131588    1.0761826   578779 
  996000     1.008224   -2.6144205   -2.6144205   -1.5361679  0.050556358   -2.6144205    1.0782526   578779 
  997000    1.0084323   -2.6146315   -2.6146315   -1.5361561  0.063086609   -2.6146315    1.0784754   578779 
  998000    1.0075504   -2.6138102   -2.6138102   -1.5362779  0.065425134   -2.6138102    1.0775323   578779 
  999000    1.0079963   -2.6150831   -2.6150831   -1.5370739  0.058012168   -2.6150831    1.0780091   578779 
 1000000    1.0074671   -2.6144629   -2.6144629   -1.5370197  0.068727926   -2.6144629    1.0774432   578779 
 1001000     1.008151   -2.6153415   -2.6153415   -1.5371669  0.060405246   -2.6153415    1.0781746   578779 
 1002000    1.0072904   -2.6155032   -2.6155032    -1.538249  0.066830868   -2.6155032    1.0772542   578779 
 1003000    1.0065461   -2.6148479   -2.6148479   -1.5383897  0.049902338   -2.6148479    1.0764582   578779 
 1004000    1.0091765   -2.6174952   -2.6174952   -1.5382238   0.05814031   -2.6174952    1.0792713   578779 
 1005000    1.0082394   -2.6169018   -2.6169018   -1.5386327  0.057103213   -2.6169018    1.0782691   578779 
 1006000    1.0096077   -2.6180584   -2.6180584    -1.538326  0.061897842   -2.6180584    1.0797325   578779 
 1007000    1.0100143   -2.6182502   -2.6182502   -1.5380829  0.079108983   -2.6182502    1.0801673   578779 
 1008000    1.0091636   -2.6176603   -2.6176603   -1.5384028  0.057139611   -2.6176603    1.0792575   578779 
 1009000    1.0092596   -2.6176876   -2.6176876   -1.5383274  0.058613827   -2.6176876    1.0793602   578779 
 1010000    1.0089459   -2.6169781   -2.6169781   -1.5379534  0.075610312   -2.6169781    1.0790247   578779 
 1011000    1.0078617   -2.6155176   -2.6155176   -1.5376523  0.056302066   -2.6155176    1.0778652   578779 
 1012000    1.0071216   -2.6147763   -2.6147763   -1.5377026  0.047168864   -2.6147763    1.0770737   578779 
 1013000    1.0074832   -2.6144287   -2.6144287   -1.5369683  0.063162457   -2.6144287    1.0774604   578779 
 1014000     1.006965   -2.6139862   -2.6139862     -1.53708  0.051924672   -2.6139862    1.0769062   578779 
 1015000     1.005941    -2.613056    -2.613056   -1.5372449  0.059657496    -2.613056    1.0758111   578779 
 1016000    1.0066343   -2.6138065   -2.6138065    -1.537254  0.070408766   -2.6138065    1.0765525   578779 
 1017000    1.0085306   -2.6168737   -2.6168737   -1.5382931  0.059227307   -2.6168737    1.0785806   578779 
 1018000    1.0080864   -2.6169855   -2.6169855   -1.5388799  0.044390654   -2.6169855    1.0781055   578779 
 1019000    1.0081856   -2.6169213   -2.6169213   -1.5387097  0.068954947   -2.6169213    1.0782115   578779 
 1020000    1.0071542   -2.6145732   -2.6145732   -1.5374647  0.071102007   -2.6145732    1.0771085   578779 
 1021000    1.0084322   -2.6157495   -2.6157495   -1.5372742   0.06918571   -2.6157495    1.0784753   578779 
 1022000    1.0113853   -2.6187884   -2.6187884   -1.5371549  0.064709466   -2.6187884    1.0816335   578779 
 1023000    1.0072973   -2.6149016   -2.6149016   -1.5376401  0.061457055   -2.6149016    1.0772616   578779 
 1024000    1.0080025   -2.6159858   -2.6159858   -1.5379701  0.073517404   -2.6159858    1.0780157   578779 
 1025000    1.0072744   -2.6144974   -2.6144974   -1.5372603  0.071696904   -2.6144974    1.0772371   578779 
 1026000    1.0071774   -2.6145277   -2.6145277   -1.5373944  0.058526676   -2.6145277    1.0771333   578779 
 1027000    1.0081753   -2.6157171   -2.6157171   -1.5375166   0.06727341   -2.6157171    1.0782006   578779 
 1028000    1.0058156   -2.6136276   -2.6136276   -1.5379506  0.072470713   -2.6136276    1.0756769   578779 
 1029000    1.0082419   -2.6165621   -2.6165621   -1.5382902  0.062839458   -2.6165621    1.0782718   578779 
 1030000    1.0069583   -2.6149098   -2.6149098   -1.5380108  0.050787666   -2.6149098    1.0768991   578779 
 1031000    1.0078739   -2.6160415   -2.6160415   -1.5381632  0.069570129   -2.6160415    1.0778782   578779 
 1032000    1.0068141    -2.615069    -2.615069   -1.5383242  0.059646221    -2.615069    1.0767448   578779 
 1033000    1.0074807   -2.6160959   -2.6160959   -1.5386382  0.058683153   -2.6160959    1.0774578   578779 
 1034000     1.007848   -2.6166158   -2.6166158   -1.5387652  0.063716515   -2.6166158    1.0778506   578779 
 1035000     1.006669   -2.6159321   -2.6159321   -1.5393425  0.064231123   -2.6159321    1.0765896   578779 
 1036000    1.0100293   -2.6192016   -2.6192016   -1.5390182  0.053673166   -2.6192016    1.0801833   578779 
 1037000    1.0089279   -2.6184709   -2.6184709   -1.5394654  0.067025611   -2.6184709    1.0790054   578779 
 1038000    1.0075277   -2.6176287   -2.6176287   -1.5401207  0.065146983   -2.6176287     1.077508   578779 
 1039000    1.0089228   -2.6192894   -2.6192894   -1.5402893  0.055278051   -2.6192894        1.079   578779 
 1040000    1.0077087   -2.6183262   -2.6183262   -1.5406246  0.062839305   -2.6183262    1.0777016   578779 
 1041000    1.0089647   -2.6191477   -2.6191477   -1.5401029  0.073974682   -2.6191477    1.0790448   578779 
 1042000    1.0087903   -2.6190396   -2.6190396   -1.5401813  0.072076722   -2.6190396    1.0788583   578779 
 1043000    1.0075689   -2.6174768   -2.6174768   -1.5399247  0.063317796   -2.6174768    1.0775521   578779 
 1044000     1.008361   -2.6191452   -2.6191452   -1.5407461   0.06927678   -2.6191452    1.0783991   578779 
 1045000    1.0070667   -2.6177446   -2.6177446   -1.5407296  0.062207129   -2.6177446     1.077015   578779 
 1046000    1.0065088   -2.6174251   -2.6174251   -1.5410069  0.054329047   -2.6174251    1.0764183   578779 
 1047000    1.0062652   -2.6168511   -2.6168511   -1.5406933  0.053021441   -2.6168511    1.0761578   578779 
 1048000    1.0053345   -2.6158101   -2.6158101   -1.5406476  0.055769805   -2.6158101    1.0751625   578779 
 1049000     1.005605   -2.6169306   -2.6169306   -1.5414789  0.061655238   -2.6169306    1.0754517   578779 
 1050000    1.0072199   -2.6181806   -2.6181806   -1.5410017  0.061186897   -2.6181806    1.0771788   578779 
 1051000    1.0074669   -2.6181682   -2.6181682   -1.5407252  0.058860679   -2.6181682     1.077443   578779 
 1052000    1.0082053   -2.6181767   -2.6181767   -1.5399441   0.08121866   -2.6181767    1.0782326   578779 
 1053000    1.0088012   -2.6187916   -2.6187916   -1.5399216  0.065949763   -2.6187916    1.0788699   578779 
 1054000    1.0087773   -2.6193197   -2.6193197   -1.5404753  0.058674807   -2.6193197    1.0788444   578779 
 1055000    1.0077191   -2.6185969   -2.6185969   -1.5408842  0.072717653   -2.6185969    1.0777127   578779 
 1056000    1.0090359   -2.6199352   -2.6199352   -1.5408143  0.075996048   -2.6199352    1.0791209   578779 
 1057000    1.0095237   -2.6205463   -2.6205463   -1.5409037  0.056701552   -2.6205463    1.0796426   578779 
 1058000    1.0083903   -2.6188373   -2.6188373   -1.5404069  0.065118459   -2.6188373    1.0784305   578779 
 1059000    1.0080883   -2.6184812   -2.6184812   -1.5403736  0.062682173   -2.6184812    1.0781075   578779 
 1060000      1.00809    -2.619033    -2.619033   -1.5409237  0.055853144    -2.619033    1.0781093   578779 
 1061000    1.0066357   -2.6180305   -2.6180305   -1.5414765  0.055063039   -2.6180305     1.076554   578779 
 1062000    1.0059984   -2.6175973   -2.6175973   -1.5417249  0.047877305   -2.6175973    1.0758724   578779 
 1063000    1.0055142   -2.6171021   -2.6171021   -1.5417474  0.057114104   -2.6171021    1.0753547   578779 
 1064000    1.0081909    -2.619634    -2.619634   -1.5414168  0.058481053    -2.619634    1.0782172   578779 
 1065000     1.006057    -2.616816    -2.616816   -1.5408809  0.065519594    -2.616816    1.0759351   578779 
 1066000    1.0074236   -2.6181521   -2.6181521   -1.5407555  0.058033847   -2.6181521    1.0773966   578779 
 1067000    1.0070164   -2.6181586   -2.6181586   -1.5411975  0.054771634   -2.6181586    1.0769612   578779 
 1068000    1.0064093    -2.617676    -2.617676    -1.541364  0.050267801    -2.617676    1.0763119   578779 
 1069000    1.0060369   -2.6174356   -2.6174356   -1.5415219   0.06845984   -2.6174356    1.0759137   578779 
 1070000    1.0074041   -2.6186752   -2.6186752   -1.5412995  0.072380911   -2.6186752    1.0773758   578779 
 1071000    1.0069788   -2.6188123   -2.6188123   -1.5418913  0.065641969   -2.6188123     1.076921   578779 
 1072000    1.0064101   -2.6191189   -2.6191189   -1.5428061  0.057429639   -2.6191189    1.0763128   578779 
 1073000    1.0064033   -2.6198123   -2.6198123   -1.5435069  0.060976957   -2.6198123    1.0763054   578779 
 1074000    1.0080285   -2.6211075   -2.6211075   -1.5430639  0.066262152   -2.6211075    1.0780436   578779 
 1075000    1.0074462   -2.6208654   -2.6208654   -1.5434445  0.074769377   -2.6208654    1.0774208   578779 
 1076000    1.0076328   -2.6207702   -2.6207702   -1.5431498  0.062262442   -2.6207702    1.0776204   578779 
 1077000    1.0062291   -2.6200417   -2.6200417   -1.5439226  0.062986729   -2.6200417    1.0761192   578779 
 1078000    1.0072507    -2.621511    -2.621511   -1.5442992  0.064247097    -2.621511    1.0772118   578779 
 1079000     1.005823   -2.6203075   -2.6203075   -1.5446225   0.04998214   -2.6203075    1.0756849   578779 
 1080000    1.0057481   -2.6196392   -2.6196392   -1.5440344   0.07185117   -2.6196392    1.0756048   578779 
 1081000    1.0060349   -2.6212776   -2.6212776   -1.5453662  0.060940361   -2.6212776    1.0759115   578779 
 1082000    1.0072832   -2.6229994   -2.6229994    -1.545753  0.054816907   -2.6229994    1.0772465   578779 
 1083000    1.0042285   -2.6197049   -2.6197049   -1.5457253  0.056520345   -2.6197049    1.0739796   578779 
 1084000    1.0064282   -2.6210763   -2.6210763   -1.5447442  0.072017589   -2.6210763    1.0763321   578779 
 1085000    1.0068635   -2.6217016   -2.6217016    -1.544904  0.063901961   -2.6217016    1.0767976   578779 
 1086000    1.0063851   -2.6216312   -2.6216312   -1.5453452  0.058484261   -2.6216312     1.076286   578779 
 1087000    1.0072318   -2.6212096   -2.6212096   -1.5440181  0.068927696   -2.6212096    1.0771915   578779 
 1088000    1.0078262   -2.6220835   -2.6220835   -1.5442562  0.063200732   -2.6220835    1.0778272   578779 
 1089000    1.0081012   -2.6216776   -2.6216776   -1.5435563  0.065133139   -2.6216776    1.0781213   578779 
 1090000    1.0076359    -2.622473    -2.622473   -1.5448493  0.075818768    -2.622473    1.0776237   578779 
 1091000    1.0050085   -2.6197674   -2.6197674   -1.5449537  0.062145795   -2.6197674    1.0748138   578779 
 1092000    1.0060374   -2.6204598   -2.6204598   -1.5445456  0.068858751   -2.6204598    1.0759141   578779 
 1093000     1.004931   -2.6185086   -2.6185086   -1.5437777  0.055233332   -2.6185086    1.0747309   578779 
 1094000    1.0080063   -2.6223166   -2.6223166   -1.5442967  0.066509941   -2.6223166    1.0780198   578779 
 1095000    1.0076483   -2.6221063   -2.6221063   -1.5444693  0.068887242   -2.6221063     1.077637   578779 
 1096000    1.0060635   -2.6207326   -2.6207326   -1.5447904  0.059359497   -2.6207326    1.0759421   578779 
 1097000    1.0077922   -2.6221988   -2.6221988    -1.544408  0.053052654   -2.6221988    1.0777908   578779 
 1098000    1.0086133   -2.6220707   -2.6220707   -1.5434017  0.071564632   -2.6220707     1.078669   578779 
 1099000    1.0081021   -2.6226605   -2.6226605   -1.5445383  0.059216997   -2.6226605    1.0781222   578779 
 1100000    1.0081087   -2.6230536   -2.6230536   -1.5449242  0.075803612   -2.6230536    1.0781293   578779 
 1101000    1.0091903   -2.6241005   -2.6241005   -1.5448144  0.049057002   -2.6241005    1.0792861   578779 
 1102000    1.0093057   -2.6240172   -2.6240172   -1.5446078  0.066823394   -2.6240172    1.0794094   578779 
 1103000    1.0079102   -2.6233947   -2.6233947   -1.5454777  0.064378412   -2.6233947     1.077917   578779 
 1104000    1.0081523    -2.623643    -2.623643    -1.545467   0.06635488    -2.623643     1.078176   578779 
 1105000    1.0086501   -2.6241609   -2.6241609   -1.5454526  0.056676694   -2.6241609    1.0787084   578779 
 1106000    1.0078354   -2.6240094   -2.6240094   -1.5461723  0.071739449   -2.6240094    1.0778371   578779 
 1107000    1.0075895   -2.6234591   -2.6234591   -1.5458851  0.069850639   -2.6234591     1.077574   578779 
 1108000    1.0062773   -2.6227857   -2.6227857   -1.5466149  0.069467045   -2.6227857    1.0761708   578779 
 1109000    1.0075987   -2.6241018   -2.6241018   -1.5465179  0.066835675   -2.6241018     1.077584   578779 
 1110000    1.0049843   -2.6215681   -2.6215681   -1.5467802  0.051567865   -2.6215681    1.0747879   578779 
 1111000    1.0065571   -2.6229504   -2.6229504   -1.5464805  0.056491413   -2.6229504    1.0764699   578779 
 1112000    1.0075686   -2.6234435   -2.6234435   -1.5458918  0.060660579   -2.6234435    1.0775517   578779 
 1113000    1.0064865   -2.6228541   -2.6228541   -1.5464596    0.0733452   -2.6228541    1.0763944   578779 
 1114000    1.0072271   -2.6230153   -2.6230153   -1.5458288  0.058487638   -2.6230153    1.0771865   578779 
 1115000     1.005425   -2.6211578   -2.6211578   -1.5458986  0.064545009   -2.6211578    1.0752592   578779 
 1116000    1.0069449   -2.6225194   -2.6225194   -1.5456347  0.064428511   -2.6225194    1.0768847   578779 
 1117000    1.0068966   -2.6231306   -2.6231306   -1.5462976  0.062264249   -2.6231306     1.076833   578779 
 1118000    1.0083066   -2.6240643   -2.6240643   -1.5457233  0.058656512   -2.6240643     1.078341   578779 
 1119000    1.0087702   -2.6243676   -2.6243676   -1.5455309  0.072985156   -2.6243676    1.0788367   578779 
 1120000    1.0084637   -2.6245523   -2.6245523   -1.5460433  0.072096369   -2.6245523     1.078509   578779 
 1121000    1.0074422   -2.6235314   -2.6235314   -1.5461148  0.053487202   -2.6235314    1.0774165   578779 
 1122000     1.008699   -2.6248891   -2.6248891   -1.5461284   0.06684627   -2.6248891    1.0787607   578779 
 1123000    1.0066109   -2.6230671   -2.6230671   -1.5465396   0.06029193   -2.6230671    1.0765276   578779 
 1124000     1.006664   -2.6230005   -2.6230005   -1.5464162  0.054107563   -2.6230005    1.0765843   578779 
 1125000    1.0071128   -2.6232317   -2.6232317   -1.5461675  0.064851171   -2.6232317    1.0770643   578779 
 1126000    1.0071273   -2.6233744   -2.6233744   -1.5462946  0.060914027   -2.6233744    1.0770798   578779 
 1127000    1.0059193   -2.6223995   -2.6223995   -1.5466116  0.064568261   -2.6223995    1.0757879   578779 
 1128000    1.0067683   -2.6227025   -2.6227025   -1.5460067  0.074049544   -2.6227025    1.0766958   578779 
 1129000    1.0054142   -2.6219813   -2.6219813   -1.5467336  0.049990973   -2.6219813    1.0752477   578779 
 1130000     1.004543   -2.6212999   -2.6212999   -1.5469839    0.0467617   -2.6212999     1.074316   578779 
 1131000     1.005396   -2.6212418   -2.6212418   -1.5460136  0.062762291   -2.6212418    1.0752282   578779 
 1132000    1.0075133   -2.6228957   -2.6228957   -1.5454031  0.062192514   -2.6228957    1.0774926   578779 
 1133000    1.0079729   -2.6241372   -2.6241372   -1.5461531  0.060388858   -2.6241372    1.0779841   578779 
 1134000    1.0067332   -2.6232045   -2.6232045   -1.5465462  0.065711246   -2.6232045    1.0766583   578779 
 1135000    1.0066258   -2.6222197   -2.6222197   -1.5456763  0.073780209   -2.6222197    1.0765434   578779 
 1136000    1.0078866   -2.6221457   -2.6221457    -1.544254  0.073016946   -2.6221457    1.0778918   578779 
 1137000    1.0072314   -2.6225143   -2.6225143   -1.5453233  0.057595043   -2.6225143    1.0771911   578779 
 1138000     1.007688   -2.6231458   -2.6231458   -1.5454663  0.055364778   -2.6231458    1.0776795   578779 
 1139000    1.0062795   -2.6216498   -2.6216498   -1.5454767  0.065206481   -2.6216498     1.076173   578779 
 1140000    1.0081899   -2.6236164   -2.6236164   -1.5454002   0.06195956   -2.6236164    1.0782162   578779 
 1141000     1.006217   -2.6207347   -2.6207347   -1.5446284  0.062096236   -2.6207347    1.0761062   578779 
 1142000    1.0069341   -2.6222781   -2.6222781    -1.545405  0.061179937   -2.6222781    1.0768731   578779 
 1143000    1.0068759   -2.6229942   -2.6229942   -1.5461834  0.060771499   -2.6229942    1.0768109   578779 
 1144000    1.0064776   -2.6221121   -2.6221121   -1.5457271   0.05802503   -2.6221121    1.0763849   578779 
 1145000    1.0080663   -2.6235558   -2.6235558   -1.5454718  0.057425746   -2.6235558     1.078084   578779 
 1146000     1.006027   -2.6210413   -2.6210413   -1.5451383  0.056412494   -2.6210413     1.075903   578779 
 1147000    1.0062488   -2.6211393   -2.6211393   -1.5449991  0.057859396   -2.6211393    1.0761402   578779 
 1148000    1.0081389   -2.6232154   -2.6232154   -1.5450539  0.066135801   -2.6232154    1.0781616   578779 
 1149000    1.0076175   -2.6221262   -2.6221262   -1.5445222  0.071979254   -2.6221262     1.077604   578779 
 1150000    1.0070741   -2.6219248   -2.6219248   -1.5449019  0.066832195   -2.6219248    1.0770228   578779 
 1151000    1.0069587   -2.6223886   -2.6223886   -1.5454891  0.063209149   -2.6223886    1.0768995   578779 
 1152000    1.0072684   -2.6235378   -2.6235378   -1.5463071  0.058006714   -2.6235378    1.0772306   578779 
 1153000    1.0062457   -2.6221365   -2.6221365   -1.5459995  0.068779248   -2.6221365     1.076137   578779 
 1154000     1.008543   -2.6245975   -2.6245975   -1.5460037  0.066293867   -2.6245975    1.0785938   578779 
 1155000    1.0081582   -2.6243961   -2.6243961   -1.5462138  0.065010046   -2.6243961    1.0781823   578779 
 1156000    1.0073448   -2.6244245   -2.6244245   -1.5471121  0.065911866   -2.6244245    1.0773124   578779 
 1157000    1.0065537   -2.6237541   -2.6237541   -1.5472877  0.061979941   -2.6237541    1.0764663   578779 
 1158000    1.0078256   -2.6257946   -2.6257946    -1.547968  0.060446524   -2.6257946    1.0778266   578779 
 1159000    1.0064336   -2.6251502   -2.6251502   -1.5488123  0.071063244   -2.6251502    1.0763379   578779 
 1160000    1.0068372   -2.6246847   -2.6246847   -1.5479152  0.058898345   -2.6246847    1.0767695   578779 
 1161000     1.007411   -2.6252111   -2.6252111   -1.5478279  0.060657994   -2.6252111    1.0773832   578779 
 1162000    1.0086155   -2.6267613   -2.6267613   -1.5480899  0.061365781   -2.6267613    1.0786714   578779 
 1163000    1.0079347   -2.6254796   -2.6254796   -1.5475363  0.066006455   -2.6254796    1.0779433   578779 
 1164000    1.0065917   -2.6245949   -2.6245949    -1.548088   0.06938595   -2.6245949    1.0765069   578779 
 1165000    1.0065736   -2.6239597   -2.6239597   -1.5474721  0.056057847   -2.6239597    1.0764876   578779 
 1166000    1.0070092   -2.6250298   -2.6250298   -1.5480764  0.062018665   -2.6250298    1.0769534   578779 
 1167000    1.0060438   -2.6232779   -2.6232779   -1.5473569  0.057348487   -2.6232779    1.0759211   578779 
 1168000    1.0063729   -2.6240175   -2.6240175   -1.5477446  0.068342968   -2.6240175    1.0762729   578779 
 1169000    1.0068719   -2.6250941   -2.6250941   -1.5482874  0.060054914   -2.6250941    1.0768066   578779 
 1170000    1.0071657   -2.6255959   -2.6255959   -1.5484751  0.056970718   -2.6255959    1.0771208   578779 
 1171000    1.0062948    -2.624521    -2.624521   -1.5483315   0.05268987    -2.624521    1.0761895   578779 
 1172000    1.0068106   -2.6244145   -2.6244145   -1.5476735  0.059881309   -2.6244145     1.076741   578779 
 1173000    1.0070888   -2.6238931   -2.6238931   -1.5468545  0.064459417   -2.6238931    1.0770386   578779 
 1174000    1.0083012   -2.6256391   -2.6256391   -1.5473039  0.060208443   -2.6256391    1.0783352   578779 
 1175000    1.0099436   -2.6275734   -2.6275734   -1.5474817  0.064183193   -2.6275734    1.0800917   578779 
 1176000    1.0088266   -2.6266832   -2.6266832   -1.5477862  0.073125505   -2.6266832    1.0788971   578779 
 1177000    1.0089376   -2.6268744   -2.6268744   -1.5478586  0.062561037   -2.6268744    1.0790158   578779 
 1178000    1.0096522   -2.6270838   -2.6270838   -1.5473038  0.089061505   -2.6270838      1.07978   578779 
 1179000    1.0077066   -2.6256163   -2.6256163    -1.547917  0.052276444   -2.6256163    1.0776993   578779 
 1180000    1.0089079   -2.6275221   -2.6275221   -1.5485381  0.068017417   -2.6275221     1.078984   578779 
 1181000    1.0065472   -2.6252005   -2.6252005   -1.5487411  0.069377369   -2.6252005    1.0764594   578779 
 1182000    1.0070709   -2.6257028   -2.6257028   -1.5486833  0.052186356   -2.6257028    1.0770195   578779 
 1183000    1.0068498   -2.6249365   -2.6249365   -1.5481535  0.074815336   -2.6249365     1.076783   578779 
 1184000    1.0074132   -2.6260317   -2.6260317   -1.5486461  0.063972783   -2.6260317    1.0773855   578779 
 1185000    1.0057218   -2.6252135   -2.6252135   -1.5496369  0.058357342   -2.6252135    1.0755766   578779 
 1186000    1.0063236    -2.624963    -2.624963   -1.5487427   0.07211127    -2.624963    1.0762202   578779 
 1187000    1.0073326   -2.6262072   -2.6262072   -1.5489079  0.062306113   -2.6262072    1.0772993   578779 
 1188000    1.0061496   -2.6258307   -2.6258307   -1.5497965  0.070468485   -2.6258307    1.0760341   578779 
 1189000    1.0084556   -2.6272968   -2.6272968   -1.5487965  0.074640164   -2.6272968    1.0785003   578779 
 1190000    1.0085331   -2.6274782   -2.6274782    -1.548895  0.073905094   -2.6274782    1.0785832   578779 
 1191000    1.0073354   -2.6261851   -2.6261851   -1.5488828  0.054337893   -2.6261851    1.0773024   578779 
 1192000    1.0060835   -2.6251143   -2.6251143   -1.5491509  0.058000908   -2.6251143    1.0759635   578779 
 1193000    1.0058702   -2.6243305   -2.6243305   -1.5485952  0.066402008   -2.6243305    1.0757354   578779 
 1194000    1.0064128   -2.6250232   -2.6250232   -1.5487076  0.057228898   -2.6250232    1.0763157   578779 
 1195000    1.0040666   -2.6224434   -2.6224434   -1.5486369  0.052952611   -2.6224434    1.0738064   578779 
 1196000    1.0038358   -2.6232875   -2.6232875   -1.5497278  0.055403073   -2.6232875    1.0735597   578779 
 1197000    1.0050036   -2.6244505   -2.6244505   -1.5496419  0.064665371   -2.6244505    1.0748086   578779 
 1198000    1.0052803   -2.6245929   -2.6245929   -1.5494884  0.057218079   -2.6245929    1.0751045   578779 
 1199000    1.0069462   -2.6261737   -2.6261737   -1.5492876  0.051759135   -2.6261737     1.076886   578779 
 1200000    1.0054993   -2.6245583   -2.6245583   -1.5492196  0.059997968   -2.6245583    1.0753387   578779 
 1201000    1.0053542   -2.6243437   -2.6243437   -1.5491602  0.065976335   -2.6243437    1.0751835   578779 
 1202000    1.0062616   -2.6254743   -2.6254743   -1.5493203  0.068636676   -2.6254743     1.076154   578779 
 1203000    1.0067784    -2.626839    -2.626839   -1.5501323  0.068092411    -2.626839    1.0767067   578779 
 1204000    1.0078399   -2.6278622   -2.6278622   -1.5500203  0.061043871   -2.6278622    1.0778418   578779 
 1205000    1.0073261   -2.6271629   -2.6271629   -1.5498705  0.069050667   -2.6271629    1.0772923   578779 
 1206000    1.0057747   -2.6265452   -2.6265452    -1.550912  0.056586926   -2.6265452    1.0756333   578779 
 1207000    1.0067288   -2.6273758   -2.6273758   -1.5507222  0.044388284   -2.6273758    1.0766536   578779 
 1208000    1.0069107   -2.6279889   -2.6279889   -1.5511408  0.049087342   -2.6279889    1.0768481   578779 
 1209000    1.0068269   -2.6277791   -2.6277791   -1.5510206  0.063970672   -2.6277791    1.0767585   578779 
 1210000    1.0074002   -2.6286445   -2.6286445    -1.551273  0.059341606   -2.6286445    1.0773716   578779 
 1211000    1.0064069   -2.6278318   -2.6278318   -1.5515225  0.065491051   -2.6278318    1.0763094   578779 
 1212000    1.0052159    -2.627251    -2.627251   -1.5522154  0.065340803    -2.627251    1.0750356   578779 
 1213000    1.0076543    -2.629547    -2.629547   -1.5519036  0.051825958    -2.629547    1.0776434   578779 
 1214000    1.0070889   -2.6295122   -2.6295122   -1.5524735  0.064120026   -2.6295122    1.0770387   578779 
 1215000    1.0061735   -2.6283691   -2.6283691   -1.5523093  0.068163925   -2.6283691    1.0760598   578779 
 1216000     1.008688   -2.6305302   -2.6305302   -1.5517814  0.076478679   -2.6305302    1.0787488   578779 
 1217000    1.0072352   -2.6298391   -2.6298391   -1.5526439  0.073160666   -2.6298391    1.0771952   578779 
 1218000    1.0075543   -2.6299048   -2.6299048   -1.5523683  0.071171612   -2.6299048    1.0775365   578779 
 1219000    1.0067929   -2.6286952   -2.6286952    -1.551973   0.06904423   -2.6286952    1.0767222   578779 
 1220000    1.0073226   -2.6287755   -2.6287755   -1.5514868  0.069031389   -2.6287755    1.0772887   578779 
 1221000    1.0075038   -2.6296203   -2.6296203   -1.5521378  0.071511258   -2.6296203    1.0774825   578779 
 1222000    1.0054976   -2.6283435   -2.6283435   -1.5530066  0.067581643   -2.6283435    1.0753369   578779 
 1223000    1.0061986   -2.6295745   -2.6295745    -1.553488  0.068355011   -2.6295745    1.0760865   578779 
 1224000     1.007083   -2.6298977   -2.6298977   -1.5528653  0.056747521   -2.6298977    1.0770324   578779 
 1225000    1.0063198    -2.628439    -2.628439   -1.5522228  0.055245826    -2.628439    1.0762161   578779 
 1226000    1.0072875   -2.6305655   -2.6305655   -1.5533143   0.05197639   -2.6305655    1.0772511   578779 
 1227000    1.0046706   -2.6272581   -2.6272581   -1.5528057  0.061287401   -2.6272581    1.0744524   578779 
 1228000    1.0055602   -2.6281994   -2.6281994   -1.5527955  0.064546462   -2.6281994    1.0754039   578779 
 1229000    1.0047034   -2.6279765   -2.6279765    -1.553489  0.059166425   -2.6279765    1.0744875   578779 
 1230000    1.0035572   -2.6268653   -2.6268653   -1.5536037  0.070096475   -2.6268653    1.0732617   578779 
 1231000    1.0041602   -2.6283919   -2.6283919   -1.5544854  0.053116747   -2.6283919    1.0739065   578779 
 1232000    1.0040575   -2.6287433   -2.6287433   -1.5549466  0.065065351   -2.6287433    1.0737967   578779 
 1233000    1.0037032   -2.6282655   -2.6282655   -1.5548477  0.061084349   -2.6282655    1.0734178   578779 
 1234000    1.0056454   -2.6297383   -2.6297383   -1.5542434  0.059255314   -2.6297383    1.0754949   578779 
 1235000     1.006347   -2.6316529   -2.6316529   -1.5554076  0.062890349   -2.6316529    1.0762452   578779 
 1236000    1.0057265   -2.6309746   -2.6309746   -1.5553929  0.070080595   -2.6309746    1.0755817   578779 
 1237000    1.0056482   -2.6308096   -2.6308096   -1.5553117  0.066923134   -2.6308096    1.0754979   578779 
 1238000     1.007517   -2.6329322   -2.6329322   -1.5554357  0.060062525   -2.6329322    1.0774965   578779 
 1239000    1.0063029    -2.631235    -2.631235   -1.5550369  0.062879962    -2.631235    1.0761981   578779 
 1240000    1.0075203   -2.6325921   -2.6325921    -1.555092   0.07308804   -2.6325921    1.0775001   578779 
 1241000     1.007954   -2.6332472   -2.6332472   -1.5552833  0.062608514   -2.6332472    1.0779639   578779 
 1242000     1.008394   -2.6327423   -2.6327423   -1.5543079  0.063932296   -2.6327423    1.0784344   578779 
 1243000    1.0063178   -2.6313981   -2.6313981    -1.555184   0.05433447   -2.6313981    1.0762141   578779 
 1244000    1.0054937   -2.6310182   -2.6310182   -1.5556855  0.056093973   -2.6310182    1.0753327   578779 
 1245000    1.0048734   -2.6307587   -2.6307587   -1.5560894  0.060270734   -2.6307587    1.0746693   578779 
 1246000    1.0037806    -2.629832    -2.629832   -1.5563313  0.052540819    -2.629832    1.0735007   578779 
 1247000    1.0054722    -2.632346    -2.632346   -1.5570363  0.061736328    -2.632346    1.0753097   578779 
 1248000    1.0059233   -2.6332236   -2.6332236   -1.5574315  0.062871889   -2.6332236    1.0757921   578779 
 1249000    1.0058167   -2.6333044   -2.6333044   -1.5576263  0.062167789   -2.6333044    1.0756781   578779 
 1250000    1.0046475   -2.6314083   -2.6314083   -1.5569806  0.062535194   -2.6314083    1.0744277   578779 
 1251000    1.0060682   -2.6322266   -2.6322266   -1.5562796  0.064427586   -2.6322266    1.0759471   578779 
 1252000     1.006595   -2.6321686   -2.6321686   -1.5556581  0.063745531   -2.6321686    1.0765105   578779 
 1253000    1.0056239   -2.6314861   -2.6314861   -1.5560142  0.059184967   -2.6314861    1.0754719   578779 
 1254000    1.0067148   -2.6327418   -2.6327418   -1.5561033  0.062167483   -2.6327418    1.0766386   578779 
 1255000    1.0053592   -2.6312916   -2.6312916   -1.5561027  0.061883749   -2.6312916    1.0751889   578779 
 1256000     1.005845   -2.6305814   -2.6305814   -1.5548729  0.061122366   -2.6305814    1.0757085   578779 
 1257000     1.006485   -2.6316375   -2.6316375   -1.5552446  0.068615936   -2.6316375    1.0763929   578779 
 1258000    1.0067788   -2.6311098   -2.6311098   -1.5544027  0.067174752   -2.6311098     1.076707   578779 
 1259000    1.0078772   -2.6316603   -2.6316603   -1.5537786  0.051746793   -2.6316603    1.0778817   578779 
 1260000    1.0073377   -2.6311997   -2.6311997   -1.5538949  0.065995639   -2.6311997    1.0773048   578779 
 1261000    1.0064797   -2.6300085   -2.6300085   -1.5536212  0.057439576   -2.6300085    1.0763872   578779 
 1262000    1.0042069   -2.6279486   -2.6279486    -1.553992  0.055841682   -2.6279486    1.0739566   578779 
 1263000    1.0044537   -2.6285128   -2.6285128   -1.5542924  0.046708057   -2.6285128    1.0742204   578779 
 1264000     1.005351   -2.6281132   -2.6281132   -1.5529331  0.056459078   -2.6281132    1.0751801   578779 
 1265000    1.0064303   -2.6290408   -2.6290408   -1.5527065  0.055792948   -2.6290408    1.0763344   578779 
 1266000    1.0057376   -2.6285287   -2.6285287   -1.5529351  0.054998829   -2.6285287    1.0755936   578779 
 1267000    1.0061831   -2.6286902   -2.6286902   -1.5526202  0.062287204   -2.6286902      1.07607   578779 
 1268000    1.0056375   -2.6275175   -2.6275175    -1.552031  0.062633931   -2.6275175    1.0754865   578779 
 1269000    1.0068628   -2.6294403   -2.6294403   -1.5526433  0.064836444   -2.6294403    1.0767969   578779 
 1270000    1.0073578   -2.6306129   -2.6306129   -1.5532866  0.056878911   -2.6306129    1.0773263   578779 
 1271000     1.006169   -2.6282171   -2.6282171   -1.5521622   0.06010492   -2.6282171    1.0760549   578779 
 1272000    1.0063608   -2.6290107   -2.6290107   -1.5527506  0.055570584   -2.6290107    1.0762601   578779 
 1273000    1.0039359   -2.6272156   -2.6272156   -1.5535489  0.054356162   -2.6272156    1.0736667   578779 
 1274000    1.0061993   -2.6293616   -2.6293616   -1.5532743  0.053216125   -2.6293616    1.0760873   578779 
 1275000    1.0051595   -2.6279804   -2.6279804   -1.5530051  0.046562624   -2.6279804    1.0749753   578779 
 1276000    1.0051671   -2.6282603   -2.6282603   -1.5532769  0.057520382   -2.6282603    1.0749834   578779 
 1277000    1.0057524   -2.6284334   -2.6284334   -1.5528241  0.059135348   -2.6284334    1.0756093   578779 
 1278000    1.0055899   -2.6276705   -2.6276705   -1.5522349  0.070361495   -2.6276705    1.0754356   578779 
 1279000    1.0050692   -2.6279347   -2.6279347   -1.5530559  0.059017785   -2.6279347    1.0748788   578779 
 1280000    1.0067005    -2.630049    -2.630049   -1.5534256   0.05949335    -2.630049    1.0766233   578779 
 1281000    1.0062629   -2.6292137   -2.6292137   -1.5530584  0.059344213   -2.6292137    1.0761554   578779 
 1282000    1.0055087    -2.627678    -2.627678   -1.5523292  0.062873763    -2.627678    1.0753488   578779 
 1283000    1.0054186   -2.6280579   -2.6280579   -1.5528055  0.060308699   -2.6280579    1.0752524   578779 
 1284000    1.0064977   -2.6296999   -2.6296999   -1.5532935  0.061939517   -2.6296999    1.0764064   578779 
 1285000    1.0072029   -2.6298693   -2.6298693   -1.5527087  0.046679552   -2.6298693    1.0771606   578779 
 1286000    1.0076318   -2.6297669   -2.6297669   -1.5521475  0.065538646   -2.6297669    1.0776193   578779 
 1287000    1.0072646   -2.6300309   -2.6300309   -1.5528043  0.068633247   -2.6300309    1.0772266   578779 
 1288000    1.0067715   -2.6290873   -2.6290873    -1.552388  0.062649776   -2.6290873    1.0766993   578779 
 1289000    1.0071044   -2.6293968   -2.6293968   -1.5523415  0.056717436   -2.6293968    1.0770552   578779 
 1290000    1.0071501   -2.6290513   -2.6290513   -1.5519472  0.069272277   -2.6290513    1.0771042   578779 
 1291000    1.0075246   -2.6297192   -2.6297192   -1.5522145  0.061716136   -2.6297192    1.0775047   578779 
 1292000    1.0074649   -2.6303119   -2.6303119   -1.5528711  0.053150379   -2.6303119    1.0774408   578779 
 1293000    1.0073495   -2.6302407   -2.6302407   -1.5529233  0.061993992   -2.6302407    1.0773174   578779 
 1294000    1.0052202   -2.6289329   -2.6289329   -1.5538927   0.04895602   -2.6289329    1.0750402   578779 
 1295000    1.0062186   -2.6302761   -2.6302761   -1.5541682  0.058780502   -2.6302761    1.0761079   578779 
 1296000    1.0051039   -2.6297178   -2.6297178   -1.5548019  0.047898942   -2.6297178    1.0749158   578779 
 1297000    1.0051025   -2.6300465   -2.6300465   -1.5551321  0.060440393   -2.6300465    1.0749144   578779 
 1298000    1.0063449   -2.6313637   -2.6313637   -1.5551207  0.059754218   -2.6313637     1.076243   578779 
 1299000    1.0082242   -2.6333099   -2.6333099   -1.5550571  0.069708537   -2.6333099    1.0782528   578779 
 1300000    1.0082895   -2.6334655   -2.6334655   -1.5551427  0.076487923   -2.6334655    1.0783227   578779 
 1301000    1.0067891   -2.6319843   -2.6319843   -1.5552661  0.064987557   -2.6319843    1.0767181   578779 
 1302000    1.0081254   -2.6336815   -2.6336815   -1.5555344  0.055448699   -2.6336815    1.0781472   578779 
 1303000    1.0077177   -2.6328978   -2.6328978   -1.5551866  0.062815803   -2.6328978    1.0777112   578779 
 1304000    1.0067743    -2.632739    -2.632739   -1.5560368  0.069760656    -2.632739    1.0767022   578779 
 1305000    1.0064426   -2.6326842   -2.6326842   -1.5563367  0.067342628   -2.6326842    1.0763475   578779 
 1306000    1.0063417   -2.6322776   -2.6322776    -1.556038   0.06077724   -2.6322776    1.0762396   578779 
 1307000    1.0063541   -2.6318138   -2.6318138   -1.5555609  0.070253347   -2.6318138    1.0762529   578779 
 1308000    1.0066376   -2.6329894   -2.6329894   -1.5564333  0.040878379   -2.6329894    1.0765561   578779 
 1309000    1.0059117   -2.6316596   -2.6316596   -1.5558798  0.061586118   -2.6316596    1.0757798   578779 
 1310000    1.0074487   -2.6328288   -2.6328288   -1.5554053  0.054968459   -2.6328288    1.0774235   578779 
 1311000    1.0062334   -2.6316392   -2.6316392   -1.5555155  0.062426444   -2.6316392    1.0761237   578779 
 1312000    1.0055153   -2.6314881   -2.6314881   -1.5561323   0.06266827   -2.6314881    1.0753559   578779 
 1313000    1.0059099   -2.6322174   -2.6322174   -1.5564397  0.069908829   -2.6322174    1.0757778   578779 
 1314000    1.0065367   -2.6328276   -2.6328276   -1.5563795  0.061162298   -2.6328276    1.0764481   578779 
 1315000    1.0075333    -2.634252    -2.634252   -1.5567381  0.057717938    -2.634252    1.0775139   578779 
 1316000    1.0094004   -2.6354012   -2.6354012   -1.5558905  0.060298852   -2.6354012    1.0795108   578779 
 1317000    1.0074808   -2.6334639   -2.6334639   -1.5560061  0.069686495   -2.6334639    1.0774578   578779 
 1318000    1.0079248   -2.6341505   -2.6341505   -1.5562178  0.054070681   -2.6341505    1.0779327   578779 
 1319000    1.0051104   -2.6316689   -2.6316689   -1.5567462  0.061051928   -2.6316689    1.0749227   578779 
 1320000    1.0068752    -2.633019    -2.633019   -1.5562089  0.056564283    -2.633019    1.0768101   578779 
 1321000    1.0068004   -2.6335639   -2.6335639   -1.5568337  0.057235901   -2.6335639    1.0767302   578779 
 1322000    1.0056133   -2.6331831   -2.6331831   -1.5577225  0.057289654   -2.6331831    1.0754606   578779 
 1323000    1.0065792   -2.6336562   -2.6336562   -1.5571625  0.068522198   -2.6336562    1.0764936   578779 
 1324000    1.0073004   -2.6330751   -2.6330751   -1.5558103  0.067883181   -2.6330751    1.0772649   578779 
 1325000    1.0061306   -2.6319299   -2.6319299   -1.5559161  0.052572676   -2.6319299    1.0760138   578779 
 1326000    1.0058938   -2.6322599   -2.6322599   -1.5564994  0.069137594   -2.6322599    1.0757606   578779 
 1327000     1.003971   -2.6304185   -2.6304185   -1.5567142  0.066357405   -2.6304185    1.0737043   578779 
 1328000    1.0026963   -2.6285362   -2.6285362   -1.5561952  0.057305064   -2.6285362     1.072341   578779 
 1329000    1.0045778   -2.6303064   -2.6303064   -1.5559532  0.052139253   -2.6303064    1.0743531   578779 
 1330000    1.0034331   -2.6291211   -2.6291211   -1.5559921  0.057956538   -2.6291211     1.073129   578779 
 1331000    1.0046619   -2.6301054   -2.6301054   -1.5556623   0.05228618   -2.6301054    1.0744431   578779 
 1332000    1.0071835   -2.6325707   -2.6325707   -1.5554308  0.065240866   -2.6325707    1.0771399   578779 
 1333000    1.0072753   -2.6326523   -2.6326523   -1.5554142  0.067941842   -2.6326523    1.0772381   578779 
 1334000      1.00724   -2.6329962   -2.6329962   -1.5557959  0.061720148   -2.6329962    1.0772003   578779 
 1335000     1.007129   -2.6334356   -2.6334356    -1.556354   0.06934369   -2.6334356    1.0770815   578779 
 1336000    1.0071932   -2.6335896   -2.6335896   -1.5564393  0.048428364   -2.6335896    1.0771503   578779 
 1337000    1.0073758   -2.6339982   -2.6339982   -1.5566527  0.061275633   -2.6339982    1.0773455   578779 
 1338000    1.0072356   -2.6341464   -2.6341464   -1.5569508  0.077175278   -2.6341464    1.0771956   578779 
 1339000    1.0071012   -2.6337642   -2.6337642   -1.5567123  0.070269292   -2.6337642    1.0770519   578779 
 1340000    1.0066948   -2.6332704   -2.6332704   -1.5566531  0.065939304   -2.6332704    1.0766172   578779 
 1341000    1.0066879   -2.6328148   -2.6328148    -1.556205  0.053338699   -2.6328148    1.0766098   578779 
 1342000    1.0036176   -2.6294538   -2.6294538   -1.5561275  0.061507997   -2.6294538    1.0733263   578779 
 1343000    1.0052662   -2.6315882   -2.6315882   -1.5564987  0.058732639   -2.6315882    1.0750894   578779 
 1344000    1.0046826   -2.6306746   -2.6306746   -1.5562093  0.061566214   -2.6306746    1.0744653   578779 
 1345000    1.0048812   -2.6312194   -2.6312194   -1.5565418  0.070653615   -2.6312194    1.0746776   578779 
 1346000    1.0046834   -2.6315632   -2.6315632    -1.557097  0.062296931   -2.6315632    1.0744662   578779 
 1347000    1.0066484   -2.6326789   -2.6326789   -1.5561113  0.062421245   -2.6326789    1.0765676   578779 
 1348000    1.0068469   -2.6328777   -2.6328777   -1.5560978  0.053074904   -2.6328777    1.0767799   578779 
 1349000     1.005004   -2.6315475   -2.6315475   -1.5567384  0.062554544   -2.6315475     1.074809   578779 
 1350000    1.0067639   -2.6332552   -2.6332552   -1.5565641  0.058354412   -2.6332552    1.0766912   578779 
 1351000    1.0066243   -2.6322281   -2.6322281   -1.5556862  0.068978744   -2.6322281    1.0765418   578779 
 1352000    1.0071313   -2.6334641   -2.6334641     -1.55638  0.069719298   -2.6334641    1.0770841   578779 
 1353000    1.0065455   -2.6325488   -2.6325488   -1.5560912  0.072161546   -2.6325488    1.0764576   578779 
 1354000    1.0071112   -2.6328199   -2.6328199   -1.5557573  0.061542643   -2.6328199    1.0770625   578779 
 1355000    1.0071077   -2.6329934   -2.6329934   -1.5559346  0.076442508   -2.6329934    1.0770589   578779 
 1356000    1.0083736   -2.6343322   -2.6343322   -1.5559195  0.053289855   -2.6343322    1.0784127   578779 
 1357000    1.0062699   -2.6330079   -2.6330079    -1.556845  0.063938783   -2.6330079    1.0761629   578779 
 1358000    1.0065083   -2.6332037   -2.6332037    -1.556786  0.071467983   -2.6332037    1.0764177   578779 
 1359000     1.008338   -2.6349466   -2.6349466    -1.556572  0.076806271   -2.6349466    1.0783746   578779 
 1360000    1.0058237   -2.6328511   -2.6328511   -1.5571654  0.063358127   -2.6328511    1.0756856   578779 
 1361000    1.0073341   -2.6355588   -2.6355588   -1.5582579  0.064796101   -2.6355588     1.077301   578779 
 1362000    1.0074268   -2.6361578   -2.6361578   -1.5587578  0.059161806   -2.6361578    1.0774001   578779 
 1363000    1.0073134   -2.6357316   -2.6357316   -1.5584529  0.062097811   -2.6357316    1.0772788   578779 
 1364000    1.0060195     -2.63471     -2.63471    -1.558815  0.059964128     -2.63471     1.075895   578779 
 1365000    1.0045786   -2.6335431   -2.6335431   -1.5591891  0.056335491   -2.6335431     1.074354   578779 
 1366000    1.0063118   -2.6359891   -2.6359891   -1.5597814   0.05625245   -2.6359891    1.0762076   578779 
 1367000    1.0045638   -2.6334345   -2.6334345   -1.5590963  0.065086919   -2.6334345    1.0743382   578779 
 1368000    1.0048725   -2.6335448   -2.6335448   -1.5588764  0.065214532   -2.6335448    1.0746684   578779 
 1369000    1.0045581   -2.6339869   -2.6339869   -1.5596548  0.051600492   -2.6339869    1.0743321   578779 
 1370000    1.0058032   -2.6332377   -2.6332377    -1.557574  0.066868463   -2.6332377    1.0756637   578779 
 1371000     1.005842   -2.6337643   -2.6337643   -1.5580591  0.063793191   -2.6337643    1.0757052   578779 
 1372000    1.0061637   -2.6340095   -2.6340095   -1.5579603  0.073794663   -2.6340095    1.0760492   578779 
 1373000    1.0063329   -2.6342754   -2.6342754   -1.5580452  0.057284026   -2.6342754    1.0762302   578779 
 1374000    1.0054225   -2.6328751   -2.6328751   -1.5576185  0.051456993   -2.6328751    1.0752566   578779 
 1375000    1.0049875   -2.6322109   -2.6322109   -1.5574195  0.066504997   -2.6322109    1.0747914   578779 
 1376000    1.0058901   -2.6335293   -2.6335293   -1.5577726  0.069347452   -2.6335293    1.0757566   578779 
 1377000     1.005399   -2.6340171   -2.6340171   -1.5587856  0.050857625   -2.6340171    1.0752315   578779 
 1378000    1.0026747   -2.6314007   -2.6314007   -1.5590828  0.055893765   -2.6314007    1.0723179   578779 
 1379000    1.0035725   -2.6319254   -2.6319254   -1.5586474  0.058274911   -2.6319254    1.0732781   578779 
 1380000    1.0053768   -2.6338598   -2.6338598   -1.5586521  0.065869233   -2.6338598    1.0752077   578779 
 1381000    1.0056111   -2.6337185   -2.6337185   -1.5582603  0.058756946   -2.6337185    1.0754582   578779 
 1382000    1.0047936   -2.6324221   -2.6324221   -1.5578381  0.074093106   -2.6324221     1.074584   578779 
 1383000    1.0042095   -2.6323698   -2.6323698   -1.5584106  0.064098308   -2.6323698    1.0739593   578779 
 1384000    1.0039781   -2.6322654   -2.6322654   -1.5585536  0.067167402   -2.6322654    1.0737118   578779 
 1385000    1.0059256   -2.6343479   -2.6343479   -1.5585533  0.057383678   -2.6343479    1.0757946   578779 
 1386000    1.0046907   -2.6327816   -2.6327816   -1.5583077  0.062413853   -2.6327816    1.0744739   578779 
 1387000    1.0034071   -2.6312031   -2.6312031   -1.5581018    0.0668946   -2.6312031    1.0731012   578779 
 1388000    1.0053969   -2.6330583   -2.6330583    -1.557829   0.05863034   -2.6330583    1.0752292   578779 
 1389000    1.0064174   -2.6333433   -2.6333433   -1.5570227   0.06487583   -2.6333433    1.0763206   578779 
 1390000    1.0067634   -2.6333984   -2.6333984   -1.5567078  0.060789651   -2.6333984    1.0766906   578779 
 1391000    1.0073345   -2.6346882   -2.6346882   -1.5573868  0.063626411   -2.6346882    1.0773014   578779 
 1392000    1.0063727   -2.6330991   -2.6330991   -1.5568264  0.069970216   -2.6330991    1.0762727   578779 
 1393000    1.0048972   -2.6316399   -2.6316399   -1.5569452  0.060761914   -2.6316399    1.0746947   578779 
 1394000    1.0064872   -2.6331605   -2.6331605   -1.5567653   0.06555736   -2.6331605    1.0763952   578779 
 1395000    1.0043747   -2.6319219   -2.6319219   -1.5577859  0.068001649   -2.6319219     1.074136   578779 
 1396000    1.0063702   -2.6347202   -2.6347202   -1.5584501  0.058545882   -2.6347202    1.0762701   578779 
 1397000    1.0068363   -2.6350983   -2.6350983   -1.5583298  0.059751415   -2.6350983    1.0767685   578779 
 1398000    1.0064634   -2.6342282   -2.6342282   -1.5578585  0.061397619   -2.6342282    1.0763697   578779 
 1399000     1.006251   -2.6349915   -2.6349915   -1.5588489  0.066516525   -2.6349915    1.0761426   578779 
 1400000    1.0053068   -2.6337768   -2.6337768    -1.558644  0.060470528   -2.6337768    1.0751328   578779 
 1401000    1.0066423   -2.6351397   -2.6351397   -1.5585786  0.057744867   -2.6351397    1.0765611   578779 
 1402000    1.0060634   -2.6337662   -2.6337662   -1.5578242  0.069553503   -2.6337662     1.075942   578779 
 1403000    1.0072648   -2.6354156   -2.6354156   -1.5581888  0.071682061   -2.6354156    1.0772268   578779 
 1404000     1.007602   -2.6354181   -2.6354181   -1.5578306  0.057902206   -2.6354181    1.0775875   578779 
 1405000    1.0081941   -2.6358573   -2.6358573   -1.5576367  0.064718599   -2.6358573    1.0782206   578779 
 1406000    1.0071362   -2.6346102   -2.6346102   -1.5575209   0.05893644   -2.6346102    1.0770893   578779 
 1407000     1.006189   -2.6329511   -2.6329511   -1.5568748   0.07328751   -2.6329511    1.0760763   578779 
 1408000    1.0062232   -2.6325544   -2.6325544   -1.5564416   0.07103681   -2.6325544    1.0761128   578779 
 1409000    1.0075826   -2.6345396   -2.6345396   -1.5569729  0.054200227   -2.6345396    1.0775667   578779 
 1410000    1.0047759   -2.6319332   -2.6319332   -1.5573681  0.067004834   -2.6319332     1.074565   578779 
 1411000    1.0064016   -2.6329394   -2.6329394   -1.5566357  0.054530435   -2.6329394    1.0763037   578779 
 1412000    1.0060646   -2.6322163   -2.6322163    -1.556273  0.058878603   -2.6322163    1.0759433   578779 
 1413000    1.0070754     -2.63379     -2.63379   -1.5567657  0.060980367     -2.63379    1.0770243   578779 
 1414000    1.0051545   -2.6323008   -2.6323008   -1.5573309  0.062997666   -2.6323008      1.07497   578779 
 1415000    1.0056998   -2.6330164   -2.6330164   -1.5574633   0.04605667   -2.6330164    1.0755531   578779 
 1416000    1.0055737   -2.6336112   -2.6336112    -1.558193  0.057961794   -2.6336112    1.0754182   578779 
 1417000    1.0050758    -2.632099    -2.632099   -1.5572132  0.046780037    -2.632099    1.0748858   578779 
 1418000    1.0054603   -2.6326235   -2.6326235   -1.5573265  0.061003757   -2.6326235     1.075297   578779 
 1419000    1.0036019   -2.6307415   -2.6307415    -1.557432  0.050249257   -2.6307415    1.0733095   578779 
 1420000    1.0055536   -2.6327682   -2.6327682   -1.5573714   0.04878151   -2.6327682    1.0753968   578779 
 1421000    1.0061899   -2.6338168   -2.6338168   -1.5577396  0.062504286   -2.6338168    1.0760772   578779 
 1422000    1.0040926   -2.6314291   -2.6314291   -1.5575948   0.05767801   -2.6314291    1.0738343   578779 
 1423000    1.0057602   -2.6333816   -2.6333816   -1.5577639  0.051595411   -2.6333816    1.0756177   578779 
 1424000    1.0041427   -2.6323286   -2.6323286   -1.5584407  0.067206999   -2.6323286    1.0738879   578779 
 1425000    1.0064013   -2.6340322   -2.6340322   -1.5577289  0.059190271   -2.6340322    1.0763033   578779 
 1426000     1.005109   -2.6336577   -2.6336577   -1.5587364  0.069061388   -2.6336577    1.0749213   578779 
 1427000    1.0066871   -2.6356763   -2.6356763   -1.5590673  0.060544939   -2.6356763     1.076609   578779 
 1428000    1.0066719   -2.6360235   -2.6360235   -1.5594307  0.051111619   -2.6360235    1.0765927   578779 
 1429000    1.0081102   -2.6373261   -2.6373261   -1.5591952    0.0561179   -2.6373261     1.078131   578779 
 1430000    1.0072045   -2.6370471   -2.6370471   -1.5598847  0.061464811   -2.6370471    1.0771623   578779 
 1431000    1.0059326   -2.6355458   -2.6355458   -1.5597437  0.070302666   -2.6355458     1.075802   578779 
 1432000      1.00755   -2.6370856   -2.6370856   -1.5595537  0.065897287   -2.6370856    1.0775318   578779 
 1433000    1.0070086   -2.6364898   -2.6364898    -1.559537   0.05878959   -2.6364898    1.0769528   578779 
 1434000    1.0082854   -2.6373954   -2.6373954   -1.5590771  0.060490882   -2.6373954    1.0783183   578779 
 1435000    1.0086168    -2.638293    -2.638293   -1.5596203  0.066567914    -2.638293    1.0786727   578779 
 1436000    1.0083415   -2.6380841   -2.6380841   -1.5597058  0.067512144   -2.6380841    1.0783783   578779 
 1437000    1.0088417   -2.6382753   -2.6382753    -1.559362  0.071644145   -2.6382753    1.0789132   578779 
 1438000    1.0068937   -2.6376761   -2.6376761   -1.5608462  0.069595812   -2.6376761      1.07683   578779 
 1439000     1.008441   -2.6399081   -2.6399081   -1.5614234  0.073728362   -2.6399081    1.0784847   578779 
 1440000     1.008255   -2.6399837   -2.6399837   -1.5616979  0.077406651   -2.6399837    1.0782858   578779 
 1441000    1.0080338   -2.6391277   -2.6391277   -1.5610785  0.057896338   -2.6391277    1.0780492   578779 
 1442000    1.0090792   -2.6402318   -2.6402318   -1.5610645  0.064396755   -2.6402318    1.0791673   578779 
 1443000    1.0070533   -2.6382828   -2.6382828   -1.5612822   0.06951162   -2.6382828    1.0770006   578779 
 1444000    1.0071939    -2.638733    -2.638733   -1.5615821  0.062158277    -2.638733     1.077151   578779 
 1445000     1.004665    -2.636138    -2.636138   -1.5616916  0.070421932    -2.636138    1.0744464   578779 
 1446000    1.0065603   -2.6372283   -2.6372283   -1.5607548  0.057652704   -2.6372283    1.0764734   578779 
 1447000    1.0076478   -2.6382263   -2.6382263   -1.5605899   0.06269335   -2.6382263    1.0776364   578779 
 1448000     1.007079   -2.6372976   -2.6372976   -1.5602694   0.07334194   -2.6372976    1.0770282   578779 
 1449000     1.008314   -2.6383932   -2.6383932   -1.5600443  0.061738564   -2.6383932    1.0783489   578779 
 1450000    1.0060487   -2.6360053   -2.6360053    -1.560079  0.068878001   -2.6360053    1.0759263   578779 
 1451000    1.0061869   -2.6362694   -2.6362694   -1.5601954  0.065848523   -2.6362694     1.076074   578779 
 1452000     1.007588   -2.6366993   -2.6366993   -1.5591268  0.062124375   -2.6366993    1.0775725   578779 
 1453000    1.0072908   -2.6373031   -2.6373031   -1.5600485  0.055474906   -2.6373031    1.0772546   578779 
 1454000    1.0060764   -2.6359964   -2.6359964   -1.5600405  0.058777008   -2.6359964    1.0759559   578779 
 1455000    1.0068247   -2.6365204   -2.6365204   -1.5597642  0.064545232   -2.6365204    1.0767562   578779 
 1456000    1.0058914    -2.635232    -2.635232    -1.559474  0.062865847    -2.635232     1.075758   578779 
 1457000    1.0069404   -2.6365813   -2.6365813   -1.5597014  0.065814505   -2.6365813    1.0768799   578779 
 1458000    1.0067325   -2.6370575   -2.6370575   -1.5603999  0.065544791   -2.6370575    1.0766576   578779 
 1459000    1.0071563   -2.6367614   -2.6367614   -1.5596506  0.067638238   -2.6367614    1.0771108   578779 
 1460000    1.0067164   -2.6366079   -2.6366079   -1.5599676   0.06300436   -2.6366079    1.0766404   578779 
 1461000    1.0068368   -2.6377841   -2.6377841    -1.561015  0.063616415   -2.6377841    1.0767691   578779 
 1462000    1.0062497   -2.6366798   -2.6366798   -1.5605386  0.074131854   -2.6366798    1.0761412   578779 
 1463000    1.0068914   -2.6370096   -2.6370096   -1.5601821  0.067686444   -2.6370096    1.0768275   578779 
 1464000    1.0071085   -2.6366208   -2.6366208   -1.5595612  0.069215364   -2.6366208    1.0770596   578779 
 1465000    1.0075425   -2.6375134   -2.6375134   -1.5599895  0.071185022   -2.6375134    1.0775238   578779 
 1466000    1.0089601   -2.6388281   -2.6388281   -1.5597882  0.060890161   -2.6388281    1.0790399   578779 
 1467000    1.0078763   -2.6383447   -2.6383447   -1.5604639  0.064745895   -2.6383447    1.0778808   578779 
 1468000    1.0067292   -2.6375382   -2.6375382   -1.5608841  0.057049127   -2.6375382    1.0766541   578779 
 1469000    1.0076303   -2.6374416   -2.6374416   -1.5598239  0.070045912   -2.6374416    1.0776177   578779 
 1470000    1.0062701   -2.6367719   -2.6367719   -1.5606088  0.058321323   -2.6367719     1.076163   578779 
 1471000    1.0077802   -2.6379736   -2.6379736   -1.5601956  0.061129968   -2.6379736     1.077778   578779 
 1472000    1.0060645   -2.6363689   -2.6363689   -1.5604258  0.057977698   -2.6363689    1.0759431   578779 
 1473000    1.0056013   -2.6359621   -2.6359621   -1.5605143  0.068816593   -2.6359621    1.0754478   578779 
 1474000      1.00744   -2.6377776   -2.6377776   -1.5603634  0.070321214   -2.6377776    1.0774142   578779 
 1475000    1.0081198   -2.6384312   -2.6384312     -1.56029  0.074778634   -2.6384312    1.0781412   578779 
 1476000    1.0087652    -2.639336    -2.639336   -1.5605046  0.067602899    -2.639336    1.0788314   578779 
 1477000    1.0073376   -2.6386488   -2.6386488   -1.5613441  0.062122082   -2.6386488    1.0773047   578779 
 1478000    1.0082192   -2.6395262   -2.6395262   -1.5612787  0.067908496   -2.6395262    1.0782475   578779 
 1479000    1.0071843   -2.6382283   -2.6382283   -1.5610875  0.062049573   -2.6382283    1.0771408   578779 
 1480000    1.0089261   -2.6392487   -2.6392487   -1.5602452  0.070849499   -2.6392487    1.0790035   578779 
 1481000    1.0070106   -2.6373728   -2.6373728   -1.5604179  0.071339892   -2.6373728    1.0769549   578779 
 1482000    1.0047949   -2.6357571   -2.6357571   -1.5611717  0.066923981   -2.6357571    1.0745854   578779 
 1483000    1.0071714   -2.6379704   -2.6379704   -1.5608435  0.070860704   -2.6379704    1.0771269   578779 
 1484000    1.0072527   -2.6377918   -2.6377918   -1.5605778  0.054165088   -2.6377918    1.0772139   578779 
 1485000    1.0058945   -2.6363177   -2.6363177   -1.5605564  0.057082295   -2.6363177    1.0757613   578779 
 1486000    1.0061595   -2.6365328   -2.6365328    -1.560488  0.063603859   -2.6365328    1.0760447   578779 
 1487000    1.0063568    -2.637749    -2.637749   -1.5614932  0.056684347    -2.637749    1.0762558   578779 
 1488000     1.007628   -2.6384851   -2.6384851   -1.5608699  0.058417129   -2.6384851    1.0776153   578779 
 1489000    1.0071864   -2.6373081   -2.6373081   -1.5601651  0.070478955   -2.6373081     1.077143   578779 
 1490000    1.0082231   -2.6385361   -2.6385361   -1.5602845  0.057008763   -2.6385361    1.0782516   578779 
 1491000    1.0076549   -2.6378072   -2.6378072   -1.5601631  0.063929391   -2.6378072     1.077644   578779 
 1492000    1.0067522   -2.6373291   -2.6373291   -1.5606505  0.065301126   -2.6373291    1.0766786   578779 
 1493000    1.0048737   -2.6368097   -2.6368097   -1.5621401  0.070331768   -2.6368097    1.0746696   578779 
 1494000    1.0068597   -2.6385569   -2.6385569   -1.5617634  0.057633365   -2.6385569    1.0767935   578779 
 1495000    1.0063306   -2.6388118   -2.6388118   -1.5625841  0.061687671   -2.6388118    1.0762277   578779 
 1496000    1.0074207   -2.6392344   -2.6392344   -1.5618409  0.060322397   -2.6392344    1.0773936   578779 
 1497000    1.0065733   -2.6387319   -2.6387319   -1.5622447  0.065367936   -2.6387319    1.0764873   578779 
 1498000    1.0066136   -2.6388354   -2.6388354    -1.562305  0.069720266   -2.6388354    1.0765304   578779 
 1499000    1.0075477   -2.6402633   -2.6402633    -1.562734  0.065340809   -2.6402633    1.0775293   578779 
 1500000     1.007051    -2.639808    -2.639808   -1.5628098  0.068157946    -2.639808    1.0769982   578779 
 1501000    1.0054769   -2.6378376   -2.6378376   -1.5625229  0.072414499   -2.6378376    1.0753147   578779 
 1502000    1.0072129   -2.6394762   -2.6394762   -1.5623049  0.061952762   -2.6394762    1.0771713   578779 
 1503000    1.0063769   -2.6382617   -2.6382617   -1.5619844  0.056509952   -2.6382617    1.0762773   578779 
 1504000    1.0059258   -2.6374715   -2.6374715   -1.5616766  0.075856354   -2.6374715    1.0757948   578779 
 1505000    1.0083022    -2.640018    -2.640018   -1.5616817  0.069440509    -2.640018    1.0783363   578779 
 1506000    1.0085397   -2.6405936   -2.6405936   -1.5620034  0.072450517   -2.6405936    1.0785902   578779 
 1507000    1.0067615   -2.6394214   -2.6394214   -1.5627329  0.058831709   -2.6394214    1.0766885   578779 
 1508000    1.0067036   -2.6405211   -2.6405211   -1.5638944  0.074071404   -2.6405211    1.0766267   578779 
 1509000    1.0071083    -2.640622    -2.640622   -1.5635626  0.058592487    -2.640622    1.0770594   578779 
 1510000    1.0072552   -2.6413661   -2.6413661   -1.5641496  0.065441198   -2.6413661    1.0772166   578779 
 1511000    1.0073561   -2.6413244   -2.6413244       -1.564  0.059941095   -2.6413244    1.0773245   578779 
 1512000    1.0053852   -2.6396911   -2.6396911   -1.5644744  0.058716785   -2.6396911    1.0752167   578779 
 1513000    1.0056184   -2.6389679   -2.6389679   -1.5635019  0.074895886   -2.6389679    1.0754661   578779 
 1514000     1.005015   -2.6377045   -2.6377045   -1.5628838  0.063931208   -2.6377045    1.0748207   578779 
 1515000      1.00545   -2.6387268   -2.6387268   -1.5634408  0.070100021   -2.6387268     1.075286   578779 
 1516000    1.0054117    -2.638789    -2.638789   -1.5635439   0.06041587    -2.638789     1.075245   578779 
 1517000    1.0063078   -2.6390661   -2.6390661   -1.5628628  0.063811012   -2.6390661    1.0762033   578779 
 1518000    1.0068482   -2.6400257   -2.6400257   -1.5632444  0.064135457   -2.6400257    1.0767813   578779 
 1519000    1.0063858   -2.6400111   -2.6400111   -1.5637243  0.062847609   -2.6400111    1.0762868   578779 
 1520000    1.0061978   -2.6395345   -2.6395345   -1.5634488  0.065773517   -2.6395345    1.0760857   578779 
 1521000    1.0063383   -2.6394755   -2.6394755   -1.5632396  0.071249209   -2.6394755     1.076236   578779 
 1522000    1.0069317    -2.640637    -2.640637   -1.5637664   0.06685717    -2.640637    1.0768706   578779 
 1523000    1.0086862   -2.6420087   -2.6420087   -1.5632618  0.068275982   -2.6420087    1.0787469   578779 
 1524000     1.008439   -2.6407764   -2.6407764   -1.5622939  0.062452279   -2.6407764    1.0784826   578779 
 1525000    1.0078048   -2.6399892   -2.6399892   -1.5621849  0.064714062   -2.6399892    1.0778043   578779 
 1526000     1.006382   -2.6389853   -2.6389853   -1.5627026  0.067866968   -2.6389853    1.0762827   578779 
 1527000    1.0081621   -2.6409343   -2.6409343   -1.5627479  0.073903738   -2.6409343    1.0781865   578779 
 1528000     1.005278   -2.6386394   -2.6386394   -1.5635374  0.082580649   -2.6386394     1.075102   578779 
 1529000    1.0065489   -2.6393625   -2.6393625   -1.5629012  0.062841195   -2.6393625    1.0764612   578779 
 1530000    1.0077177   -2.6414108   -2.6414108   -1.5636996  0.056051149   -2.6414108    1.0777112   578779 
 1531000    1.0084664    -2.642023    -2.642023   -1.5635112  0.062314958    -2.642023    1.0785119   578779 
 1532000    1.0079742   -2.6412838   -2.6412838   -1.5632983  0.069511732   -2.6412838    1.0779855   578779 
 1533000    1.0086149   -2.6413118   -2.6413118    -1.562641  0.069702847   -2.6413118    1.0786707   578779 
 1534000    1.0087075    -2.641532    -2.641532   -1.5627623  0.072251949    -2.641532    1.0787697   578779 
 1535000    1.0062944   -2.6384927   -2.6384927   -1.5623037  0.072745724   -2.6384927     1.076189   578779 
 1536000    1.0072154   -2.6398191   -2.6398191   -1.5626451  0.067718422   -2.6398191     1.077174   578779 
 1537000    1.0082049    -2.640366    -2.640366   -1.5621337  0.065060432    -2.640366    1.0782323   578779 
 1538000    1.0068307   -2.6392792   -2.6392792   -1.5625167  0.069731702   -2.6392792    1.0767625   578779 
 1539000    1.0068971   -2.6403342   -2.6403342   -1.5635006   0.06428067   -2.6403342    1.0768336   578779 
 1540000    1.0084192   -2.6419538   -2.6419538   -1.5634924   0.06657372   -2.6419538    1.0784614   578779 
 1541000    1.0056962   -2.6387527   -2.6387527   -1.5632034  0.064293819   -2.6387527    1.0755492   578779 
 1542000    1.0078223   -2.6407499   -2.6407499   -1.5629268  0.061880251   -2.6407499    1.0778231   578779 
 1543000    1.0069662   -2.6406057   -2.6406057   -1.5636982  0.063718841   -2.6406057    1.0769075   578779 
 1544000     1.006809   -2.6400899   -2.6400899   -1.5633506  0.069032612   -2.6400899    1.0767394   578779 
 1545000    1.0074975   -2.6399504   -2.6399504   -1.5624748  0.077177431   -2.6399504    1.0774757   578779 
 1546000    1.0067738   -2.6392759   -2.6392759   -1.5625741  0.067700401   -2.6392759    1.0767018   578779 
 1547000    1.0078604   -2.6413607   -2.6413607    -1.563497  0.074645761   -2.6413607    1.0778638   578779 
 1548000    1.0061352   -2.6383532   -2.6383532   -1.5623344  0.068624465   -2.6383532    1.0760188   578779 
 1549000    1.0086203   -2.6417857   -2.6417857   -1.5631092  0.061889665   -2.6417857    1.0786765   578779 
 1550000    1.0070495   -2.6402465   -2.6402465   -1.5632499  0.057499758   -2.6402465    1.0769965   578779 
 1551000    1.0074214    -2.641213    -2.641213   -1.5638187  0.062362232    -2.641213    1.0773943   578779 
 1552000    1.0060732   -2.6398479   -2.6398479   -1.5638955  0.070507233   -2.6398479    1.0759524   578779 
 1553000    1.0060329   -2.6400234   -2.6400234   -1.5641141  0.068462886   -2.6400234    1.0759094   578779 
 1554000    1.0066528   -2.6405058   -2.6405058   -1.5639335  0.066125524   -2.6405058    1.0765723   578779 
 1555000    1.0066464    -2.639727    -2.639727   -1.5631615  0.081721374    -2.639727    1.0765655   578779 
 1556000    1.0056792   -2.6391377   -2.6391377   -1.5636067  0.061123781   -2.6391377    1.0755311   578779 
 1557000    1.0066386   -2.6397453   -2.6397453   -1.5631882   0.05874811   -2.6397453    1.0765571   578779 
 1558000    1.0067737   -2.6397361   -2.6397361   -1.5630345  0.066097857   -2.6397361    1.0767017   578779 
 1559000    1.0056549   -2.6383466   -2.6383466   -1.5628415  0.062268554   -2.6383466    1.0755051   578779 
 1560000    1.0052921   -2.6384017   -2.6384017   -1.5632846  0.071974427   -2.6384017    1.0751171   578779 
 1561000    1.0065307   -2.6393943   -2.6393943   -1.5629526  0.058820249   -2.6393943    1.0764417   578779 
 1562000    1.0056736   -2.6389511   -2.6389511   -1.5634259  0.066954587   -2.6389511    1.0755251   578779 
 1563000    1.0062569   -2.6395472   -2.6395472   -1.5633984  0.053953367   -2.6395472    1.0761489   578779 
 1564000    1.0056629   -2.6380101   -2.6380101   -1.5624964  0.070066182   -2.6380101    1.0755136   578779 
 1565000    1.0073168   -2.6394183   -2.6394183   -1.5621359  0.057498363   -2.6394183    1.0772824   578779 
 1566000     1.006348   -2.6389665   -2.6389665   -1.5627202  0.066686469   -2.6389665    1.0762463   578779 
 1567000    1.0070802   -2.6401497   -2.6401497   -1.5631203  0.063956106   -2.6401497    1.0770294   578779 
 1568000    1.0074506   -2.6398257   -2.6398257   -1.5624001   0.06693555   -2.6398257    1.0774256   578779 
 1569000    1.0071612      -2.6404      -2.6404    -1.563284  0.072677264      -2.6404     1.077116   578779 
 1570000    1.0049607    -2.639039    -2.639039   -1.5642763  0.070419869    -2.639039    1.0747627   578779 
 1571000    1.0064987   -2.6402857   -2.6402857   -1.5638782  0.064220602   -2.6402857    1.0764075   578779 
 1572000    1.0048513   -2.6382192   -2.6382192   -1.5635736  0.069172355   -2.6382192    1.0746456   578779 
 1573000     1.006515   -2.6399871   -2.6399871   -1.5635622  0.060374169   -2.6399871    1.0764249   578779 
 1574000     1.004868   -2.6384764   -2.6384764   -1.5638129  0.058563233   -2.6384764    1.0746635   578779 
 1575000    1.0064556   -2.6400019   -2.6400019   -1.5636404  0.058630307   -2.6400019    1.0763614   578779 
 1576000    1.0062899   -2.6393666   -2.6393666   -1.5631823  0.065158106   -2.6393666    1.0761843   578779 
 1577000    1.0070447   -2.6404213   -2.6404213   -1.5634298  0.064022212   -2.6404213    1.0769915   578779 
 1578000    1.0066728    -2.640115    -2.640115   -1.5635213  0.061388827    -2.640115    1.0765937   578779 
 1579000    1.0063376   -2.6400293   -2.6400293   -1.5637941  0.067787149   -2.6400293    1.0762352   578779 
 1580000    1.0067541   -2.6401895   -2.6401895   -1.5635088  0.059704991   -2.6401895    1.0766807   578779 
 1581000    1.0077846   -2.6410248   -2.6410248   -1.5632421  0.062362072   -2.6410248    1.0777827   578779 
 1582000    1.0076209   -2.6413631   -2.6413631   -1.5637555  0.066160834   -2.6413631    1.0776076   578779 
 1583000     1.009039   -2.6430466   -2.6430466   -1.5639224  0.072917966   -2.6430466    1.0791242   578779 
 1584000    1.0076358   -2.6414423   -2.6414423   -1.5638187  0.067589149   -2.6414423    1.0776236   578779 
 1585000    1.0075656   -2.6418068   -2.6418068   -1.5642583  0.065470185   -2.6418068    1.0775485   578779 
 1586000    1.0058019   -2.6404619   -2.6404619   -1.5647995  0.061292114   -2.6404619    1.0756624   578779 
 1587000    1.0068699   -2.6415554   -2.6415554   -1.5647509  0.059670034   -2.6415554    1.0768045   578779 
 1588000     1.005091   -2.6407053   -2.6407053   -1.5658033   0.06312828   -2.6407053     1.074902   578779 
 1589000    1.0054587   -2.6408522   -2.6408522   -1.5655569  0.053645801   -2.6408522    1.0752953   578779 
 1590000    1.0051966   -2.6413302   -2.6413302   -1.5663152  0.062824184   -2.6413302     1.075015   578779 
 1591000    1.0056834   -2.6412369   -2.6412369   -1.5657013  0.058990946   -2.6412369    1.0755356   578779 
 1592000    1.0054869   -2.6412819   -2.6412819   -1.5659565  0.068686794   -2.6412819    1.0753254   578779 
 1593000    1.0052988    -2.640642    -2.640642   -1.5655178  0.060759616    -2.640642    1.0751242   578779 
 1594000    1.0066066   -2.6407498   -2.6407498   -1.5642268  0.062310869   -2.6407498     1.076523   578779 
 1595000    1.0064432   -2.6403276   -2.6403276   -1.5639795  0.060806215   -2.6403276    1.0763481   578779 
 1596000    1.0051604   -2.6402104   -2.6402104   -1.5652341  0.076133823   -2.6402104    1.0749763   578779 
 1597000     1.005473   -2.6408154   -2.6408154   -1.5655049  0.051872432   -2.6408154    1.0753105   578779 
 1598000    1.0062278   -2.6409085   -2.6409085   -1.5647908  0.054126666   -2.6409085    1.0761178   578779 
 1599000    1.0052787   -2.6400698   -2.6400698    -1.564967   0.05629106   -2.6400698    1.0751028   578779 
 1600000    1.0051429   -2.6403771   -2.6403771   -1.5654196  0.067066691   -2.6403771    1.0749575   578779 
 1601000    1.0046246   -2.6397972   -2.6397972   -1.5653939  0.067698842   -2.6397972    1.0744032   578779 
 1602000    1.0059207   -2.6411312   -2.6411312   -1.5653418  0.050815981   -2.6411312    1.0757894   578779 
 1603000    1.0057312   -2.6399877   -2.6399877    -1.564401  0.064368397   -2.6399877    1.0755867   578779 
 1604000    1.0056172   -2.6407199   -2.6407199   -1.5652552  0.062440517   -2.6407199    1.0754647   578779 
 1605000    1.0042015   -2.6388583   -2.6388583   -1.5649076   0.05925414   -2.6388583    1.0739507   578779 
 1606000    1.0059174   -2.6403254   -2.6403254   -1.5645395  0.067439511   -2.6403254    1.0757858   578779 
 1607000    1.0056675   -2.6403287   -2.6403287   -1.5648101  0.065119685   -2.6403287    1.0755186   578779 
 1608000    1.0059712   -2.6415984   -2.6415984    -1.565755  0.053428627   -2.6415984    1.0758434   578779 
 1609000    1.0050558   -2.6403125   -2.6403125   -1.5654481  0.076353424   -2.6403125    1.0748644   578779 
 1610000    1.0068978    -2.642037    -2.642037   -1.5652027   0.06374599    -2.642037    1.0768343   578779 
 1611000     1.007133   -2.6425783   -2.6425783   -1.5654924  0.055193992   -2.6425783    1.0770859   578779 
 1612000     1.006161   -2.6417485   -2.6417485   -1.5657022   0.06413407   -2.6417485    1.0760463   578779 
 1613000     1.004206   -2.6404009   -2.6404009   -1.5664453  0.064002512   -2.6404009    1.0739556   578779 
 1614000    1.0051105    -2.640701    -2.640701   -1.5657781   0.05594224    -2.640701    1.0749229   578779 
 1615000     1.006049   -2.6407786   -2.6407786    -1.564852  0.071187688   -2.6407786    1.0759266   578779 
 1616000     1.006274   -2.6418116   -2.6418116   -1.5656445  0.060348564   -2.6418116    1.0761672   578779 
 1617000    1.0074186   -2.6418123   -2.6418123   -1.5644211  0.066485946   -2.6418123    1.0773913   578779 
 1618000    1.0066867   -2.6416332   -2.6416332   -1.5650247  0.068488999   -2.6416332    1.0766085   578779 
 1619000    1.0059268   -2.6412093   -2.6412093   -1.5654134  0.053858186   -2.6412093    1.0757959   578779 
 1620000    1.0059544   -2.6414505   -2.6414505   -1.5656251  0.063061273   -2.6414505    1.0758254   578779 
 1621000    1.0050978   -2.6409442   -2.6409442   -1.5660348  0.069493145   -2.6409442    1.0749094   578779 
 1622000    1.0050121   -2.6414324   -2.6414324   -1.5666147  0.067431412   -2.6414324    1.0748177   578779 
 1623000    1.0053915   -2.6421498   -2.6421498   -1.5669264   0.06180364   -2.6421498    1.0752234   578779 
 1624000    1.0052067   -2.6419501   -2.6419501   -1.5669243  0.061074018   -2.6419501    1.0750258   578779 
 1625000    1.0040902   -2.6405918   -2.6405918     -1.56676  0.070125066   -2.6405918    1.0738318   578779 
 1626000    1.0046687   -2.6413343   -2.6413343   -1.5668839  0.060030352   -2.6413343    1.0744504   578779 
 1627000    1.0061822   -2.6425391   -2.6425391   -1.5664701  0.067122934   -2.6425391     1.076069   578779 
 1628000    1.0057701   -2.6423992   -2.6423992   -1.5667709  0.059542804   -2.6423992    1.0756283   578779 
 1629000    1.0059193   -2.6427648   -2.6427648   -1.5669769  0.071328426   -2.6427648    1.0757879   578779 
 1630000    1.0046408   -2.6412703   -2.6412703   -1.5668497  0.071139689   -2.6412703    1.0744206   578779 
 1631000    1.0067431    -2.643303    -2.643303   -1.5666341  0.051354778    -2.643303    1.0766689   578779 
 1632000    1.0057489    -2.641432    -2.641432   -1.5658264  0.057530911    -2.641432    1.0756056   578779 
 1633000    1.0069716   -2.6429134   -2.6429134   -1.5660001   0.05483845   -2.6429134    1.0769133   578779 
 1634000    1.0068471   -2.6428026   -2.6428026   -1.5660224   0.06749406   -2.6428026    1.0767801   578779 
 1635000    1.0080611   -2.6431756   -2.6431756   -1.5650972   0.07234242   -2.6431756    1.0780784   578779 
 1636000    1.0066722   -2.6413124   -2.6413124   -1.5647193  0.062049509   -2.6413124    1.0765931   578779 
 1637000    1.0078543   -2.6421693   -2.6421693    -1.564312  0.070338402   -2.6421693    1.0778573   578779 
 1638000    1.0082568   -2.6438093   -2.6438093   -1.5655216  0.058804137   -2.6438093    1.0782877   578779 
 1639000    1.0067875   -2.6423423   -2.6423423   -1.5656259  0.064323836   -2.6423423    1.0767164   578779 
 1640000    1.0077518    -2.643756    -2.643756   -1.5660083   0.06621094    -2.643756    1.0777476   578779 
 1641000    1.0071661   -2.6425653   -2.6425653   -1.5654441  0.072085903   -2.6425653    1.0771213   578779 
 1642000    1.0063642   -2.6423717   -2.6423717    -1.566108  0.060318127   -2.6423717    1.0762637   578779 
 1643000    1.0077534   -2.6438135   -2.6438135   -1.5660642  0.058798782   -2.6438135    1.0777493   578779 
 1644000    1.0066595   -2.6430259   -2.6430259   -1.5664465  0.062114013   -2.6430259    1.0765795   578779 
 1645000      1.00537   -2.6418397   -2.6418397   -1.5666393  0.056236349   -2.6418397    1.0752004   578779 
 1646000    1.0050972   -2.6417703   -2.6417703   -1.5668616  0.060675924   -2.6417703    1.0749087   578779 
 1647000    1.0050286   -2.6412546   -2.6412546   -1.5664193  0.065116691   -2.6412546    1.0748352   578779 
 1648000    1.0049793   -2.6415153   -2.6415153   -1.5667327  0.058092155   -2.6415153    1.0747826   578779 
 1649000    1.0050558   -2.6416121   -2.6416121   -1.5667477  0.068346186   -2.6416121    1.0748644   578779 
 1650000     1.005575   -2.6413887   -2.6413887   -1.5659691  0.070426725   -2.6413887    1.0754196   578779 
 1651000    1.0061817   -2.6424974   -2.6424974    -1.566429    0.0594519   -2.6424974    1.0760685   578779 
 1652000    1.0078063   -2.6438246   -2.6438246   -1.5660187  0.064152315   -2.6438246    1.0778059   578779 
 1653000    1.0060266   -2.6417844   -2.6417844   -1.5658818  0.061552665   -2.6417844    1.0759026   578779 
 1654000    1.0065603   -2.6427098   -2.6427098   -1.5662365  0.063045261   -2.6427098    1.0764733   578779 
 1655000     1.007149   -2.6436291   -2.6436291   -1.5665261  0.063660472   -2.6436291     1.077103   578779 
 1656000    1.0066688   -2.6425579   -2.6425579   -1.5659685   0.05534566   -2.6425579    1.0765894   578779 
 1657000    1.0052229    -2.642067    -2.642067    -1.567024   0.07145476    -2.642067    1.0750431   578779 
 1658000    1.0050493   -2.6425125   -2.6425125    -1.567655  0.062022129   -2.6425125    1.0748575   578779 
 1659000    1.0026277   -2.6399431   -2.6399431   -1.5676754  0.058433146   -2.6399431    1.0722677   578779 
 1660000    1.0055119   -2.6429757   -2.6429757   -1.5676235  0.068164134   -2.6429757    1.0753522   578779 
 1661000    1.0046625    -2.642335    -2.642335   -1.5678913  0.063917109    -2.642335    1.0744437   578779 
 1662000    1.0043102   -2.6419738   -2.6419738   -1.5679068  0.065970343   -2.6419738     1.074067   578779 
 1663000    1.0046484   -2.6416137   -2.6416137    -1.567185  0.064480236   -2.6416137    1.0744287   578779 
 1664000    1.0059406    -2.642287    -2.642287   -1.5664763  0.057004393    -2.642287    1.0758106   578779 
 1665000    1.0047403   -2.6418361   -2.6418361   -1.5673092  0.063986635   -2.6418361    1.0745269   578779 
 1666000    1.0073527   -2.6437595   -2.6437595   -1.5664387  0.060514016   -2.6437595    1.0773208   578779 
 1667000    1.0069114      -2.6441      -2.6441   -1.5672511  0.066738046      -2.6441    1.0768489   578779 
 1668000    1.0061569   -2.6432668   -2.6432668   -1.5672249  0.059330987   -2.6432668    1.0760419   578779 
 1669000     1.006051   -2.6432802   -2.6432802   -1.5673515  0.069931048   -2.6432802    1.0759287   578779 
 1670000    1.0074588   -2.6447086   -2.6447086   -1.5672743   0.05805164   -2.6447086    1.0774343   578779 
 1671000    1.0084577   -2.6454363   -2.6454363   -1.5669337  0.062735355   -2.6454363    1.0785026   578779 
 1672000    1.0062962   -2.6436985   -2.6436985   -1.5675076  0.057735172   -2.6436985    1.0761909   578779 
 1673000    1.0058814   -2.6429628   -2.6429628   -1.5672155   0.05556486   -2.6429628    1.0757473   578779 
 1674000    1.0068346   -2.6436728   -2.6436728   -1.5669061  0.059003807   -2.6436728    1.0767667   578779 
 1675000    1.0046293   -2.6414678   -2.6414678   -1.5670595  0.060116395   -2.6414678    1.0744083   578779 
 1676000    1.0044326   -2.6411305   -2.6411305   -1.5669327  0.062750264   -2.6411305    1.0741979   578779 
 1677000    1.0053294     -2.64249     -2.64249    -1.567333   0.05895927     -2.64249     1.075157   578779 
 1678000    1.0052544   -2.6428241   -2.6428241   -1.5677474  0.049435942   -2.6428241    1.0750767   578779 
 1679000    1.0052682   -2.6425327   -2.6425327   -1.5674412  0.065213051   -2.6425327    1.0750915   578779 
 1680000    1.0059658   -2.6428977   -2.6428977   -1.5670601   0.06419993   -2.6428977    1.0758376   578779 
 1681000    1.0055194   -2.6434623   -2.6434623    -1.568102   0.06696248   -2.6434623    1.0753602   578779 
 1682000    1.0077193    -2.644452    -2.644452   -1.5667391  0.067984561    -2.644452    1.0777129   578779 
 1683000    1.0075373   -2.6443489   -2.6443489   -1.5668307  0.058953287   -2.6443489    1.0775182   578779 
 1684000    1.0074699   -2.6443514   -2.6443514   -1.5669052  0.065173563   -2.6443514    1.0774462   578779 
 1685000    1.0072667     -2.64426     -2.64426   -1.5670311  0.068771545     -2.64426    1.0772288   578779 
 1686000    1.0052044   -2.6422647   -2.6422647   -1.5672414   0.06385381   -2.6422647    1.0750233   578779 
 1687000    1.0052075   -2.6414755   -2.6414755   -1.5664489  0.060204882   -2.6414755    1.0750266   578779 
 1688000    1.0058671   -2.6413303   -2.6413303   -1.5655983  0.070139874   -2.6413303     1.075732   578779 
 1689000    1.0048338   -2.6413458   -2.6413458   -1.5667188  0.055589134   -2.6413458     1.074627   578779 
 1690000    1.0046005    -2.642413    -2.642413   -1.5680356  0.055361344    -2.642413    1.0743774   578779 
 1691000    1.0059983   -2.6430229   -2.6430229   -1.5671506  0.057676408   -2.6430229    1.0758723   578779 
 1692000    1.0062136    -2.643759    -2.643759   -1.5676564  0.057610005    -2.643759    1.0761026   578779 
 1693000    1.0042546   -2.6416861   -2.6416861   -1.5676785  0.062615355   -2.6416861    1.0740075   578779 
 1694000    1.0036016   -2.6410448   -2.6410448   -1.5677355  0.063397159   -2.6410448    1.0733092   578779 
 1695000    1.0058796   -2.6425551   -2.6425551   -1.5668098  0.058730934   -2.6425551    1.0757454   578779 
 1696000     1.007031   -2.6436613   -2.6436613   -1.5666845  0.059177673   -2.6436613    1.0769768   578779 
 1697000    1.0064894   -2.6431219   -2.6431219   -1.5667244  0.056870142   -2.6431219    1.0763975   578779 
 1698000    1.0067179   -2.6436348   -2.6436348   -1.5669929  0.070858672   -2.6436348    1.0766419   578779 
 1699000     1.005527   -2.6421008   -2.6421008   -1.5667325  0.064101395   -2.6421008    1.0753684   578779 
 1700000    1.0057683   -2.6422569   -2.6422569   -1.5666304  0.072174763   -2.6422569    1.0756264   578779 
 1701000    1.0044491   -2.6413357   -2.6413357   -1.5671201   0.06893822   -2.6413357    1.0742156   578779 
 1702000    1.0056334   -2.6424345   -2.6424345   -1.5669523  0.065196044   -2.6424345    1.0754821   578779 
 1703000    1.0042823   -2.6415549   -2.6415549   -1.5675177  0.057655461   -2.6415549    1.0740372   578779 
 1704000    1.0047507   -2.6420773   -2.6420773   -1.5675392  0.064453987   -2.6420773    1.0745381   578779 
 1705000    1.0053188    -2.642333    -2.642333   -1.5671874  0.068274834    -2.642333    1.0751456   578779 
 1706000    1.0064037   -2.6428094   -2.6428094   -1.5665035    0.0669902   -2.6428094    1.0763059   578779 
 1707000    1.0066055   -2.6428094   -2.6428094   -1.5662877  0.063482274   -2.6428094    1.0765217   578779 
 1708000    1.0065006   -2.6430294   -2.6430294   -1.5666199  0.054212341   -2.6430294    1.0764095   578779 
 1709000    1.0078186   -2.6434173   -2.6434173   -1.5655982  0.063190873   -2.6434173     1.077819   578779 
 1710000    1.0070385   -2.6430941   -2.6430941   -1.5661093  0.068182511   -2.6430941    1.0769848   578779 
 1711000    1.0067484   -2.6432355   -2.6432355   -1.5665609  0.070408475   -2.6432355    1.0766745   578779 
 1712000     1.006482   -2.6430114   -2.6430114   -1.5666218  0.064520673   -2.6430114    1.0763897   578779 
 1713000    1.0064032   -2.6428076   -2.6428076   -1.5665022  0.065417549   -2.6428076    1.0763053   578779 
 1714000    1.0068055   -2.6436073   -2.6436073   -1.5668716  0.074209057   -2.6436073    1.0767357   578779 
 1715000     1.006293   -2.6423434   -2.6423434   -1.5661559  0.057575928   -2.6423434    1.0761875   578779 
 1716000    1.0069113   -2.6428772   -2.6428772   -1.5660284  0.061823643   -2.6428772    1.0768488   578779 
 1717000     1.006259   -2.6424269   -2.6424269   -1.5662758  0.075866649   -2.6424269    1.0761511   578779 
 1718000    1.0066935   -2.6439146   -2.6439146   -1.5672988  0.070359841   -2.6439146    1.0766159   578779 
 1719000    1.0070909   -2.6434644   -2.6434644   -1.5664236  0.067950788   -2.6434644    1.0770408   578779 
 1720000    1.0071467   -2.6435506   -2.6435506   -1.5664501   0.07783646   -2.6435506    1.0771005   578779 
 1721000    1.0067463    -2.643764    -2.643764   -1.5670916  0.071311724    -2.643764    1.0766723   578779 
 1722000    1.0071097   -2.6448556   -2.6448556   -1.5677947  0.068853181   -2.6448556     1.077061   578779 
 1723000    1.0075836   -2.6448121   -2.6448121   -1.5672444  0.061460065   -2.6448121    1.0775677   578779 
 1724000    1.0067258   -2.6444432   -2.6444432   -1.5677928  0.065695813   -2.6444432    1.0766504   578779 
 1725000    1.0053115   -2.6433445   -2.6433445   -1.5682067  0.054578207   -2.6433445    1.0751378   578779 
 1726000    1.0045476   -2.6422979   -2.6422979    -1.567977  0.058689382   -2.6422979    1.0743208   578779 
 1727000    1.0066848   -2.6447205   -2.6447205    -1.568114  0.072294726   -2.6447205    1.0766065   578779 
 1728000    1.0053389   -2.6428534   -2.6428534   -1.5676862    0.0615233   -2.6428534    1.0751671   578779 
 1729000    1.0056372   -2.6430587   -2.6430587   -1.5675726  0.062229057   -2.6430587    1.0754861   578779 
 1730000    1.0046317   -2.6424911   -2.6424911   -1.5680802   0.07284443   -2.6424911    1.0744109   578779 
 1731000     1.004961   -2.6428921   -2.6428921   -1.5681291  0.073244733   -2.6428921     1.074763   578779 
 1732000    1.0048981   -2.6426981   -2.6426981   -1.5680024  0.061340654   -2.6426981    1.0746957   578779 
 1733000    1.0049889   -2.6430271   -2.6430271   -1.5682342  0.071547176   -2.6430271    1.0747929   578779 
 1734000    1.0039446   -2.6412503   -2.6412503   -1.5675743  0.057663437   -2.6412503    1.0736761   578779 
 1735000    1.0046037   -2.6417884   -2.6417884   -1.5674075  0.063163019   -2.6417884    1.0743809   578779 
 1736000    1.0061946   -2.6430137   -2.6430137   -1.5669313   0.07268515   -2.6430137    1.0760823   578779 
 1737000    1.0067768   -2.6436035   -2.6436035   -1.5668986  0.062369066   -2.6436035    1.0767049   578779 
 1738000    1.0063526   -2.6433096   -2.6433096   -1.5670584  0.068513859   -2.6433096    1.0762513   578779 
 1739000    1.0078841   -2.6445001   -2.6445001   -1.5666109  0.064431451   -2.6445001    1.0778891   578779 
 1740000     1.007107   -2.6440422   -2.6440422   -1.5669841  0.073810092   -2.6440422    1.0770581   578779 
 1741000     1.008013   -2.6450109   -2.6450109   -1.5669839   0.06466417   -2.6450109     1.078027   578779 
 1742000    1.0089626   -2.6462022   -2.6462022   -1.5671596  0.064329483   -2.6462022    1.0790425   578779 
 1743000     1.008518   -2.6454317   -2.6454317   -1.5668646  0.067112807   -2.6454317    1.0785671   578779 
 1744000    1.0081329   -2.6453341   -2.6453341   -1.5671789  0.070244374   -2.6453341    1.0781552   578779 
 1745000    1.0070427   -2.6442024   -2.6442024   -1.5672132  0.066108641   -2.6442024    1.0769893   578779 
 1746000     1.007523   -2.6445532   -2.6445532   -1.5670503  0.070703788   -2.6445532    1.0775029   578779 
 1747000    1.0081715   -2.6459049   -2.6459049   -1.5677084  0.063306815   -2.6459049    1.0781965   578779 
 1748000    1.0069879   -2.6451508   -2.6451508   -1.5682202  0.061091164   -2.6451508    1.0769307   578779 
 1749000    1.0074197   -2.6455877   -2.6455877   -1.5681952  0.064399027   -2.6455877    1.0773925   578779 
 1750000    1.0078859   -2.6456826   -2.6456826   -1.5677916  0.059441112   -2.6456826     1.077891   578779 
 1751000    1.0058494   -2.6439309   -2.6439309   -1.5682179  0.063606489   -2.6439309    1.0757131   578779 
 1752000    1.0054382   -2.6440212   -2.6440212   -1.5687479  0.065570957   -2.6440212    1.0752734   578779 
 1753000    1.0060571   -2.6442448   -2.6442448   -1.5683096  0.054247126   -2.6442448    1.0759352   578779 
 1754000    1.0081371    -2.646738    -2.646738   -1.5685783  0.059729291    -2.646738    1.0781597   578779 
 1755000    1.0070227   -2.6450847   -2.6450847   -1.5681168  0.052843014   -2.6450847    1.0769679   578779 
 1756000    1.0051833   -2.6427162   -2.6427162   -1.5677154  0.061235807   -2.6427162    1.0750008   578779 
 1757000    1.0063398   -2.6439052   -2.6439052   -1.5676676  0.059644246   -2.6439052    1.0762376   578779 
 1758000    1.0050031   -2.6432458   -2.6432458   -1.5684378  0.052759594   -2.6432458     1.074808   578779 
 1759000    1.0044198   -2.6420611   -2.6420611   -1.5678769  0.069998272   -2.6420611    1.0741842   578779 
 1760000    1.0038281   -2.6418374   -2.6418374    -1.568286  0.074570126   -2.6418374    1.0735514   578779 
 1761000    1.0045887   -2.6428226   -2.6428226   -1.5684578  0.060852091   -2.6428226    1.0743648   578779 
 1762000    1.0050324   -2.6418655   -2.6418655   -1.5670261  0.068393319   -2.6418655    1.0748394   578779 
 1763000    1.0070317   -2.6449366   -2.6449366   -1.5679591  0.061924294   -2.6449366    1.0769775   578779 
 1764000    1.0057455   -2.6439925   -2.6439925   -1.5683905  0.056528163   -2.6439925     1.075602   578779 
 1765000    1.0076806   -2.6446833   -2.6446833   -1.5670118  0.065055388   -2.6446833    1.0776715   578779 
 1766000    1.0065625   -2.6434904   -2.6434904   -1.5670146  0.058461166   -2.6434904    1.0764758   578779 
 1767000    1.0062339   -2.6432823   -2.6432823    -1.567158   0.06147804   -2.6432823    1.0761243   578779 
 1768000    1.0075016   -2.6439583   -2.6439583   -1.5664782  0.068960497   -2.6439583    1.0774801   578779 
 1769000    1.0076782   -2.6446799   -2.6446799   -1.5670109  0.066633546   -2.6446799    1.0776689   578779 
 1770000    1.0068394   -2.6441217   -2.6441217   -1.5673498  0.063659512   -2.6441217    1.0767718   578779 
 1771000    1.0068615   -2.6453385   -2.6453385   -1.5685429  0.058653425   -2.6453385    1.0767956   578779 
 1772000      1.00563   -2.6429905   -2.6429905   -1.5675121  0.073986627   -2.6429905    1.0754784   578779 
 1773000    1.0078271   -2.6452423   -2.6452423   -1.5674142  0.058505049   -2.6452423    1.0778282   578779 
 1774000     1.007357   -2.6452515   -2.6452515   -1.5679261  0.056453766   -2.6452515    1.0773254   578779 
 1775000    1.0077065   -2.6454305   -2.6454305   -1.5677313  0.067545323   -2.6454305    1.0776992   578779 
 1776000    1.0093053   -2.6476144   -2.6476144   -1.5682054  0.062164775   -2.6476144     1.079409   578779 
 1777000    1.0064662   -2.6448817   -2.6448817    -1.568509   0.05890424   -2.6448817    1.0763727   578779 
 1778000    1.0079265   -2.6462677   -2.6462677   -1.5683332  0.063045177   -2.6462677    1.0779345   578779 
 1779000    1.0068327    -2.645581    -2.645581   -1.5688164  0.065412848    -2.645581    1.0767647   578779 
 1780000    1.0074588   -2.6463064   -2.6463064   -1.5688722  0.066746361   -2.6463064    1.0774343   578779 
 1781000     1.008289   -2.6466862   -2.6466862    -1.568364   0.07342332   -2.6466862    1.0783222   578779 
 1782000    1.0068039   -2.6453376   -2.6453376   -1.5686037  0.077908234   -2.6453376    1.0767339   578779 
 1783000    1.0087246   -2.6477721   -2.6477721   -1.5689841  0.066189832   -2.6477721     1.078788   578779 
 1784000    1.0073109   -2.6458326   -2.6458326   -1.5685565  0.064203698   -2.6458326    1.0772761   578779 
 1785000    1.0058242    -2.644637    -2.644637   -1.5689509  0.064056429    -2.644637    1.0756862   578779 
 1786000    1.0060357   -2.6442623   -2.6442623   -1.5683499  0.053582286   -2.6442623    1.0759124   578779 
 1787000    1.0059753    -2.643449    -2.643449   -1.5676013  0.061583078    -2.643449    1.0758478   578779 
 1788000    1.0062228   -2.6439724   -2.6439724     -1.56786   0.06964362   -2.6439724    1.0761124   578779 
 1789000    1.0064164   -2.6444193   -2.6444193   -1.5680997  0.055595259   -2.6444193    1.0763195   578779 
 1790000    1.0060154   -2.6436704   -2.6436704   -1.5677797  0.061460572   -2.6436704    1.0758907   578779 
 1791000    1.0063492   -2.6439123   -2.6439123   -1.5676646  0.069619734   -2.6439123    1.0762477   578779 
 1792000    1.0056384   -2.6429533   -2.6429533   -1.5674658  0.059954649   -2.6429533    1.0754875   578779 
 1793000    1.0065471   -2.6437814   -2.6437814   -1.5673221  0.052638678   -2.6437814    1.0764593   578779 
 1794000    1.0063461   -2.6435561   -2.6435561   -1.5673118  0.065993083   -2.6435561    1.0762443   578779 
 1795000     1.005817   -2.6433006   -2.6433006   -1.5676221  0.061300062   -2.6433006    1.0756785   578779 
 1796000    1.0045777   -2.6422794   -2.6422794   -1.5679263  0.060324783   -2.6422794    1.0743531   578779 
 1797000     1.005754   -2.6430918   -2.6430918   -1.5674807  0.063491755   -2.6430918    1.0756111   578779 
 1798000    1.0062692    -2.643547    -2.643547    -1.567385  0.058895959    -2.643547    1.0761621   578779 
 1799000    1.0056743   -2.6428689   -2.6428689    -1.567343  0.058864676   -2.6428689    1.0755259   578779 
 1800000     1.005339   -2.6429449   -2.6429449   -1.5677776  0.056543259   -2.6429449    1.0751673   578779 
 1801000    1.0044884   -2.6416528   -2.6416528   -1.5673952   0.06836763   -2.6416528    1.0742576   578779 
 1802000    1.0050589   -2.6424881   -2.6424881   -1.5676204  0.061417375   -2.6424881    1.0748677   578779 
 1803000    1.0046271   -2.6427078   -2.6427078   -1.5683019  0.056474116   -2.6427078    1.0744059   578779 
 1804000    1.0051549   -2.6427461   -2.6427461   -1.5677757  0.062678562   -2.6427461    1.0749704   578779 
 1805000    1.0054392   -2.6438051   -2.6438051   -1.5685307   0.06467831   -2.6438051    1.0752744   578779 
 1806000    1.0055056   -2.6432485   -2.6432485   -1.5679031  0.068894008   -2.6432485    1.0753454   578779 
 1807000    1.0070132    -2.645001    -2.645001   -1.5680432   0.05650955    -2.645001    1.0769578   578779 
 1808000    1.0075902   -2.6452961   -2.6452961   -1.5677213  0.057003132   -2.6452961    1.0775748   578779 
 1809000    1.0060303   -2.6436777   -2.6436777   -1.5677711   0.06543697   -2.6436777    1.0759066   578779 
 1810000    1.0063952   -2.6441903   -2.6441903   -1.5678935  0.070378535   -2.6441903    1.0762968   578779 
 1811000    1.0074362   -2.6454694   -2.6454694   -1.5680593  0.064333314   -2.6454694    1.0774101   578779 
 1812000    1.0081708   -2.6460125   -2.6460125   -1.5678168   0.06460961   -2.6460125    1.0781957   578779 
 1813000    1.0058314   -2.6435882   -2.6435882   -1.5678943   0.06791468   -2.6435882    1.0756939   578779 
 1814000    1.0061932   -2.6445424   -2.6445424   -1.5684616  0.065304112   -2.6445424    1.0760808   578779 
 1815000    1.0060959   -2.6454621   -2.6454621   -1.5694854  0.061881151   -2.6454621    1.0759767   578779 
 1816000    1.0067066    -2.645188    -2.645188   -1.5685581   0.08225366    -2.645188    1.0766298   578779 
 1817000    1.0082283   -2.6463692   -2.6463692    -1.568112  0.056908157   -2.6463692    1.0782573   578779 
 1818000    1.0063877   -2.6452698   -2.6452698   -1.5689809  0.062196843   -2.6452698    1.0762888   578779 
 1819000    1.0065902   -2.6456662   -2.6456662   -1.5691609  0.065866147   -2.6456662    1.0765053   578779 
 1820000    1.0060226   -2.6446934   -2.6446934    -1.568795  0.065608178   -2.6446934    1.0758984   578779 
 1821000    1.0054933   -2.6441709   -2.6441709   -1.5688387  0.076598301   -2.6441709    1.0753322   578779 
 1822000    1.0088767   -2.6477407   -2.6477407     -1.56879  0.060439816   -2.6477407    1.0789507   578779 
 1823000    1.0066552   -2.6454444   -2.6454444   -1.5688696  0.067753534   -2.6454444    1.0765748   578779 
 1824000    1.0083464   -2.6468323   -2.6468323   -1.5684487  0.067773299   -2.6468323    1.0783836   578779 
 1825000    1.0070552   -2.6464332   -2.6464332   -1.5694305  0.061433178   -2.6464332    1.0770027   578779 
 1826000    1.0069362   -2.6461835   -2.6461835   -1.5693081  0.055731449   -2.6461835    1.0768754   578779 
 1827000    1.0075607   -2.6465819   -2.6465819   -1.5690387   0.05774411   -2.6465819    1.0775433   578779 
 1828000    1.0062148   -2.6466502   -2.6466502   -1.5705463  0.061607895   -2.6466502    1.0761038   578779 
 1829000    1.0045775   -2.6452059   -2.6452059    -1.570853   0.06407189   -2.6452059    1.0743529   578779 
 1830000    1.0051401   -2.6451943   -2.6451943   -1.5702397   0.06452807   -2.6451943    1.0749546   578779 
 1831000    1.0050019   -2.6455458   -2.6455458    -1.570739  0.048673119   -2.6455458    1.0748068   578779 
 1832000    1.0046255   -2.6444269   -2.6444269   -1.5700227  0.060201104   -2.6444269    1.0744042   578779 
 1833000    1.0030182   -2.6433114   -2.6433114   -1.5706261   0.05460126   -2.6433114    1.0726853   578779 
 1834000    1.0039869    -2.644866    -2.644866   -1.5711448   0.05708214    -2.644866    1.0737212   578779 
 1835000    1.0035874   -2.6444458   -2.6444458   -1.5711518  0.060870297   -2.6444458     1.073294   578779 
 1836000    1.0035981   -2.6439217   -2.6439217   -1.5706162   0.06339802   -2.6439217    1.0733054   578779 
 1837000      1.00487   -2.6448024   -2.6448024   -1.5701367  0.063552263   -2.6448024    1.0746657   578779 
 1838000    1.0041236   -2.6450686   -2.6450686   -1.5712011  0.058093821   -2.6450686    1.0738675   578779 
 1839000    1.0059021   -2.6463031   -2.6463031   -1.5705336  0.065606442   -2.6463031    1.0757694   578779 
 1840000    1.0047204   -2.6452441   -2.6452441   -1.5707384  0.064810953   -2.6452441    1.0745056   578779 
 1841000    1.0073504   -2.6471137   -2.6471137   -1.5697954  0.060665056   -2.6471137    1.0773184   578779 
 1842000    1.0065138    -2.646309    -2.646309   -1.5698853  0.077359728    -2.646309    1.0764237   578779 
 1843000    1.0060282   -2.6457647   -2.6457647   -1.5698604  0.075995494   -2.6457647    1.0759043   578779 
 1844000     1.006643   -2.6461695   -2.6461695   -1.5696076  0.068651438   -2.6461695    1.0765619   578779 
 1845000    1.0074732   -2.6468036   -2.6468036    -1.569354  0.063220883   -2.6468036    1.0774497   578779 
 1846000    1.0078059   -2.6476069   -2.6476069   -1.5698013  0.064364085   -2.6476069    1.0778055   578779 
 1847000    1.0085288   -2.6487933   -2.6487933   -1.5702148  0.065989976   -2.6487933    1.0785786   578779 
 1848000     1.008616   -2.6485272   -2.6485272   -1.5698554  0.068219141   -2.6485272    1.0786718   578779 
 1849000     1.007862   -2.6481672   -2.6481672   -1.5703017  0.060916491   -2.6481672    1.0778655   578779 
 1850000    1.0071455   -2.6468037   -2.6468037   -1.5697044  0.072654014   -2.6468037    1.0770992   578779 
 1851000    1.0081767   -2.6484301   -2.6484301   -1.5702281  0.065317599   -2.6484301     1.078202   578779 
 1852000    1.0062184   -2.6468206   -2.6468206   -1.5707129  0.059938092   -2.6468206    1.0761077   578779 
 1853000      1.00485   -2.6449965   -2.6449965   -1.5703522  0.069439897   -2.6449965    1.0746443   578779 
 1854000    1.0059022    -2.645827    -2.645827   -1.5700574  0.070166652    -2.645827    1.0757696   578779 
 1855000    1.0082947   -2.6479684   -2.6479684   -1.5696401  0.058777445   -2.6479684    1.0783283   578779 
 1856000    1.0069729   -2.6463269   -2.6463269   -1.5694123  0.059604185   -2.6463269    1.0769146   578779 
 1857000    1.0057262   -2.6457991   -2.6457991   -1.5702178  0.061655735   -2.6457991    1.0755813   578779 
 1858000    1.0066804    -2.646777    -2.646777   -1.5701752  0.073863948    -2.646777    1.0766018   578779 
 1859000    1.0067782   -2.6467326   -2.6467326   -1.5700262  0.076937011   -2.6467326    1.0767064   578779 
 1860000    1.0066175   -2.6459436   -2.6459436    -1.569409   0.08145386   -2.6459436    1.0765346   578779 
 1861000     1.006636    -2.645609    -2.645609   -1.5690546  0.055692424    -2.645609    1.0765544   578779 
 1862000     1.006386   -2.6456403   -2.6456403   -1.5693533   0.05681262   -2.6456403     1.076287   578779 
 1863000    1.0051795   -2.6444492   -2.6444492   -1.5694526  0.065837886   -2.6444492    1.0749966   578779 
 1864000    1.0053411   -2.6440954   -2.6440954   -1.5689259  0.072870842   -2.6440954    1.0751695   578779 
 1865000    1.0052651   -2.6446668   -2.6446668   -1.5695785  0.064972043   -2.6446668    1.0750883   578779 
 1866000    1.0068252   -2.6463494   -2.6463494   -1.5695928   0.05299961   -2.6463494    1.0767566   578779 
 1867000    1.0064372   -2.6451836   -2.6451836   -1.5688419  0.061040728   -2.6451836    1.0763417   578779 
 1868000    1.0056906   -2.6446313   -2.6446313    -1.569088  0.061960552   -2.6446313    1.0755433   578779 
 1869000     1.004762   -2.6432098   -2.6432098   -1.5686597  0.050031227   -2.6432098    1.0745501   578779 
 1870000    1.0068044   -2.6457775   -2.6457775   -1.5690431  0.062646919   -2.6457775    1.0767344   578779 
 1871000    1.0060416   -2.6451034   -2.6451034   -1.5691847  0.065247262   -2.6451034    1.0759187   578779 
 1872000     1.005062   -2.6438285   -2.6438285   -1.5689575  0.062715334   -2.6438285     1.074871   578779 
 1873000    1.0056225   -2.6443066   -2.6443066   -1.5688362  0.072859093   -2.6443066    1.0754705   578779 
 1874000    1.0072334   -2.6455603   -2.6455603   -1.5683671  0.070123521   -2.6455603    1.0771932   578779 
 1875000    1.0076422   -2.6460822   -2.6460822   -1.5684518  0.067818196   -2.6460822    1.0776304   578779 
 1876000    1.0058721   -2.6437436   -2.6437436   -1.5680062  0.070070804   -2.6437436    1.0757374   578779 
 1877000    1.0067022    -2.645435    -2.645435   -1.5688099  0.061415579    -2.645435    1.0766251   578779 
 1878000    1.0072023   -2.6457465   -2.6457465   -1.5685865   0.07160723   -2.6457465      1.07716   578779 
 1879000    1.0072198   -2.6469028   -2.6469028   -1.5697241  0.069131501   -2.6469028    1.0771787   578779 
 1880000    1.0070637   -2.6473819   -2.6473819   -1.5703702  0.076082639   -2.6473819    1.0770117   578779 
 1881000    1.0056372   -2.6457095   -2.6457095   -1.5702233  0.061891036   -2.6457095    1.0754862   578779 
 1882000    1.0071405   -2.6485437   -2.6485437   -1.5714498  0.066407554   -2.6485437    1.0770939   578779 
 1883000    1.0070088   -2.6476636   -2.6476636   -1.5707106  0.066672189   -2.6476636     1.076953   578779 
 1884000    1.0068643   -2.6480451   -2.6480451   -1.5712466  0.058329039   -2.6480451    1.0767985   578779 
 1885000    1.0074677   -2.6483796   -2.6483796   -1.5709358   0.05768911   -2.6483796    1.0774438   578779 
 1886000    1.0047656   -2.6463354   -2.6463354   -1.5717814  0.057530665   -2.6463354    1.0745541   578779 
 1887000    1.0044343   -2.6455293   -2.6455293   -1.5713296  0.067337642   -2.6455293    1.0741997   578779 
 1888000    1.0067998   -2.6480866   -2.6480866   -1.5713572  0.058353883   -2.6480866    1.0767295   578779 
 1889000    1.0076578   -2.6490335   -2.6490335   -1.5713864  0.057362916   -2.6490335    1.0776472   578779 
 1890000    1.0058978   -2.6469427   -2.6469427   -1.5711779  0.063328689   -2.6469427    1.0757648   578779 
 1891000    1.0057954   -2.6474972   -2.6474972   -1.5718419  0.064769808   -2.6474972    1.0756553   578779 
 1892000    1.0066406   -2.6483465   -2.6483465   -1.5717872  0.077730159   -2.6483465    1.0765593   578779 
 1893000     1.006189   -2.6479657   -2.6479657   -1.5718894  0.067937133   -2.6479657    1.0760764   578779 
 1894000    1.0078635   -2.6488926   -2.6488926   -1.5710254  0.065680436   -2.6488926    1.0778671   578779 
 1895000    1.0091531   -2.6500416   -2.6500416   -1.5707953  0.064965749   -2.6500416    1.0792463   578779 
 1896000    1.0083467   -2.6496305   -2.6496305   -1.5712466  0.072161948   -2.6496305    1.0783839   578779 
 1897000    1.0078249   -2.6492982   -2.6492982   -1.5714724  0.063001772   -2.6492982    1.0778259   578779 
 1898000    1.0072425   -2.6484974   -2.6484974   -1.5712944  0.064781266   -2.6484974     1.077203   578779 
 1899000    1.0058086   -2.6473359   -2.6473359   -1.5716664  0.085834374   -2.6473359    1.0756695   578779 
 1900000     1.005956   -2.6475013   -2.6475013   -1.5716742   0.06627743   -2.6475013    1.0758271   578779 
 1901000    1.0077513   -2.6498409   -2.6498409   -1.5720938   0.06228211   -2.6498409    1.0777471   578779 
 1902000    1.0048616   -2.6469771   -2.6469771   -1.5723205  0.081914555   -2.6469771    1.0746567   578779 
 1903000    1.0058433   -2.6480799   -2.6480799   -1.5723733  0.062208381   -2.6480799    1.0757066   578779 
 1904000    1.0061618   -2.6476628   -2.6476628   -1.5716156  0.062728151   -2.6476628    1.0760472   578779 
 1905000    1.0063737    -2.648393    -2.648393   -1.5721191  0.070387081    -2.648393    1.0762738   578779 
 1906000    1.0056805   -2.6477256   -2.6477256    -1.572193  0.061892211   -2.6477256    1.0755325   578779 
 1907000    1.0051114   -2.6471564   -2.6471564   -1.5722326  0.062956979   -2.6471564    1.0749238   578779 
 1908000     1.006352   -2.6486241   -2.6486241   -1.5723735  0.061251145   -2.6486241    1.0762506   578779 
 1909000    1.0067338   -2.6485334   -2.6485334   -1.5718745  0.065396606   -2.6485334    1.0766589   578779 
 1910000    1.0051317   -2.6467769   -2.6467769   -1.5718313  0.065257265   -2.6467769    1.0749455   578779 
 1911000    1.0047734   -2.6464369   -2.6464369   -1.5718746  0.062062607   -2.6464369    1.0745623   578779 
 1912000    1.0063129   -2.6473399   -2.6473399   -1.5711311  0.061253945   -2.6473399    1.0762088   578779 
 1913000    1.0055977   -2.6472011   -2.6472011   -1.5717571  0.066351275   -2.6472011    1.0754439   578779 
 1914000     1.006526   -2.6479236   -2.6479236   -1.5714869  0.079581115   -2.6479236    1.0764367   578779 
 1915000    1.0066231   -2.6475892   -2.6475892   -1.5710487  0.073233399   -2.6475892    1.0765405   578779 
 1916000    1.0068458    -2.647471    -2.647471   -1.5706924  0.066097455    -2.647471    1.0767787   578779 
 1917000    1.0060394   -2.6463796   -2.6463796   -1.5704632  0.064640481   -2.6463796    1.0759163   578779 
 1918000    1.0061942   -2.6463877   -2.6463877   -1.5703059  0.069022642   -2.6463877    1.0760818   578779 
 1919000    1.0061453   -2.6467828   -2.6467828   -1.5707532  0.070587485   -2.6467828    1.0760296   578779 
 1920000    1.0065399   -2.6471592   -2.6471592   -1.5707076  0.060520205   -2.6471592    1.0764516   578779 
 1921000    1.0067302   -2.6476793   -2.6476793   -1.5710242  0.069748723   -2.6476793    1.0766551   578779 
 1922000    1.0061763   -2.6475045   -2.6475045   -1.5714418  0.058987418   -2.6475045    1.0760628   578779 
 1923000    1.0054347   -2.6467399   -2.6467399   -1.5714703  0.071132306   -2.6467399    1.0752696   578779 
 1924000    1.0066783   -2.6490264   -2.6490264   -1.5724268  0.059364165   -2.6490264    1.0765996   578779 
 1925000    1.0041921   -2.6461442   -2.6461442   -1.5722035  0.060900937   -2.6461442    1.0739407   578779 
 1926000    1.0062892   -2.6478973   -2.6478973   -1.5717139  0.058630137   -2.6478973    1.0761834   578779 
 1927000    1.0061045   -2.6479588   -2.6479588   -1.5719728  0.059931432   -2.6479588     1.075986   578779 
 1928000    1.0042609   -2.6462448   -2.6462448   -1.5722305  0.055845145   -2.6462448    1.0740143   578779 
 1929000    1.0055773   -2.6474642   -2.6474642   -1.5720421  0.074283256   -2.6474642    1.0754221   578779 
 1930000    1.0052887   -2.6474956   -2.6474956   -1.5723821  0.072280181   -2.6474956    1.0751135   578779 
 1931000    1.0052022   -2.6467656   -2.6467656   -1.5717447  0.062115919   -2.6467656    1.0750209   578779 
 1932000    1.0054751   -2.6467834   -2.6467834   -1.5714706  0.064923355   -2.6467834    1.0753128   578779 
 1933000    1.0055573   -2.6484822   -2.6484822   -1.5730814  0.068748122   -2.6484822    1.0754007   578779 
 1934000    1.0049858    -2.647367    -2.647367   -1.5725774   0.07355657    -2.647367    1.0747896   578779 
 1935000    1.0061018   -2.6479015   -2.6479015   -1.5719184  0.056827298   -2.6479015    1.0759831   578779 
 1936000     1.003944    -2.646202    -2.646202   -1.5725266  0.047537659    -2.646202    1.0736754   578779 
 1937000    1.0033539   -2.6457484   -2.6457484   -1.5727042  0.060215211   -2.6457484    1.0730443   578779 
 1938000    1.0050536   -2.6479187   -2.6479187   -1.5730567  0.072121761   -2.6479187    1.0748621   578779 
 1939000    1.0038666   -2.6463844   -2.6463844   -1.5727917  0.058995787   -2.6463844    1.0735926   578779 
 1940000    1.0040186   -2.6463425   -2.6463425   -1.5725873  0.069033297   -2.6463425    1.0737551   578779 
 1941000    1.0056113   -2.6480236   -2.6480236   -1.5725651  0.056807023   -2.6480236    1.0754585   578779 
 1942000    1.0043122   -2.6463922   -2.6463922    -1.572323   0.06599978   -2.6463922    1.0740692   578779 
 1943000    1.0049849   -2.6467074   -2.6467074   -1.5719188  0.059237283   -2.6467074    1.0747885   578779 
 1944000    1.0053657   -2.6467333   -2.6467333   -1.5715375  0.055664853   -2.6467333    1.0751958   578779 
 1945000    1.0059564   -2.6467773   -2.6467773   -1.5709498  0.065523886   -2.6467773    1.0758275   578779 
 1946000    1.0039569   -2.6448852   -2.6448852   -1.5711961  0.068244397   -2.6448852    1.0736891   578779 
 1947000    1.0047922   -2.6458191   -2.6458191   -1.5712366  0.054175487   -2.6458191    1.0745825   578779 
 1948000    1.0047349   -2.6454944   -2.6454944   -1.5709731  0.060418398   -2.6454944    1.0745212   578779 
 1949000    1.0041692   -2.6440273   -2.6440273   -1.5701112  0.071180593   -2.6440273    1.0739162   578779 
 1950000    1.0061493    -2.645469    -2.645469   -1.5694352  0.062418273    -2.645469    1.0760339   578779 
 1951000    1.0064013    -2.645599    -2.645599   -1.5692956  0.069408663    -2.645599    1.0763033   578779 
 1952000    1.0070863   -2.6463492   -2.6463492   -1.5693134  0.069778654   -2.6463492    1.0770359   578779 
 1953000    1.0049783   -2.6443406   -2.6443406    -1.569559  0.059592508   -2.6443406    1.0747816   578779 
 1954000     1.005835   -2.6459147   -2.6459147    -1.570217  0.049074418   -2.6459147    1.0756977   578779 
 1955000    1.0060693   -2.6461058   -2.6461058   -1.5701575  0.061170111   -2.6461058    1.0759483   578779 
 1956000    1.0044834   -2.6444075   -2.6444075   -1.5701553  0.064922194   -2.6444075    1.0742522   578779 
 1957000    1.0048931   -2.6456259   -2.6456259   -1.5709355  0.062470074   -2.6456259    1.0746904   578779 
 1958000    1.0059317   -2.6472073   -2.6472073   -1.5714062  0.072031575   -2.6472073    1.0758011   578779 
 1959000    1.0050062    -2.646587    -2.646587   -1.5717757  0.061101462    -2.646587    1.0748114   578779 
 1960000    1.0038195   -2.6456902   -2.6456902    -1.572148  0.058851836   -2.6456902    1.0735422   578779 
 1961000    1.0034713   -2.6450537   -2.6450537   -1.5718839  0.062225527   -2.6450537    1.0731698   578779 
 1962000    1.0051809   -2.6461831   -2.6461831   -1.5711849  0.059930143   -2.6461831    1.0749981   578779 
 1963000    1.0054848   -2.6469422   -2.6469422   -1.5716189  0.058130369   -2.6469422    1.0753232   578779 
 1964000    1.0075482   -2.6489012   -2.6489012   -1.5713713  0.064695655   -2.6489012    1.0775299   578779 
 1965000    1.0054104   -2.6471844   -2.6471844   -1.5719409  0.054519799   -2.6471844    1.0752436   578779 
 1966000    1.0050996   -2.6481987   -2.6481987   -1.5732875  0.061475203   -2.6481987    1.0749113   578779 
 1967000    1.0050694   -2.6487016   -2.6487016   -1.5738227  0.059708072   -2.6487016     1.074879   578779 
 1968000    1.0054225   -2.6486626   -2.6486626    -1.573406  0.068167263   -2.6486626    1.0752566   578779 
 1969000    1.0050273    -2.647749    -2.647749   -1.5729151  0.058167395    -2.647749    1.0748339   578779 
 1970000    1.0038873   -2.6462631   -2.6462631   -1.5726483  0.075336254   -2.6462631    1.0736148   578779 
 1971000    1.0040609    -2.646302    -2.646302   -1.5725016  0.062055911    -2.646302    1.0738004   578779 
 1972000    1.0047821   -2.6470229   -2.6470229   -1.5724513  0.061650037   -2.6470229    1.0745716   578779 
 1973000    1.0043523   -2.6471164   -2.6471164   -1.5730043  0.061183146   -2.6471164    1.0741121   578779 
 1974000    1.0046129   -2.6473668   -2.6473668   -1.5729761  0.064657875   -2.6473668    1.0743907   578779 
 1975000    1.0040176     -2.64659     -2.64659   -1.5728359  0.066979919     -2.64659    1.0737541   578779 
 1976000    1.0082085   -2.6506868   -2.6506868   -1.5724507  0.057856364   -2.6506868    1.0782361   578779 
 1977000    1.0067798   -2.6498031   -2.6498031    -1.573095  0.068198829   -2.6498031    1.0767081   578779 
 1978000    1.0059324   -2.6489215   -2.6489215   -1.5731196  0.059218485   -2.6489215    1.0758019   578779 
 1979000    1.0052163   -2.6479146   -2.6479146   -1.5728786  0.066442488   -2.6479146     1.075036   578779 
 1980000    1.0056621     -2.64841     -2.64841   -1.5728972  0.067936244     -2.64841    1.0755128   578779 
 1981000    1.0063075   -2.6502499   -2.6502499   -1.5740469  0.064303064   -2.6502499     1.076203   578779 
 1982000    1.0059063   -2.6492221   -2.6492221   -1.5734481  0.075154958   -2.6492221     1.075774   578779 
 1983000    1.0060441   -2.6487716   -2.6487716   -1.5728502  0.075481904   -2.6487716    1.0759214   578779 
 1984000    1.0053762   -2.6484341   -2.6484341   -1.5732271  0.064109545   -2.6484341     1.075207   578779 
 1985000    1.0045993   -2.6486171   -2.6486171   -1.5742409   0.05201644   -2.6486171    1.0743762   578779 
 1986000    1.0033843   -2.6475215   -2.6475215   -1.5744447  0.060279056   -2.6475215    1.0730768   578779 
 1987000    1.0055479   -2.6491731   -2.6491731   -1.5737823  0.067554307   -2.6491731    1.0753907   578779 
 1988000    1.0058763   -2.6498683   -2.6498683   -1.5741265  0.053840323   -2.6498683    1.0757419   578779 
 1989000    1.0036765    -2.648031    -2.648031   -1.5746417  0.072862105    -2.648031    1.0733893   578779 
 1990000    1.0062422   -2.6497278   -2.6497278   -1.5735946  0.056862118   -2.6497278    1.0761332   578779 
 1991000    1.0040149   -2.6476385   -2.6476385   -1.5738873  0.067572085   -2.6476385    1.0737512   578779 
 1992000    1.0041787   -2.6473525   -2.6473525   -1.5734261  0.073784235   -2.6473525    1.0739264   578779 
 1993000    1.0052147   -2.6488258   -2.6488258   -1.5737914  0.071137823   -2.6488258    1.0750344   578779 
 1994000    1.0047347   -2.6488514   -2.6488514   -1.5743305  0.069073668   -2.6488514    1.0745209   578779 
 1995000    1.0046196     -2.64831     -2.64831   -1.5739121  0.057378735     -2.64831    1.0743979   578779 
 1996000    1.0045215   -2.6482494   -2.6482494   -1.5739565   0.06491363   -2.6482494    1.0742929   578779 
 1997000    1.0059523   -2.6494617   -2.6494617   -1.5736386  0.065349809   -2.6494617    1.0758231   578779 
 1998000    1.0032013   -2.6468398   -2.6468398   -1.5739588  0.072237395   -2.6468398     1.072881   578779 
 1999000    1.0031257   -2.6471702   -2.6471702     -1.57437  0.068649047   -2.6471702    1.0728002   578779 
 2000000    1.0056212   -2.6494456   -2.6494456   -1.5739765  0.062439019   -2.6494456    1.0754691   578779 
 2001000    1.0066051   -2.6500999   -2.6500999   -1.5735787  0.063422507   -2.6500999    1.0765212   578779 
 2002000    1.0052726   -2.6492171   -2.6492171   -1.5741208  0.065876525   -2.6492171    1.0750963   578779 
 2003000     1.005751   -2.6496912   -2.6496912   -1.5740833  0.064718632   -2.6496912    1.0756079   578779 
 2004000    1.0058062   -2.6492952   -2.6492952   -1.5736283  0.062842041   -2.6492952    1.0756669   578779 
 2005000    1.0054726   -2.6490485   -2.6490485   -1.5737383  0.065534542   -2.6490485    1.0753102   578779 
 2006000    1.0047243   -2.6488363   -2.6488363   -1.5743264  0.058113633   -2.6488363    1.0745098   578779 
 2007000    1.0051149   -2.6489183   -2.6489183   -1.5739907  0.071201396   -2.6489183    1.0749276   578779 
 2008000     1.004752    -2.648962    -2.648962   -1.5744225  0.061069219    -2.648962    1.0745394   578779 
 2009000    1.0054905    -2.648067    -2.648067   -1.5727377   0.07265712    -2.648067    1.0753293   578779 
 2010000    1.0065529   -2.6494883   -2.6494883   -1.5730228   0.05786368   -2.6494883    1.0764655   578779 
 2011000    1.0038735   -2.6472616   -2.6472616   -1.5736616  0.056726528   -2.6472616       1.0736   578779 
 2012000     1.006754   -2.6497521   -2.6497521   -1.5730716  0.070491871   -2.6497521    1.0766806   578779 
 2013000    1.0066023   -2.6497038   -2.6497038   -1.5731855  0.052510131   -2.6497038    1.0765183   578779 
 2014000    1.0051803   -2.6480293   -2.6480293   -1.5730318  0.061646788   -2.6480293    1.0749975   578779 
 2015000    1.0056034   -2.6482524   -2.6482524   -1.5728025  0.067954741   -2.6482524      1.07545   578779 
 2016000    1.0045194    -2.646485    -2.646485   -1.5721942   0.05471906    -2.646485    1.0742908   578779 
 2017000     1.005144   -2.6470547   -2.6470547   -1.5720959  0.069618969   -2.6470547    1.0749587   578779 
 2018000    1.0071238   -2.6498281   -2.6498281   -1.5727521  0.054727251   -2.6498281     1.077076   578779 
 2019000    1.0072971   -2.6498176   -2.6498176   -1.5725562  0.058989444   -2.6498176    1.0772614   578779 
 2020000    1.0069032   -2.6494709   -2.6494709   -1.5726307  0.069593736   -2.6494709    1.0768401   578779 
 2021000     1.007024   -2.6494812   -2.6494812   -1.5725118  0.062878594   -2.6494812    1.0769693   578779 
 2022000    1.0048888   -2.6475091   -2.6475091   -1.5728233  0.068608287   -2.6475091    1.0746858   578779 
 2023000    1.0041981   -2.6465818   -2.6465818   -1.5726347  0.066335176   -2.6465818    1.0739471   578779 
 2024000    1.0059786   -2.6484976   -2.6484976   -1.5726464  0.066623686   -2.6484976    1.0758513   578779 
 2025000    1.0054912   -2.6482736   -2.6482736   -1.5729435  0.058612293   -2.6482736    1.0753301   578779 
 2026000    1.0052637   -2.6479698   -2.6479698   -1.5728831   0.06847405   -2.6479698    1.0750867   578779 
 2027000    1.0046391   -2.6472558   -2.6472558    -1.572837  0.063060379   -2.6472558    1.0744188   578779 
 2028000    1.0058583   -2.6479974   -2.6479974   -1.5722748  0.060449473   -2.6479974    1.0757226   578779 
 2029000    1.0063543   -2.6489449   -2.6489449   -1.5726919   0.06250555   -2.6489449    1.0762531   578779 
 2030000    1.0066325   -2.6494736   -2.6494736    -1.572923   0.06502501   -2.6494736    1.0765506   578779 
 2031000    1.0061766   -2.6490888   -2.6490888   -1.5730258  0.064082564   -2.6490888     1.076063   578779 
 2032000    1.0073326   -2.6500687   -2.6500687   -1.5727693  0.066003779   -2.6500687    1.0772994   578779 
 2033000    1.0063902   -2.6486836   -2.6486836   -1.5723921  0.059925087   -2.6486836    1.0762914   578779 
 2034000    1.0068981   -2.6493392   -2.6493392   -1.5725045  0.065068052   -2.6493392    1.0768346   578779 
 2035000    1.0050478   -2.6475296   -2.6475296   -1.5726737  0.060539224   -2.6475296    1.0748558   578779 
 2036000     1.003527   -2.6465296   -2.6465296   -1.5733001  0.077135971   -2.6465296    1.0732294   578779 
 2037000    1.0048577   -2.6468765   -2.6468765    -1.572224    0.0589891   -2.6468765    1.0746525   578779 
 2038000    1.0034021   -2.6450379   -2.6450379   -1.5719421  0.060074951   -2.6450379    1.0730958   578779 
 2039000    1.0044182   -2.6461382   -2.6461382   -1.5719557  0.067775987   -2.6461382    1.0741825   578779 
 2040000    1.0057322   -2.6469138   -2.6469138    -1.571326  0.068026966   -2.6469138    1.0755878   578779 
 2041000    1.0043158   -2.6452504   -2.6452504   -1.5711775  0.065263034   -2.6452504     1.074073   578779 
 2042000    1.0049153   -2.6461525   -2.6461525   -1.5714383  0.058488207   -2.6461525    1.0747142   578779 
 2043000    1.0047213   -2.6463159   -2.6463159   -1.5718092  0.052905759   -2.6463159    1.0745067   578779 
 2044000    1.0041906   -2.6452696   -2.6452696   -1.5713304  0.062971197   -2.6452696    1.0739391   578779 
 2045000    1.0042949   -2.6455706   -2.6455706   -1.5715199  0.070206341   -2.6455706    1.0740506   578779 
 2046000    1.0051556   -2.6467721   -2.6467721    -1.571801  0.060696913   -2.6467721    1.0749711   578779 
 2047000    1.0039883   -2.6457755   -2.6457755   -1.5720528   0.06940412   -2.6457755    1.0737227   578779 
 2048000    1.0060669   -2.6473002   -2.6473002   -1.5713544  0.055408767   -2.6473002    1.0759458   578779 
 2049000    1.0056835   -2.6468248   -2.6468248   -1.5712891   0.06464734   -2.6468248    1.0755357   578779 
 2050000    1.0065023   -2.6472905   -2.6472905   -1.5708791  0.063968924   -2.6472905    1.0764114   578779 
 2051000    1.0056012   -2.6467584   -2.6467584   -1.5713107  0.075422426   -2.6467584    1.0754477   578779 
 2052000     1.005389   -2.6469914   -2.6469914   -1.5717707  0.052418516   -2.6469914    1.0752207   578779 
 2053000    1.0052043   -2.6467049   -2.6467049   -1.5716817  0.069500889   -2.6467049    1.0750232   578779 
 2054000    1.0061856   -2.6474419   -2.6474419   -1.5713692  0.065903204   -2.6474419    1.0760727   578779 
 2055000    1.0047924   -2.6462298   -2.6462298    -1.571647  0.063005573   -2.6462298    1.0745827   578779 
 2056000    1.0049155   -2.6460906   -2.6460906   -1.5713763  0.075422849   -2.6460906    1.0747143   578779 
 2057000    1.0066835   -2.6483479   -2.6483479   -1.5717427  0.068405335   -2.6483479    1.0766052   578779 
 2058000     1.006654   -2.6484328   -2.6484328   -1.5718592  0.064208343   -2.6484328    1.0765736   578779 
 2059000    1.0058035   -2.6481477   -2.6481477   -1.5724837  0.068272592   -2.6481477    1.0756641   578779 
 2060000    1.0072348   -2.6488331   -2.6488331   -1.5716384  0.060795472   -2.6488331    1.0771947   578779 
 2061000    1.0060593   -2.6479932   -2.6479932   -1.5720556  0.069125188   -2.6479932    1.0759376   578779 
 2062000    1.0044664   -2.6468625   -2.6468625   -1.5726285  0.080254981   -2.6468625     1.074234   578779 
 2063000    1.0056196    -2.647898    -2.647898   -1.5724306  0.072610129    -2.647898    1.0754673   578779 
 2064000    1.0055937   -2.6482673   -2.6482673   -1.5728276  0.055248906   -2.6482673    1.0754397   578779 
 2065000    1.0052814   -2.6484961   -2.6484961   -1.5733905  0.063941776   -2.6484961    1.0751056   578779 
 2066000    1.0063597    -2.647963    -2.647963   -1.5717041  0.060192578    -2.647963    1.0762589   578779 
 2067000    1.0062793    -2.647833    -2.647833   -1.5716601  0.066451802    -2.647833    1.0761729   578779 
 2068000    1.0061075   -2.6472806   -2.6472806   -1.5712915  0.081675879   -2.6472806    1.0759891   578779 
 2069000    1.0060223    -2.647258    -2.647258     -1.57136  0.064710011    -2.647258     1.075898   578779 
 2070000    1.0063142   -2.6476053   -2.6476053   -1.5713951  0.077056681   -2.6476053    1.0762102   578779 
 2071000    1.0070682   -2.6483124   -2.6483124   -1.5712959  0.065625456   -2.6483124    1.0770165   578779 
 2072000    1.0051569   -2.6468053   -2.6468053   -1.5718328  0.066531253   -2.6468053    1.0749725   578779 
 2073000    1.0063054   -2.6477997   -2.6477997   -1.5715989  0.064129584   -2.6477997    1.0762008   578779 
 2074000    1.0054741   -2.6479354   -2.6479354   -1.5726237  0.078663094   -2.6479354    1.0753117   578779 
 2075000    1.0060319   -2.6489963   -2.6489963    -1.573088  0.054222914   -2.6489963    1.0759083   578779 
 2076000    1.0034506   -2.6462698   -2.6462698   -1.5731222   0.05885585   -2.6462698    1.0731476   578779 
 2077000    1.0033478   -2.6464575   -2.6464575   -1.5734197   0.05408501   -2.6464575    1.0730378   578779 
 2078000    1.0025667   -2.6459931   -2.6459931   -1.5737907  0.061178937   -2.6459931    1.0722024   578779 
 2079000    1.0022455   -2.6460296   -2.6460296   -1.5741707  0.063788323   -2.6460296    1.0718589   578779 
 2080000    1.0028191   -2.6465704   -2.6465704   -1.5740981  0.062398359   -2.6465704    1.0724723   578779 
 2081000    1.0046604   -2.6488284   -2.6488284   -1.5743869  0.066341105   -2.6488284    1.0744415   578779 
 2082000     1.003805   -2.6478105   -2.6478105   -1.5742839  0.061432894   -2.6478105    1.0735267   578779 
 2083000    1.0042054   -2.6478079   -2.6478079    -1.573853   0.06456225   -2.6478079    1.0739549   578779 
 2084000    1.0065601   -2.6502889   -2.6502889   -1.5738157    0.0601602   -2.6502889    1.0764732   578779 
 2085000    1.0066737   -2.6505255   -2.6505255   -1.5739309  0.065033148   -2.6505255    1.0765947   578779 
 2086000    1.0062283   -2.6509249   -2.6509249   -1.5748066  0.048977527   -2.6509249    1.0761183   578779 
 2087000    1.0071957   -2.6516555   -2.6516555   -1.5745027   0.06836386   -2.6516555    1.0771529   578779 
 2088000     1.005348   -2.6504614   -2.6504614   -1.5752845  0.066613385   -2.6504614    1.0751769   578779 
 2089000    1.0052798   -2.6500455   -2.6500455   -1.5749416  0.072588781   -2.6500455    1.0751039   578779 
 2090000    1.0065953   -2.6516786   -2.6516786   -1.5751678  0.076170244   -2.6516786    1.0765109   578779 
 2091000    1.0059935   -2.6503369   -2.6503369   -1.5744696  0.070484574   -2.6503369    1.0758673   578779 
 2092000    1.0065602   -2.6505367   -2.6505367   -1.5740635   0.07794015   -2.6505367    1.0764733   578779 
 2093000    1.0048439   -2.6488198   -2.6488198   -1.5741821  0.071712125   -2.6488198    1.0746377   578779 
 2094000    1.0055722   -2.6510131   -2.6510131   -1.5755965   0.06658487   -2.6510131    1.0754166   578779 
 2095000    1.0059426   -2.6514623   -2.6514623   -1.5756495  0.056464161   -2.6514623    1.0758128   578779 
 2096000    1.0053317   -2.6502463   -2.6502463   -1.5750868  0.067161408   -2.6502463    1.0751594   578779 
 2097000    1.0046369   -2.6495645   -2.6495645   -1.5751481  0.067033017   -2.6495645    1.0744163   578779 
 2098000     1.005417   -2.6506804   -2.6506804   -1.5754298  0.065167199   -2.6506804    1.0752507   578779 
 2099000    1.0041494    -2.649627    -2.649627    -1.575732  0.052271291    -2.649627     1.073895   578779 
 2100000    1.0052781   -2.6508727   -2.6508727   -1.5757706  0.063014533   -2.6508727    1.0751021   578779 
 2101000    1.0055163   -2.6511754   -2.6511754   -1.5758185  0.066581326   -2.6511754    1.0753569   578779 
 2102000    1.0070012   -2.6520948   -2.6520948   -1.5751498  0.068058581   -2.6520948     1.076945   578779 
 2103000    1.0053172   -2.6505275   -2.6505275   -1.5753835  0.066132904   -2.6505275     1.075144   578779 
 2104000    1.0041333   -2.6491213   -2.6491213   -1.5752435   0.07046647   -2.6491213    1.0738778   578779 
 2105000    1.0039034   -2.6484162   -2.6484162   -1.5747843  0.066771484   -2.6484162     1.073632   578779 
 2106000    1.0054464    -2.650483    -2.650483   -1.5752008  0.053506381    -2.650483    1.0752821   578779 
 2107000    1.0045435   -2.6499224   -2.6499224   -1.5756059  0.069170895   -2.6499224    1.0743165   578779 
 2108000    1.0039243     -2.64998     -2.64998   -1.5763257  0.057415885     -2.64998    1.0736543   578779 
 2109000    1.0044709   -2.6504924   -2.6504924   -1.5762536   0.05778139   -2.6504924    1.0742388   578779 
 2110000    1.0035672   -2.6494987   -2.6494987   -1.5762262  0.057283123   -2.6494987    1.0732724   578779 
 2111000    1.0043923   -2.6506656   -2.6506656   -1.5765108  0.059960601   -2.6506656    1.0741548   578779 
 2112000    1.0055565   -2.6512171   -2.6512171   -1.5758173  0.068024912   -2.6512171    1.0753998   578779 
 2113000    1.0052918   -2.6503996   -2.6503996   -1.5752828  0.066020615   -2.6503996    1.0751167   578779 
 2114000    1.0059759   -2.6505855   -2.6505855   -1.5747371  0.067005115   -2.6505855    1.0758484   578779 
 2115000    1.0055728   -2.6510026   -2.6510026   -1.5755853  0.071689923   -2.6510026    1.0754173   578779 
 2116000    1.0061207    -2.651721    -2.651721   -1.5757177  0.069880715    -2.651721    1.0760032   578779 
 2117000    1.0064298   -2.6520916   -2.6520916   -1.5757577  0.065343665   -2.6520916    1.0763339   578779 
 2118000    1.0054667   -2.6502026   -2.6502026   -1.5748987  0.083945896   -2.6502026    1.0753038   578779 
 2119000    1.0053227   -2.6505169   -2.6505169   -1.5753671  0.061509857   -2.6505169    1.0751498   578779 
 2120000    1.0052119   -2.6502649   -2.6502649   -1.5752336  0.066865029   -2.6502649    1.0750313   578779 
 2121000    1.0045256   -2.6493661   -2.6493661   -1.5750687  0.068565046   -2.6493661    1.0742974   578779 
 2122000    1.0060107   -2.6513722   -2.6513722   -1.5754866  0.056249963   -2.6513722    1.0758856   578779 
 2123000    1.0051376   -2.6505131   -2.6505131   -1.5755612  0.065460579   -2.6505131    1.0749519   578779 
 2124000    1.0047868   -2.6505611   -2.6505611   -1.5759844  0.069802997   -2.6505611    1.0745767   578779 
 2125000    1.0032428   -2.6483967   -2.6483967   -1.5754712  0.069706333   -2.6483967    1.0729255   578779 
 2126000    1.0041104   -2.6499875   -2.6499875   -1.5761342  0.072973535   -2.6499875    1.0738533   578779 
 2127000     1.004821   -2.6499469   -2.6499469   -1.5753336  0.062550512   -2.6499469    1.0746133   578779 
 2128000    1.0023079    -2.647214    -2.647214   -1.5752884  0.064117815    -2.647214    1.0719256   578779 
 2129000    1.0050874   -2.6499808   -2.6499808   -1.5750826   0.05148121   -2.6499808    1.0748982   578779 
 2130000    1.0065021   -2.6506294   -2.6506294   -1.5742182    0.0648242   -2.6506294    1.0764112   578779 
 2131000    1.0044253   -2.6487896   -2.6487896   -1.5745995  0.063936191   -2.6487896    1.0741901   578779 
 2132000    1.0054252     -2.65017     -2.65017   -1.5749105  0.061501063     -2.65017    1.0752595   578779 
 2133000    1.0051546   -2.6499901   -2.6499901     -1.57502  0.064929888   -2.6499901      1.07497   578779 
 2134000    1.0029814     -2.64798     -2.64798   -1.5753341  0.063333164     -2.64798    1.0726459   578779 
 2135000    1.0035318   -2.6478514   -2.6478514   -1.5746169  0.060038332   -2.6478514    1.0732345   578779 
 2136000    1.0051589   -2.6498688   -2.6498688   -1.5748942  0.069526522   -2.6498688    1.0749747   578779 
 2137000    1.0021982   -2.6465157   -2.6465157   -1.5747073   0.06378465   -2.6465157    1.0718083   578779 
 2138000    1.0038666   -2.6493744   -2.6493744   -1.5757818  0.059128434   -2.6493744    1.0735926   578779 
 2139000    1.0039428   -2.6497082   -2.6497082   -1.5760341  0.068852043   -2.6497082    1.0736741   578779 
 2140000    1.0029748   -2.6491685   -2.6491685   -1.5765296  0.064133283   -2.6491685    1.0726389   578779 
 2141000      1.00313   -2.6479863   -2.6479863   -1.5751815  0.062175971   -2.6479863    1.0728048   578779 
 2142000    1.0041271   -2.6493906   -2.6493906   -1.5755194  0.066922365   -2.6493906    1.0738712   578779 
 2143000    1.0036209   -2.6486408   -2.6486408   -1.5753109  0.068644592   -2.6486408    1.0733299   578779 
 2144000    1.0044765   -2.6509151   -2.6509151   -1.5766703  0.057859545   -2.6509151    1.0742448   578779 
 2145000    1.0050796   -2.6509444   -2.6509444   -1.5760546   0.05994766   -2.6509444    1.0748898   578779 
 2146000    1.0052524   -2.6508342   -2.6508342   -1.5757595  0.065557359   -2.6508342    1.0750747   578779 
 2147000    1.0055748    -2.651797    -2.651797   -1.5763776  0.069116292    -2.651797    1.0754194   578779 
 2148000    1.0041518   -2.6505003   -2.6505003   -1.5766027  0.065872526   -2.6505003    1.0738976   578779 
 2149000    1.0050416   -2.6505559   -2.6505559   -1.5757067  0.068692528   -2.6505559    1.0748492   578779 
 2150000    1.0066875   -2.6522937   -2.6522937   -1.5756842  0.063318901   -2.6522937    1.0766095   578779 
 2151000    1.0078645    -2.653973    -2.653973   -1.5761048  0.061327227    -2.653973    1.0778682   578779 
 2152000    1.0080166   -2.6543647   -2.6543647   -1.5763338  0.055304172   -2.6543647    1.0780309   578779 
 2153000    1.0079162   -2.6538503   -2.6538503   -1.5759268  0.078751641   -2.6538503    1.0779235   578779 
 2154000    1.0056594    -2.651924    -2.651924    -1.576414  0.070863585    -2.651924      1.07551   578779 
 2155000    1.0068546   -2.6526224   -2.6526224   -1.5758343  0.064117079   -2.6526224    1.0767881   578779 
 2156000    1.0066101   -2.6524007   -2.6524007   -1.5758741  0.079205479   -2.6524007    1.0765266   578779 
 2157000    1.0064396   -2.6524439   -2.6524439   -1.5760997  0.060778783   -2.6524439    1.0763443   578779 
 2158000    1.0057204   -2.6520125   -2.6520125   -1.5764374  0.075963294   -2.6520125    1.0755752   578779 
 2159000    1.0046689   -2.6508775   -2.6508775   -1.5764269  0.069346989   -2.6508775    1.0744506   578779 
 2160000    1.0041636   -2.6500557   -2.6500557   -1.5761455  0.068101704   -2.6500557    1.0739103   578779 
 2161000     1.004503   -2.6508677   -2.6508677   -1.5765945  0.050536093   -2.6508677    1.0742732   578779 
 2162000    1.0049039   -2.6511501   -2.6511501   -1.5764482  0.066170514   -2.6511501     1.074702   578779 
 2163000    1.0042893   -2.6497108   -2.6497108   -1.5756661  0.075182155   -2.6497108    1.0740447   578779 
 2164000     1.005597   -2.6504299   -2.6504299   -1.5749867  0.062923791   -2.6504299    1.0754432   578779 
 2165000    1.0050036   -2.6492815   -2.6492815   -1.5744729  0.062134202   -2.6492815    1.0748086   578779 
 2166000    1.0058563   -2.6504723   -2.6504723   -1.5747518   0.06781711   -2.6504723    1.0757205   578779 
 2167000    1.0055223   -2.6505696   -2.6505696   -1.5752063  0.062956552   -2.6505696    1.0753633   578779 
 2168000    1.0055533   -2.6506793   -2.6506793   -1.5752828  0.056159058   -2.6506793    1.0753965   578779 
 2169000    1.0044683   -2.6490286   -2.6490286   -1.5747925  0.066301037   -2.6490286    1.0742361   578779 
 2170000     1.004919    -2.650015    -2.650015   -1.5752969  0.059659011    -2.650015    1.0747181   578779 
 2171000    1.0058546   -2.6501237   -2.6501237    -1.574405  0.079909137   -2.6501237    1.0757187   578779 
 2172000    1.0048831    -2.648814    -2.648814   -1.5741344  0.079179121    -2.648814    1.0746796   578779 
 2173000    1.0050195   -2.6486786   -2.6486786    -1.573853  0.061922504   -2.6486786    1.0748256   578779 
 2174000    1.0045561   -2.6484864   -2.6484864   -1.5741564  0.068063615   -2.6484864      1.07433   578779 
 2175000    1.0037365    -2.648185    -2.648185   -1.5747315  0.061365801    -2.648185    1.0734535   578779 
 2176000    1.0047143   -2.6491995   -2.6491995   -1.5747003  0.056235861   -2.6491995    1.0744992   578779 
 2177000     1.004776   -2.6489332   -2.6489332   -1.5743681  0.057549314   -2.6489332    1.0745651   578779 
 2178000    1.0042172    -2.648114    -2.648114   -1.5741465  0.053109231    -2.648114    1.0739675   578779 
 2179000    1.0041871    -2.648373    -2.648373   -1.5744377  0.050897628    -2.648373    1.0739353   578779 
 2180000    1.0049639   -2.6494754   -2.6494754   -1.5747092  0.065874927   -2.6494754    1.0747662   578779 
 2181000    1.0044542   -2.6498626   -2.6498626   -1.5756416   0.05881686   -2.6498626     1.074221   578779 
 2182000    1.0040902   -2.6492154   -2.6492154   -1.5753837  0.061588624   -2.6492154    1.0738317   578779 
 2183000    1.0047018   -2.6505689   -2.6505689   -1.5760831  0.047681183   -2.6505689    1.0744859   578779 
 2184000    1.0033027   -2.6491093   -2.6491093   -1.5761198  0.066114016   -2.6491093    1.0729895   578779 
 2185000    1.0041224   -2.6482449   -2.6482449   -1.5743788  0.072212499   -2.6482449    1.0738661   578779 
 2186000    1.0046362   -2.6490405   -2.6490405   -1.5746248  0.061966128   -2.6490405    1.0744157   578779 
 2187000    1.0058261   -2.6500622   -2.6500622   -1.5743741  0.083934113   -2.6500622    1.0756882   578779 
 2188000    1.0043605   -2.6484618   -2.6484618   -1.5743411  0.076636552   -2.6484618    1.0741208   578779 
 2189000    1.0049047    -2.649318    -2.649318   -1.5746152  0.066465625    -2.649318    1.0747028   578779 
 2190000    1.0062011   -2.6503416   -2.6503416   -1.5742524   0.06865136   -2.6503416    1.0760892   578779 
 2191000    1.0061173   -2.6498928   -2.6498928   -1.5738932  0.064245589   -2.6498928    1.0759996   578779 
 2192000    1.0053034   -2.6497704   -2.6497704   -1.5746412  0.066289642   -2.6497704    1.0751292   578779 
 2193000    1.0055191   -2.6498721   -2.6498721   -1.5745122  0.065757477   -2.6498721    1.0753599   578779 
 2194000    1.0055596   -2.6498037   -2.6498037   -1.5744005  0.060191462   -2.6498037    1.0754032   578779 
 2195000    1.0038221   -2.6482886   -2.6482886   -1.5747436  0.075921458   -2.6482886     1.073545   578779 
 2196000    1.0044989   -2.6484986   -2.6484986   -1.5742297  0.064744954   -2.6484986    1.0742689   578779 
 2197000    1.0055325   -2.6501646   -2.6501646   -1.5747904  0.067948981   -2.6501646    1.0753742   578779 
 2198000    1.0051811   -2.6491652   -2.6491652   -1.5741668  0.056896626   -2.6491652    1.0749984   578779 
 2199000     1.004146   -2.6492309   -2.6492309   -1.5753395  0.073070148   -2.6492309    1.0738914   578779 
 2200000    1.0046061    -2.649103    -2.649103   -1.5747196  0.068068988    -2.649103    1.0743835   578779 
 2201000    1.0038197   -2.6483712   -2.6483712   -1.5748287  0.063068752   -2.6483712    1.0735424   578779 
 2202000    1.0032532    -2.647781    -2.647781   -1.5748445   0.06944997    -2.647781    1.0729366   578779 
 2203000     1.003249   -2.6475784   -2.6475784   -1.5746463  0.067386014   -2.6475784    1.0729321   578779 
 2204000    1.0032203   -2.6479397   -2.6479397   -1.5750383  0.062473349   -2.6479397    1.0729014   578779 
 2205000    1.0047297   -2.6497413   -2.6497413   -1.5752257  0.061628977   -2.6497413    1.0745156   578779 
 2206000    1.0047682    -2.649139    -2.649139   -1.5745823  0.065837466    -2.649139    1.0745568   578779 
 2207000    1.0053094   -2.6499799   -2.6499799   -1.5748443  0.058947204   -2.6499799    1.0751356   578779 
 2208000    1.0046664   -2.6493773   -2.6493773   -1.5749294   0.07629093   -2.6493773    1.0744479   578779 
 2209000    1.0050651   -2.6492519   -2.6492519   -1.5743776  0.054297133   -2.6492519    1.0748743   578779 
 2210000    1.0040953     -2.64875     -2.64875   -1.5749128  0.068674933     -2.64875    1.0738371   578779 
 2211000    1.0043118   -2.6497778   -2.6497778   -1.5757091  0.059356106   -2.6497778    1.0740687   578779 
 2212000    1.0045516   -2.6503871   -2.6503871   -1.5760619  0.060261457   -2.6503871    1.0743252   578779 
 2213000    1.0042797   -2.6506442   -2.6506442   -1.5766099  0.062348089   -2.6506442    1.0740343   578779 
 2214000    1.0040537   -2.6503245   -2.6503245   -1.5765318  0.060796369   -2.6503245    1.0737927   578779 
 2215000    1.0045626   -2.6513759   -2.6513759   -1.5770389  0.059825211   -2.6513759     1.074337   578779 
 2216000    1.0052338   -2.6520621   -2.6520621   -1.5770074  0.070120477   -2.6520621    1.0750548   578779 
 2217000    1.0041055   -2.6511635   -2.6511635   -1.5773154  0.066466182   -2.6511635    1.0738481   578779 
 2218000    1.0047337   -2.6519961   -2.6519961   -1.5774762  0.063289924   -2.6519961    1.0745199   578779 
 2219000     1.004517   -2.6520342   -2.6520342   -1.5777461  0.066955035   -2.6520342    1.0742882   578779 
 2220000    1.0050664    -2.651119    -2.651119   -1.5762433  0.071220977    -2.651119    1.0748757   578779 
 2221000    1.0069523   -2.6525664   -2.6525664   -1.5756738  0.062546503   -2.6525664    1.0768926   578779 
 2222000    1.0061234   -2.6528245   -2.6528245   -1.5768184  0.077331018   -2.6528245    1.0760061   578779 
 2223000    1.0065694   -2.6525278   -2.6525278   -1.5760446  0.072703321   -2.6525278    1.0764831   578779 
 2224000    1.0067384   -2.6517332   -2.6517332   -1.5750694   0.06319059   -2.6517332    1.0766638   578779 
 2225000    1.0069251   -2.6527404   -2.6527404   -1.5758769  0.077103631   -2.6527404    1.0768635   578779 
 2226000    1.0071448   -2.6533659   -2.6533659   -1.5762674    0.0706428   -2.6533659    1.0770985   578779 
 2227000    1.0071344   -2.6531835   -2.6531835   -1.5760962  0.066947834   -2.6531835    1.0770874   578779 
 2228000    1.0056889   -2.6514037   -2.6514037   -1.5758623   0.07582599   -2.6514037    1.0755414   578779 
 2229000    1.0062483   -2.6521881   -2.6521881   -1.5760483  0.062390717   -2.6521881    1.0761397   578779 
 2230000    1.0061519   -2.6521678   -2.6521678   -1.5761311  0.059591664   -2.6521678    1.0760366   578779 
 2231000    1.0057782   -2.6513128   -2.6513128   -1.5756759  0.063022523   -2.6513128     1.075637   578779 
 2232000    1.0042214    -2.649595    -2.649595   -1.5756229  0.066303522    -2.649595    1.0739721   578779 
 2233000    1.0038777   -2.6492309   -2.6492309   -1.5756264  0.062193339   -2.6492309    1.0736045   578779 
 2234000    1.0049602   -2.6514541   -2.6514541    -1.576692  0.052078238   -2.6514541    1.0747621   578779 
 2235000    1.0054151   -2.6509202   -2.6509202   -1.5756716  0.055509606   -2.6509202    1.0752486   578779 
 2236000    1.0053598   -2.6505539   -2.6505539   -1.5753644  0.065903334   -2.6505539    1.0751895   578779 
 2237000    1.0033222   -2.6485452   -2.6485452   -1.5755348  0.054058019   -2.6485452    1.0730104   578779 
 2238000     1.003339   -2.6488243   -2.6488243    -1.575796  0.067011381   -2.6488243    1.0730283   578779 
 2239000    1.0037461   -2.6486137   -2.6486137     -1.57515  0.066514826   -2.6486137    1.0734637   578779 
 2240000    1.0051739   -2.6502133   -2.6502133   -1.5752225  0.057256996   -2.6502133    1.0749907   578779 
 2241000    1.0035637   -2.6477178   -2.6477178   -1.5744491    0.0594908   -2.6477178    1.0732687   578779 
 2242000    1.0043713   -2.6489198   -2.6489198   -1.5747875   0.06475736   -2.6489198    1.0741323   578779 
 2243000    1.0056431   -2.6500945   -2.6500945    -1.574602  0.056630224   -2.6500945    1.0754925   578779 
 2244000    1.0042911   -2.6493363   -2.6493363   -1.5752896  0.077492674   -2.6493363    1.0740466   578779 
 2245000    1.0038962   -2.6480999   -2.6480999   -1.5744756  0.061652595   -2.6480999    1.0736243   578779 
 2246000    1.0049855   -2.6492886   -2.6492886   -1.5744994  0.069957474   -2.6492886    1.0747892   578779 
 2247000    1.0047484   -2.6501567   -2.6501567   -1.5756211  0.054905625   -2.6501567    1.0745356   578779 
 2248000    1.0040759   -2.6497243   -2.6497243   -1.5759078  0.061151665   -2.6497243    1.0738165   578779 
 2249000     1.004789   -2.6490908   -2.6490908   -1.5745117  0.067000083   -2.6490908     1.074579   578779 
 2250000     1.005069   -2.6499201   -2.6499201   -1.5750416  0.070943346   -2.6499201    1.0748785   578779 
 2251000    1.0053397   -2.6502752   -2.6502752   -1.5751072  0.064790743   -2.6502752     1.075168   578779 
 2252000    1.0061989   -2.6514535   -2.6514535   -1.5753667  0.066227753   -2.6514535    1.0760869   578779 
 2253000    1.0063314   -2.6509836   -2.6509836    -1.574755  0.075168472   -2.6509836    1.0762286   578779 
 2254000    1.0069244   -2.6517701   -2.6517701   -1.5749073  0.062883703   -2.6517701    1.0768628   578779 
 2255000    1.0080242   -2.6532168   -2.6532168   -1.5751778  0.069536571   -2.6532168     1.078039   578779 
 2256000    1.0067961   -2.6522947   -2.6522947   -1.5755692  0.064597706   -2.6522947    1.0767255   578779 
 2257000    1.0061872    -2.652482    -2.652482   -1.5764076  0.071671589    -2.652482    1.0760744   578779 
 2258000    1.0065707   -2.6527659   -2.6527659   -1.5762813   0.06531193   -2.6527659    1.0764846   578779 
 2259000    1.0056324   -2.6519552   -2.6519552   -1.5764742  0.066365674   -2.6519552     1.075481   578779 
 2260000    1.0059378    -2.652405    -2.652405   -1.5765973  0.067900443    -2.652405    1.0758077   578779 
 2261000     1.007073   -2.6532895   -2.6532895   -1.5762679   0.06598707   -2.6532895    1.0770217   578779 
 2262000    1.0059608   -2.6527673   -2.6527673    -1.576935  0.055033749   -2.6527673    1.0758322   578779 
 2263000    1.0063812   -2.6528557   -2.6528557   -1.5765738  0.063781086   -2.6528557    1.0762819   578779 
 2264000    1.0058976    -2.652227    -2.652227   -1.5764624   0.07697504    -2.652227    1.0757647   578779 
 2265000    1.0056041   -2.6530766   -2.6530766   -1.5776258  0.061864372   -2.6530766    1.0754508   578779 
 2266000    1.0063192   -2.6528083   -2.6528083   -1.5765927  0.072651333   -2.6528083    1.0762156   578779 
 2267000     1.006856   -2.6541534   -2.6541534   -1.5773638  0.068670109   -2.6541534    1.0767896   578779 
 2268000     1.005884   -2.6529987   -2.6529987   -1.5772486  0.059339319   -2.6529987    1.0757501   578779 
 2269000    1.0052564   -2.6524178   -2.6524178    -1.577339  0.066781396   -2.6524178    1.0750789   578779 
 2270000    1.0058149   -2.6521574   -2.6521574   -1.5764812   0.05944021   -2.6521574    1.0756762   578779 
 2271000    1.0042656   -2.6516932   -2.6516932   -1.5776739  0.064175841   -2.6516932    1.0740193   578779 
 2272000    1.0048894   -2.6531637   -2.6531637   -1.5784772  0.076172327   -2.6531637    1.0746865   578779 
 2273000    1.0051928   -2.6527464   -2.6527464   -1.5777356  0.068413445   -2.6527464    1.0750109   578779 
 2274000     1.004696   -2.6522921   -2.6522921   -1.5778125  0.075383791   -2.6522921    1.0744796   578779 
 2275000    1.0071426   -2.6544196   -2.6544196   -1.5773235  0.057475432   -2.6544196    1.0770961   578779 
 2276000    1.0080587   -2.6553232   -2.6553232   -1.5772474  0.066936222   -2.6553232    1.0780759   578779 
 2277000    1.0052016   -2.6520212   -2.6520212   -1.5770008  0.069819196   -2.6520212    1.0750204   578779 
 2278000    1.0047929   -2.6514145   -2.6514145   -1.5768312  0.062492245   -2.6514145    1.0745833   578779 
 2279000    1.0044381   -2.6521688   -2.6521688    -1.577965  0.071606562   -2.6521688    1.0742038   578779 
 2280000    1.0054375   -2.6527079   -2.6527079   -1.5774353  0.074888982   -2.6527079    1.0752726   578779 
 2281000    1.0051434   -2.6525317   -2.6525317   -1.5775737  0.064392637   -2.6525317     1.074958   578779 
 2282000    1.0040839    -2.650838    -2.650838   -1.5770131  0.078130084    -2.650838     1.073825   578779 
 2283000    1.0068987   -2.6546496   -2.6546496   -1.5778143  0.057751967   -2.6546496    1.0768353   578779 
 2284000    1.0064971    -2.653325    -2.653325   -1.5769191  0.057842641    -2.653325    1.0764058   578779 
 2285000    1.0053809    -2.652116    -2.652116   -1.5769039  0.081440191    -2.652116    1.0752121   578779 
 2286000    1.0065426   -2.6533452   -2.6533452   -1.5768908  0.067639492   -2.6533452    1.0764545   578779 
 2287000    1.0070537    -2.652898    -2.652898    -1.575897  0.072530755    -2.652898     1.077001   578779 
 2288000    1.0080565   -2.6528991   -2.6528991   -1.5748256   0.06635314   -2.6528991    1.0780735   578779 
 2289000    1.0072941   -2.6524358   -2.6524358   -1.5751776  0.069159518   -2.6524358    1.0772582   578779 
 2290000    1.0080801   -2.6531044   -2.6531044   -1.5750056  0.065614108   -2.6531044    1.0780988   578779 
 2291000    1.0059748   -2.6499749   -2.6499749   -1.5741277  0.075441761   -2.6499749    1.0758472   578779 
 2292000    1.0061358   -2.6506097   -2.6506097   -1.5745902  0.072816427   -2.6506097    1.0760195   578779 
 2293000    1.0057617   -2.6499642   -2.6499642    -1.574345  0.073324675   -2.6499642    1.0756193   578779 
 2294000    1.0050586    -2.650032    -2.650032   -1.5751646  0.071992963    -2.650032    1.0748674   578779 
 2295000    1.0034007   -2.6476248   -2.6476248   -1.5745305   0.06593607   -2.6476248    1.0730943   578779 
 2296000    1.0067215    -2.650134    -2.650134   -1.5734882  0.074796168    -2.650134    1.0766458   578779 
 2297000    1.0056483   -2.6491444   -2.6491444   -1.5736463  0.061850988   -2.6491444    1.0754981   578779 
 2298000    1.0075764   -2.6503165   -2.6503165   -1.5727564  0.057571165   -2.6503165      1.07756   578779 
 2299000    1.0051781   -2.6494127   -2.6494127   -1.5744175  0.063304794   -2.6494127    1.0749952   578779 
 2300000    1.0042483   -2.6479268   -2.6479268    -1.573926  0.056692317   -2.6479268    1.0740008   578779 
 2301000    1.0041938   -2.6479316   -2.6479316   -1.5739891  0.063560007   -2.6479316    1.0739425   578779 
 2302000    1.0037123   -2.6466586   -2.6466586    -1.573231  0.072824363   -2.6466586    1.0734276   578779 
 2303000    1.0043376   -2.6469735   -2.6469735   -1.5728772  0.060367906   -2.6469735    1.0740963   578779 
 2304000    1.0049583    -2.647339    -2.647339   -1.5725788  0.056830978    -2.647339    1.0747601   578779 
 2305000    1.0056916   -2.6476168   -2.6476168   -1.5720725  0.064872328   -2.6476168    1.0755443   578779 
 2306000    1.0053106    -2.647262    -2.647262   -1.5721252  0.069562689    -2.647262    1.0751368   578779 
 2307000    1.0065062   -2.6487809   -2.6487809   -1.5723653  0.056922966   -2.6487809    1.0764155   578779 
 2308000    1.0029285   -2.6452397   -2.6452397   -1.5726503  0.064338026   -2.6452397    1.0725894   578779 
 2309000    1.0054851   -2.6489828   -2.6489828   -1.5736593  0.061422252   -2.6489828    1.0753235   578779 
 2310000    1.0070114    -2.650429    -2.650429   -1.5734732  0.071444891    -2.650429    1.0769558   578779 
 2311000    1.0075886   -2.6509551   -2.6509551    -1.573382  0.068886564   -2.6509551    1.0775731   578779 
 2312000    1.0054865   -2.6491325   -2.6491325   -1.5738075  0.068455981   -2.6491325     1.075325   578779 
 2313000    1.0047956   -2.6499585   -2.6499585   -1.5753724   0.07204362   -2.6499585    1.0745861   578779 
 2314000    1.0062678     -2.65181     -2.65181   -1.5756495  0.062469879     -2.65181    1.0761605   578779 
 2315000    1.0069987   -2.6523871   -2.6523871   -1.5754448  0.075443172   -2.6523871    1.0769423   578779 
 2316000    1.0073128   -2.6517233   -2.6517233   -1.5744451  0.069685568   -2.6517233    1.0772782   578779 
 2317000    1.0051583   -2.6510774   -2.6510774   -1.5761034    0.0712451   -2.6510774     1.074974   578779 
 2318000    1.0066853   -2.6523167   -2.6523167   -1.5757097  0.072454726   -2.6523167     1.076607   578779 
 2319000    1.0080456    -2.653172    -2.653172   -1.5751101  0.063478399    -2.653172    1.0780619   578779 
 2320000    1.0072401   -2.6526859   -2.6526859   -1.5754854  0.062014367   -2.6526859    1.0772004   578779 
 2321000    1.0066723   -2.6522431   -2.6522431   -1.5756499  0.068986414   -2.6522431    1.0765932   578779 
 2322000     1.006779   -2.6525999   -2.6525999   -1.5758925  0.064299032   -2.6525999    1.0767073   578779 
 2323000    1.0052424   -2.6519569   -2.6519569    -1.576893  0.079574194   -2.6519569    1.0750639   578779 
 2324000    1.0059057   -2.6523263   -2.6523263   -1.5765529  0.069256382   -2.6523263    1.0757734   578779 
 2325000    1.0053624   -2.6514637   -2.6514637   -1.5762714  0.071213901   -2.6514637    1.0751923   578779 
 2326000    1.0052293   -2.6516813   -2.6516813   -1.5766314   0.06716527   -2.6516813    1.0750499   578779 
 2327000    1.0060531   -2.6522492   -2.6522492   -1.5763183  0.067110728   -2.6522492    1.0759309   578779 
 2328000    1.0045124   -2.6510375   -2.6510375   -1.5767543  0.056440174   -2.6510375    1.0742832   578779 
 2329000    1.0051212   -2.6519144   -2.6519144   -1.5769801  0.067489362   -2.6519144    1.0749344   578779 
 2330000     1.004319   -2.6506511   -2.6506511   -1.5765747  0.072782542   -2.6506511    1.0740764   578779 
 2331000    1.0052166   -2.6516269   -2.6516269   -1.5765906  0.050499981   -2.6516269    1.0750364   578779 
 2332000    1.0050324    -2.651515    -2.651515   -1.5766756  0.062662519    -2.651515    1.0748394   578779 
 2333000    1.0039817   -2.6505962   -2.6505962   -1.5768806  0.068468174   -2.6505962    1.0737157   578779 
 2334000    1.0049759   -2.6517979   -2.6517979   -1.5770189  0.063593355   -2.6517979    1.0747789   578779 
 2335000    1.0046619      -2.6521      -2.6521   -1.5776569  0.057808269      -2.6521    1.0744431   578779 
 2336000    1.0044511   -2.6511678   -2.6511678   -1.5769501  0.062758711   -2.6511678    1.0742177   578779 
 2337000    1.0042487   -2.6514936   -2.6514936   -1.5774924  0.064168535   -2.6514936    1.0740012   578779 
 2338000    1.0038506   -2.6507073   -2.6507073   -1.5771319  0.072311814   -2.6507073    1.0735754   578779 
 2339000    1.0051223   -2.6532631   -2.6532631   -1.5783277   0.05993663   -2.6532631    1.0749355   578779 
 2340000    1.0032002   -2.6505546   -2.6505546   -1.5776747  0.059995734   -2.6505546    1.0728799   578779 
 2341000    1.0043299   -2.6515619   -2.6515619   -1.5774738  0.070179707   -2.6515619    1.0740881   578779 
 2342000    1.0054899   -2.6526797   -2.6526797   -1.5773511  0.058210024   -2.6526797    1.0753287   578779 
 2343000    1.0068839   -2.6534236   -2.6534236   -1.5766042  0.062251732   -2.6534236    1.0768194   578779 
 2344000     1.006457    -2.652091    -2.652091   -1.5757281  0.058358831    -2.652091    1.0763629   578779 
 2345000    1.0063312   -2.6519298   -2.6519298   -1.5757014  0.067346943   -2.6519298    1.0762283   578779 
 2346000    1.0065911   -2.6522286   -2.6522286   -1.5757222  0.066743869   -2.6522286    1.0765063   578779 
 2347000     1.007203   -2.6519267   -2.6519267    -1.574766   0.07595528   -2.6519267    1.0771607   578779 
 2348000    1.0062512   -2.6514434   -2.6514434   -1.5753006  0.072574998   -2.6514434    1.0761428   578779 
 2349000    1.0079087   -2.6535914   -2.6535914   -1.5756759  0.075998871   -2.6535914    1.0779155   578779 
 2350000     1.007527   -2.6527427   -2.6527427   -1.5752355  0.066776089   -2.6527427    1.0775072   578779 
 2351000    1.0074615   -2.6507218   -2.6507218   -1.5732846   0.06130804   -2.6507218    1.0774372   578779 
 2352000    1.0066556   -2.6513112   -2.6513112   -1.5747359  0.054158974   -2.6513112    1.0765753   578779 
 2353000    1.0063041   -2.6513534   -2.6513534   -1.5751541  0.074422757   -2.6513534    1.0761994   578779 
 2354000    1.0035401   -2.6502468   -2.6502468   -1.5770034  0.070071984   -2.6502468    1.0732434   578779 
 2355000    1.0058846   -2.6516144   -2.6516144   -1.5758637  0.076988592   -2.6516144    1.0757507   578779 
 2356000    1.0057483   -2.6521169   -2.6521169   -1.5765119  0.059042877   -2.6521169     1.075605   578779 
 2357000     1.003335   -2.6499161   -2.6499161   -1.5768921  0.060943174   -2.6499161     1.073024   578779 
 2358000    1.0040045   -2.6503744   -2.6503744   -1.5766343  0.058949388   -2.6503744    1.0737401   578779 
 2359000    1.0033231   -2.6501983   -2.6501983    -1.577187  0.055677511   -2.6501983    1.0730114   578779 
 2360000    1.0047959    -2.651444    -2.651444   -1.5768575  0.052084235    -2.651444    1.0745865   578779 
 2361000    1.0048691   -2.6508124   -2.6508124   -1.5761478  0.063867154   -2.6508124    1.0746647   578779 
 2362000    1.0039861   -2.6501984   -2.6501984    -1.576478  0.067954791   -2.6501984    1.0737204   578779 
 2363000    1.0051669   -2.6515508   -2.6515508   -1.5765676  0.056660888   -2.6515508    1.0749832   578779 
 2364000    1.0054501   -2.6509519   -2.6509519   -1.5756658  0.065815318   -2.6509519    1.0752861   578779 
 2365000    1.0056903    -2.651099    -2.651099   -1.5755561  0.067260533    -2.651099     1.075543   578779 
 2366000    1.0063318    -2.652389    -2.652389     -1.57616  0.065017374    -2.652389     1.076229   578779 
 2367000    1.0046818   -2.6503544   -2.6503544   -1.5758899  0.068896404   -2.6503544    1.0744644   578779 
 2368000    1.0050675   -2.6505042   -2.6505042   -1.5756274  0.074654304   -2.6505042    1.0748769   578779 
 2369000     1.006976   -2.6522004   -2.6522004   -1.5752825  0.065486094   -2.6522004    1.0769179   578779 
 2370000    1.0065298   -2.6514932   -2.6514932   -1.5750524   0.06000337   -2.6514932    1.0764408   578779 
 2371000    1.0061593   -2.6520152   -2.6520152   -1.5759706  0.070977229   -2.6520152    1.0760446   578779 
 2372000    1.0054002   -2.6516048   -2.6516048   -1.5763721  0.075734719   -2.6516048    1.0752328   578779 
 2373000    1.0065745   -2.6524499   -2.6524499   -1.5759613  0.062236367   -2.6524499    1.0764886   578779 
 2374000    1.0058059   -2.6516183   -2.6516183   -1.5759517  0.078745103   -2.6516183    1.0756666   578779 
 2375000    1.0058775   -2.6510557   -2.6510557   -1.5753125  0.072855644   -2.6510557    1.0757431   578779 
 2376000     1.005321   -2.6511141   -2.6511141   -1.5759661  0.077549004   -2.6511141     1.075148   578779 
 2377000    1.0059833    -2.651309    -2.651309   -1.5754527  0.062182557    -2.651309    1.0758563   578779 
 2378000     1.006267   -2.6517261   -2.6517261   -1.5755664  0.066477681   -2.6517261    1.0761597   578779 
 2379000    1.0062881   -2.6506359   -2.6506359   -1.5744536  0.078425623   -2.6506359    1.0761823   578779 
 2380000    1.0069139   -2.6511057   -2.6511057   -1.5742542  0.075604943   -2.6511057    1.0768515   578779 
 2381000    1.0053849   -2.6513815   -2.6513815   -1.5761651  0.068480624   -2.6513815    1.0752163   578779 
 2382000    1.0039457   -2.6499224   -2.6499224   -1.5762452  0.074880601   -2.6499224    1.0736772   578779 
 2383000    1.0035437   -2.6498069   -2.6498069   -1.5765596  0.056208485   -2.6498069    1.0732473   578779 
 2384000    1.0065091   -2.6530293   -2.6530293   -1.5766107  0.071343281   -2.6530293    1.0764186   578779 
 2385000    1.0052951   -2.6514114   -2.6514114   -1.5762911  0.073037212   -2.6514114    1.0751203   578779 
 2386000    1.0054339    -2.651991    -2.651991   -1.5767222  0.072920895    -2.651991    1.0752687   578779 
 2387000    1.0042466   -2.6513882   -2.6513882   -1.5773892  0.057879388   -2.6513882     1.073999   578779 
 2388000    1.0059506   -2.6518998   -2.6518998   -1.5760785  0.056990172   -2.6518998    1.0758214   578779 
 2389000    1.0039795   -2.6496879   -2.6496879   -1.5759746  0.068674616   -2.6496879    1.0737133   578779 
 2390000     1.005608   -2.6517396   -2.6517396   -1.5762847  0.074279061   -2.6517396    1.0754549   578779 
 2391000    1.0057696   -2.6510975   -2.6510975   -1.5754698  0.065790441   -2.6510975    1.0756277   578779 
 2392000    1.0042167   -2.6496292   -2.6496292   -1.5756623  0.062990374   -2.6496292     1.073967   578779 
 2393000    1.0046679   -2.6510195   -2.6510195     -1.57657   0.05972615   -2.6510195    1.0744495   578779 
 2394000     1.002484   -2.6488619   -2.6488619    -1.576748  0.074245263   -2.6488619    1.0721139   578779 
 2395000    1.0046495   -2.6514983   -2.6514983   -1.5770685  0.057141242   -2.6514983    1.0744298   578779 
 2396000    1.0046827   -2.6520752   -2.6520752   -1.5776099  0.055794843   -2.6520752    1.0744654   578779 
 2397000    1.0041588   -2.6515131   -2.6515131   -1.5776081  0.059407907   -2.6515131    1.0739051   578779 
 2398000    1.0056786    -2.653753    -2.653753   -1.5782226  0.064529729    -2.653753    1.0755304   578779 
 2399000    1.0051201   -2.6528955   -2.6528955   -1.5779623   0.06482592   -2.6528955    1.0749332   578779 
 2400000    1.0037975   -2.6513637   -2.6513637   -1.5778451  0.066447036   -2.6513637    1.0735186   578779 
 2401000    1.0036429   -2.6515881   -2.6515881   -1.5782347  0.067015958   -2.6515881    1.0733534   578779 
 2402000    1.0046679   -2.6532912   -2.6532912   -1.5788416  0.064460703   -2.6532912    1.0744496   578779 
 2403000    1.0051143   -2.6530973   -2.6530973   -1.5781703  0.068433198   -2.6530973     1.074927   578779 
 2404000    1.0067769   -2.6549436   -2.6549436   -1.5782386  0.058179491   -2.6549436     1.076705   578779 
 2405000    1.0061265   -2.6550925   -2.6550925    -1.579083  0.072235657   -2.6550925    1.0760095   578779 
 2406000    1.0075814   -2.6556564   -2.6556564    -1.578091  0.068090684   -2.6556564    1.0775654   578779 
 2407000     1.007299   -2.6554232   -2.6554232   -1.5781598  0.064245358   -2.6554232    1.0772634   578779 
 2408000    1.0065757   -2.6549337   -2.6549337   -1.5784438  0.076635839   -2.6549337    1.0764899   578779 
 2409000    1.0057435   -2.6532395   -2.6532395   -1.5776396  0.066482554   -2.6532395    1.0755999   578779 
 2410000    1.0054387   -2.6533805   -2.6533805   -1.5781066  0.079374504   -2.6533805    1.0752739   578779 
 2411000    1.0029186   -2.6509532   -2.6509532   -1.5783745  0.066092693   -2.6509532    1.0725787   578779 
 2412000     1.005161     -2.65394     -2.65394   -1.5789632  0.062954049     -2.65394    1.0749769   578779 
 2413000     1.004942   -2.6539906   -2.6539906   -1.5792479  0.067350059   -2.6539906    1.0747427   578779 
 2414000    1.0038423   -2.6521504   -2.6521504   -1.5785838  0.068188281   -2.6521504    1.0735666   578779 
 2415000    1.0049398   -2.6532064   -2.6532064    -1.578466  0.070080295   -2.6532064    1.0747404   578779 
 2416000    1.0041009   -2.6516582   -2.6516582    -1.577815  0.061092181   -2.6516582    1.0738432   578779 
 2417000    1.0045335   -2.6515894   -2.6515894   -1.5772836  0.071995833   -2.6515894    1.0743058   578779 
 2418000    1.0047989   -2.6516663   -2.6516663   -1.5770766   0.06993699   -2.6516663    1.0745896   578779 
 2419000    1.0059824   -2.6532796   -2.6532796   -1.5774242  0.063221923   -2.6532796    1.0758553   578779 
 2420000    1.0067481   -2.6538143   -2.6538143     -1.57714  0.064962613   -2.6538143    1.0766743   578779 
 2421000    1.0053587   -2.6533371   -2.6533371   -1.5781487   0.06462294   -2.6533371    1.0751883   578779 
 2422000    1.0042921   -2.6523027   -2.6523027   -1.5782551  0.071672673   -2.6523027    1.0740476   578779 
 2423000    1.0059298    -2.653472    -2.653472   -1.5776729  0.057758148    -2.653472    1.0757991   578779 
 2424000    1.0047449   -2.6525906   -2.6525906   -1.5780587  0.069374099   -2.6525906    1.0745319   578779 
 2425000    1.0048794   -2.6517769   -2.6517769   -1.5771012  0.071353166   -2.6517769    1.0746757   578779 
 2426000    1.0049633   -2.6525932   -2.6525932   -1.5778277   0.05622444   -2.6525932    1.0747655   578779 
 2427000    1.0051326   -2.6519231   -2.6519231   -1.5769766  0.068203843   -2.6519231    1.0749465   578779 
 2428000    1.0054469   -2.6518302   -2.6518302   -1.5765476  0.071468464   -2.6518302    1.0752826   578779 
 2429000    1.0040933   -2.6497572   -2.6497572   -1.5759222  0.076925496   -2.6497572     1.073835   578779 
 2430000    1.0058367   -2.6512932   -2.6512932   -1.5755937   0.07190714   -2.6512932    1.0756995   578779 
 2431000    1.0059205   -2.6516446   -2.6516446   -1.5758554   0.06877094   -2.6516446    1.0757892   578779 
 2432000    1.0044502   -2.6504611   -2.6504611   -1.5762443  0.071406222   -2.6504611    1.0742168   578779 
 2433000    1.0038632   -2.6500738   -2.6500738   -1.5764848  0.066285547   -2.6500738    1.0735889   578779 
 2434000    1.0041135   -2.6507594   -2.6507594   -1.5769027   0.06289931   -2.6507594    1.0738566   578779 
 2435000    1.0041109   -2.6501153   -2.6501153   -1.5762615  0.065400288   -2.6501153    1.0738539   578779 
 2436000     1.005553   -2.6518005   -2.6518005   -1.5764044   0.06984812   -2.6518005    1.0753961   578779 
 2437000    1.0045533   -2.6498987   -2.6498987   -1.5755717  0.055299854   -2.6498987     1.074327   578779 
 2438000    1.0038031   -2.6487833   -2.6487833   -1.5752587  0.059702743   -2.6487833    1.0735247   578779 
 2439000     1.003753   -2.6489606   -2.6489606   -1.5754895  0.064162905   -2.6489606    1.0734711   578779 
 2440000    1.0050568   -2.6503928   -2.6503928   -1.5755273  0.059360144   -2.6503928    1.0748654   578779 
 2441000     1.004699   -2.6505487   -2.6505487   -1.5760659  0.067479655   -2.6505487    1.0744828   578779 
 2442000    1.0046176   -2.6499769   -2.6499769   -1.5755811  0.059358109   -2.6499769    1.0743958   578779 
 2443000    1.0034949   -2.6496227   -2.6496227   -1.5764276  0.080441332   -2.6496227    1.0731951   578779 
 2444000    1.0048832   -2.6504979   -2.6504979    -1.575818   0.05995905   -2.6504979    1.0746798   578779 
 2445000    1.0041062    -2.650368    -2.650368   -1.5765192  0.073852876    -2.650368    1.0738488   578779 
 2446000    1.0051197   -2.6514455   -2.6514455   -1.5765128  0.067884968   -2.6514455    1.0749327   578779 
 2447000    1.0051413   -2.6507678   -2.6507678    -1.575812  0.061791121   -2.6507678    1.0749559   578779 
 2448000    1.0058445   -2.6511142   -2.6511142   -1.5754064  0.066882141   -2.6511142    1.0757078   578779 
 2449000    1.0062248   -2.6510764   -2.6510764   -1.5749618  0.070330078   -2.6510764    1.0761146   578779 
 2450000    1.0050684   -2.6505953   -2.6505953   -1.5757174  0.059877645   -2.6505953    1.0748779   578779 
 2451000    1.0059485   -2.6514527   -2.6514527   -1.5756336  0.065922242   -2.6514527    1.0758191   578779 
 2452000    1.0067988   -2.6523889   -2.6523889   -1.5756605  0.078835467   -2.6523889    1.0767285   578779 
 2453000    1.0063929   -2.6525836   -2.6525836   -1.5762892  0.065519822   -2.6525836    1.0762944   578779 
 2454000    1.0056874   -2.6518563   -2.6518563   -1.5763164  0.062320478   -2.6518563    1.0755399   578779 
 2455000    1.0052132   -2.6520806   -2.6520806   -1.5770479  0.065710524   -2.6520806    1.0750327   578779 
 2456000    1.0049158   -2.6518742   -2.6518742   -1.5771595  0.068695464   -2.6518742    1.0747146   578779 
 2457000    1.0053752   -2.6530452   -2.6530452   -1.5778392  0.061731255   -2.6530452     1.075206   578779 
 2458000     1.006338   -2.6539951   -2.6539951   -1.5777594  0.050719685   -2.6539951    1.0762357   578779 
 2459000    1.0069272   -2.6544436   -2.6544436   -1.5775778  0.071508527   -2.6544436    1.0768658   578779 
 2460000    1.0058583   -2.6536271   -2.6536271   -1.5779045   0.05827541   -2.6536271    1.0757226   578779 
 2461000    1.0052477   -2.6530096   -2.6530096     -1.57794  0.073234509   -2.6530096    1.0750696   578779 
 2462000    1.0062314   -2.6535006   -2.6535006   -1.5773789  0.076747975   -2.6535006    1.0761217   578779 
 2463000    1.0060669   -2.6529764   -2.6529764   -1.5770306  0.060702285   -2.6529764    1.0759457   578779 
 2464000    1.0074423   -2.6547514   -2.6547514   -1.5773347  0.066396022   -2.6547514    1.0774167   578779 
 2465000    1.0061201   -2.6538944   -2.6538944   -1.5778918    0.0635855   -2.6538944    1.0760026   578779 
 2466000    1.0052642   -2.6523904   -2.6523904   -1.5773031  0.069067701   -2.6523904    1.0750873   578779 
 2467000    1.0045054   -2.6512468   -2.6512468    -1.576971  0.064318183   -2.6512468    1.0742758   578779 
 2468000    1.0068936   -2.6541882   -2.6541882   -1.5773584  0.069833935   -2.6541882    1.0768298   578779 
 2469000    1.0056963   -2.6525616   -2.6525616   -1.5770122  0.065042717   -2.6525616    1.0755494   578779 
 2470000    1.0045926   -2.6523182   -2.6523182   -1.5779492  0.069024395   -2.6523182     1.074369   578779 
 2471000    1.0036399   -2.6507671   -2.6507671    -1.577417  0.060803011   -2.6507671    1.0733501   578779 
 2472000    1.0018759   -2.6486657   -2.6486657   -1.5772021  0.065550232   -2.6486657    1.0714636   578779 
 2473000    1.0041423   -2.6512035   -2.6512035   -1.5773161  0.077043966   -2.6512035    1.0738875   578779 
 2474000    1.0039243   -2.6509177   -2.6509177   -1.5772634   0.06111195   -2.6509177    1.0736543   578779 
 2475000    1.0030719   -2.6490402   -2.6490402   -1.5762975  0.066023286   -2.6490402    1.0727427   578779 
 2476000    1.0028997   -2.6492955   -2.6492955   -1.5767369  0.054875312   -2.6492955    1.0725586   578779 
 2477000    1.0029922   -2.6492147   -2.6492147   -1.5765573  0.070425245   -2.6492147    1.0726574   578779 
 2478000    1.0039099   -2.6493604   -2.6493604   -1.5757215  0.072637755   -2.6493604    1.0736389   578779 
 2479000    1.0028725   -2.6486327   -2.6486327   -1.5761033  0.060390529   -2.6486327    1.0725294   578779 
 2480000     1.003888   -2.6503384   -2.6503384   -1.5767229  0.075735638   -2.6503384    1.0736155   578779 
 2481000    1.0038655   -2.6500675   -2.6500675   -1.5764761  0.060707752   -2.6500675    1.0735914   578779 
 2482000    1.0040519   -2.6504101   -2.6504101   -1.5766193   0.04747419   -2.6504101    1.0737908   578779 
 2483000    1.0033493   -2.6494669   -2.6494669   -1.5764276  0.057314751   -2.6494669    1.0730393   578779 
 2484000    1.0041319   -2.6494424   -2.6494424   -1.5755661    0.0584046   -2.6494424    1.0738763   578779 
 2485000    1.0045429   -2.6495646   -2.6495646   -1.5752487  0.070612033   -2.6495646    1.0743159   578779 
 2486000    1.0046289   -2.6499078   -2.6499078   -1.5754999   0.06389655   -2.6499078    1.0744079   578779 
 2487000    1.0050894   -2.6509471   -2.6509471   -1.5760468  0.064559034   -2.6509471    1.0749003   578779 
 2488000    1.0052947    -2.651115    -2.651115   -1.5759951  0.072584985    -2.651115    1.0751199   578779 
 2489000    1.0074394   -2.6528219   -2.6528219   -1.5754083  0.063680087   -2.6528219    1.0774135   578779 
 2490000    1.0055857   -2.6503547   -2.6503547   -1.5749236  0.058578175   -2.6503547    1.0754311   578779 
 2491000    1.0079676   -2.6528139   -2.6528139   -1.5748355  0.056935539   -2.6528139    1.0779784   578779 
 2492000    1.0059993   -2.6515412   -2.6515412   -1.5756678  0.062272245   -2.6515412    1.0758734   578779 
 2493000    1.0058624   -2.6517477   -2.6517477   -1.5760208   0.06488275   -2.6517477     1.075727   578779 
 2494000    1.0068394   -2.6524444   -2.6524444   -1.5756726  0.071584565   -2.6524444    1.0767719   578779 
 2495000    1.0068274   -2.6528025   -2.6528025   -1.5760434  0.063204791   -2.6528025     1.076759   578779 
 2496000    1.0068721   -2.6537477   -2.6537477   -1.5769409  0.062862362   -2.6537477    1.0768068   578779 
 2497000    1.0070176   -2.6527016   -2.6527016   -1.5757391  0.075642451   -2.6527016    1.0769625   578779 
 2498000    1.0043952   -2.6495576   -2.6495576   -1.5753996  0.079003308   -2.6495576    1.0741579   578779 
 2499000    1.0052309   -2.6507171   -2.6507171   -1.5756654  0.069555482   -2.6507171    1.0750517   578779 
 2500000     1.004606   -2.6508185   -2.6508185   -1.5764351  0.065705509   -2.6508185    1.0743834   578779 
 2501000    1.0072439   -2.6535361   -2.6535361   -1.5763317  0.062760553   -2.6535361    1.0772044   578779 
 2502000    1.0057451   -2.6509489   -2.6509489   -1.5753473  0.055116048   -2.6509489    1.0756016   578779 
 2503000    1.0075825   -2.6531125   -2.6531125   -1.5755459  0.070721156   -2.6531125    1.0775666   578779 
 2504000    1.0072178   -2.6532089   -2.6532089   -1.5760323  0.068099326   -2.6532089    1.0771766   578779 
 2505000    1.0051655   -2.6512086   -2.6512086   -1.5762269   0.07535879   -2.6512086    1.0749817   578779 
 2506000    1.0041969   -2.6497591   -2.6497591   -1.5758133  0.053869313   -2.6497591    1.0739459   578779 
 2507000    1.0043753   -2.6504835   -2.6504835   -1.5763468  0.064125607   -2.6504835    1.0741366   578779 
 2508000    1.0029883   -2.6492189   -2.6492189   -1.5765656  0.080419412   -2.6492189    1.0726532   578779 
 2509000     1.005921   -2.6523954   -2.6523954   -1.5766057  0.067226815   -2.6523954    1.0757897   578779 
 2510000    1.0046349   -2.6497473   -2.6497473   -1.5753331  0.075885719   -2.6497473    1.0744142   578779 
 2511000    1.0056029   -2.6503686   -2.6503686   -1.5749191  0.068494142   -2.6503686    1.0754495   578779 
 2512000    1.0048377   -2.6494832   -2.6494832   -1.5748521  0.060300923   -2.6494832    1.0746311   578779 
 2513000    1.0047408   -2.6491698   -2.6491698   -1.5746422  0.063525505   -2.6491698    1.0745275   578779 
 2514000    1.0057262   -2.6498809   -2.6498809   -1.5742995  0.063231169   -2.6498809    1.0755814   578779 
 2515000    1.0044807   -2.6482624   -2.6482624    -1.574013  0.067485356   -2.6482624    1.0742494   578779 
 2516000    1.0062858   -2.6499934   -2.6499934   -1.5738135   0.06814664   -2.6499934    1.0761799   578779 
 2517000    1.0061113   -2.6497828   -2.6497828   -1.5737895  0.066238243   -2.6497828    1.0759933   578779 
 2518000    1.0066844   -2.6506784   -2.6506784   -1.5740723  0.063505289   -2.6506784    1.0766062   578779 
 2519000    1.0061281   -2.6500887   -2.6500887   -1.5740775  0.061539799   -2.6500887    1.0760111   578779 
 2520000    1.0073142   -2.6521699   -2.6521699   -1.5748903  0.055871535   -2.6521699    1.0772796   578779 
 2521000    1.0042856   -2.6491246   -2.6491246   -1.5750839  0.051647288   -2.6491246    1.0740407   578779 
 2522000     1.004733   -2.6500887   -2.6500887   -1.5755696  0.057026001   -2.6500887    1.0745192   578779 
 2523000    1.0044316   -2.6496825   -2.6496825   -1.5754856  0.061242733   -2.6496825    1.0741968   578779 
 2524000    1.0053516   -2.6508399   -2.6508399   -1.5756591  0.060978257   -2.6508399    1.0751807   578779 
 2525000    1.0033548   -2.6486048   -2.6486048   -1.5755596  0.063918481   -2.6486048    1.0730453   578779 
 2526000    1.0035461   -2.6495048   -2.6495048   -1.5762549  0.054458332   -2.6495048    1.0732499   578779 
 2527000    1.0029667   -2.6486315   -2.6486315   -1.5760014   0.06128439   -2.6486315    1.0726301   578779 
 2528000     1.006045   -2.6505482   -2.6505482   -1.5746259  0.071566037   -2.6505482    1.0759223   578779 
 2529000    1.0066204   -2.6513871   -2.6513871   -1.5748494  0.059390134   -2.6513871    1.0765377   578779 
 2530000     1.005421   -2.6501089   -2.6501089   -1.5748539  0.069237198   -2.6501089     1.075255   578779 
 2531000    1.0063925    -2.651301    -2.651301   -1.5750071  0.062430021    -2.651301    1.0762939   578779 
 2532000    1.0069061   -2.6519343   -2.6519343   -1.5750911  0.058225577   -2.6519343    1.0768432   578779 
 2533000    1.0071275   -2.6521899   -2.6521899   -1.5751099  0.066705875   -2.6521899    1.0770799   578779 
 2534000    1.0078658    -2.652797    -2.652797   -1.5749275  0.064776709    -2.652797    1.0778695   578779 
 2535000    1.0066622   -2.6511169   -2.6511169   -1.5745346  0.072413942   -2.6511169    1.0765824   578779 
 2536000    1.0075904   -2.6522218   -2.6522218   -1.5746467   0.07187436   -2.6522218    1.0775751   578779 
 2537000    1.0084488   -2.6528412   -2.6528412   -1.5743482  0.072799533   -2.6528412     1.078493   578779 
 2538000    1.0057746   -2.6505015   -2.6505015   -1.5748683  0.060692395   -2.6505015    1.0756331   578779 
 2539000    1.0071491   -2.6510325   -2.6510325   -1.5739293   0.06449038   -2.6510325    1.0771031   578779 
 2540000    1.0051183   -2.6499078   -2.6499078   -1.5749766  0.075195251   -2.6499078    1.0749312   578779 
 2541000    1.0061633   -2.6501114   -2.6501114   -1.5740626  0.072231957   -2.6501114    1.0760488   578779 
 2542000    1.0069187   -2.6513984   -2.6513984   -1.5745417  0.070360216   -2.6513984    1.0768567   578779 
 2543000    1.0040926   -2.6500232   -2.6500232   -1.5761889  0.084251391   -2.6500232    1.0738343   578779 
 2544000    1.0044718   -2.6499904   -2.6499904   -1.5757506  0.062252476   -2.6499904    1.0742399   578779 
 2545000    1.0040962   -2.6495364   -2.6495364   -1.5756983  0.062119349   -2.6495364    1.0738382   578779 
 2546000    1.0033896   -2.6497066   -2.6497066   -1.5766241  0.066787009   -2.6497066    1.0730825   578779 
 2547000     1.004825   -2.6517108   -2.6517108   -1.5770932  0.064437614   -2.6517108    1.0746176   578779 
 2548000    1.0039427   -2.6499605   -2.6499605   -1.5762865  0.063168582   -2.6499605     1.073674   578779 
 2549000    1.0035204   -2.6492327   -2.6492327   -1.5760104  0.074259749   -2.6492327    1.0732224   578779 
 2550000    1.0039882    -2.649997    -2.649997   -1.5762744  0.060928998    -2.649997    1.0737226   578779 
 2551000     1.003192   -2.6486571   -2.6486571   -1.5757859  0.056249293   -2.6486571    1.0728711   578779 
 2552000    1.0045613   -2.6494807   -2.6494807   -1.5751451  0.059706378   -2.6494807    1.0743356   578779 
 2553000    1.0050827   -2.6497466   -2.6497466   -1.5748534  0.057520006   -2.6497466    1.0748931   578779 
 2554000    1.0052431   -2.6497634   -2.6497634   -1.5746987  0.054290605   -2.6497634    1.0750647   578779 
 2555000    1.0048497   -2.6498369   -2.6498369   -1.5751929  0.053124476   -2.6498369     1.074644   578779 
 2556000    1.0053019   -2.6495727   -2.6495727   -1.5744451  0.067515164   -2.6495727    1.0751275   578779 
 2557000    1.0033088   -2.6485258   -2.6485258   -1.5755297  0.064101898   -2.6485258    1.0729961   578779 
 2558000    1.0046528   -2.6491702   -2.6491702   -1.5747368  0.063651102   -2.6491702    1.0744334   578779 
 2559000    1.0052856   -2.6500567   -2.6500567   -1.5749465  0.062947418   -2.6500567    1.0751102   578779 
 2560000    1.0045779    -2.648901    -2.648901   -1.5745477  0.064325838    -2.648901    1.0743533   578779 
 2561000    1.0042737   -2.6486267   -2.6486267   -1.5745988  0.062277647   -2.6486267     1.074028   578779 
 2562000    1.0050052   -2.6501095   -2.6501095   -1.5752992  0.070801115   -2.6501095    1.0748103   578779 
 2563000    1.0067242   -2.6519907   -2.6519907    -1.575342  0.067087709   -2.6519907    1.0766487   578779 
 2564000    1.0053648   -2.6505127   -2.6505127   -1.5753178  0.066807927   -2.6505127    1.0751949   578779 
 2565000    1.0055538   -2.6506517   -2.6506517   -1.5752548  0.058561942   -2.6506517     1.075397   578779 
 2566000    1.0076378   -2.6532506   -2.6532506   -1.5756248   0.06614777   -2.6532506    1.0776257   578779 
 2567000    1.0064602   -2.6518454   -2.6518454   -1.5754791  0.077406005   -2.6518454    1.0763663   578779 
 2568000    1.0038852   -2.6489063   -2.6489063   -1.5752939  0.063956996   -2.6489063    1.0736125   578779 
 2569000    1.0055429   -2.6510632   -2.6510632   -1.5756779  0.052682962   -2.6510632    1.0753853   578779 
 2570000    1.0078022   -2.6535167   -2.6535167   -1.5757152  0.065373303   -2.6535167    1.0778016   578779 
 2571000    1.0062508   -2.6525239   -2.6525239   -1.5763815  0.064667864   -2.6525239    1.0761423   578779 
 2572000    1.0040776   -2.6500796   -2.6500796   -1.5762613  0.061631891   -2.6500796    1.0738182   578779 
 2573000    1.0058404   -2.6508353   -2.6508353   -1.5751319  0.047454473   -2.6508353    1.0757034   578779 
 2574000    1.0053615     -2.65081     -2.65081   -1.5756187   0.05722015     -2.65081    1.0751913   578779 
 2575000    1.0051074   -2.6499061   -2.6499061   -1.5749866   0.07149861   -2.6499061    1.0749196   578779 
 2576000    1.0057245    -2.650444    -2.650444   -1.5748644  0.065215051    -2.650444    1.0755796   578779 
 2577000    1.0057571    -2.650265    -2.650265   -1.5746506  0.072447536    -2.650265    1.0756144   578779 
 2578000    1.0051781   -2.6504188   -2.6504188   -1.5754237   0.06954163   -2.6504188    1.0749952   578779 
 2579000    1.0053066   -2.6512443   -2.6512443   -1.5761116  0.063209639   -2.6512443    1.0751326   578779 
 2580000    1.0060839   -2.6520374   -2.6520374   -1.5760734  0.075653942   -2.6520374    1.0759639   578779 
 2581000    1.0074696   -2.6536167   -2.6536167   -1.5761709    0.0657414   -2.6536167    1.0774458   578779 
 2582000    1.0044664   -2.6515836   -2.6515836   -1.5773496  0.057626206   -2.6515836     1.074234   578779 
 2583000      1.00365   -2.6502566   -2.6502566   -1.5768956  0.078024296   -2.6502566     1.073361   578779 
 2584000    1.0060089   -2.6519418   -2.6519418   -1.5760581  0.061304947   -2.6519418    1.0758837   578779 
 2585000    1.0039908   -2.6498769   -2.6498769   -1.5761515  0.071223249   -2.6498769    1.0737254   578779 
 2586000    1.0048821   -2.6506413   -2.6506413   -1.5759626  0.062537764   -2.6506413    1.0746787   578779 
 2587000    1.0035496   -2.6498506   -2.6498506    -1.576597  0.059967777   -2.6498506    1.0732535   578779 
 2588000    1.0040217   -2.6505473   -2.6505473   -1.5767888  0.058401114   -2.6505473    1.0737585   578779 
 2589000    1.0049674   -2.6523637   -2.6523637   -1.5775938   0.06224336   -2.6523637    1.0747699   578779 
 2590000     1.006691   -2.6540033   -2.6540033   -1.5773901  0.072111154   -2.6540033    1.0766132   578779 
 2591000    1.0051334   -2.6528257   -2.6528257   -1.5778783  0.054392967   -2.6528257    1.0749474   578779 
 2592000    1.0070184   -2.6544675   -2.6544675   -1.5775042  0.074824766   -2.6544675    1.0769633   578779 
 2593000    1.0041911   -2.6506376   -2.6506376   -1.5766979  0.068168648   -2.6506376    1.0739396   578779 
 2594000    1.0064869   -2.6526872   -2.6526872   -1.5762924  0.073035816   -2.6526872    1.0763949   578779 
 2595000    1.0072128    -2.652198    -2.652198   -1.5750268  0.075219241    -2.652198    1.0771712   578779 
 2596000    1.0079073   -2.6526628   -2.6526628   -1.5747488  0.073855518   -2.6526628     1.077914   578779 
 2597000    1.0068779    -2.652271    -2.652271    -1.575458  0.067560139    -2.652271    1.0768131   578779 
 2598000    1.0073437   -2.6524644   -2.6524644   -1.5751532   0.06360941   -2.6524644    1.0773112   578779 
 2599000    1.0067953    -2.651728    -2.651728   -1.5750032  0.065856656    -2.651728    1.0767248   578779 
 2600000    1.0060643   -2.6509973   -2.6509973   -1.5750543  0.075359805   -2.6509973     1.075943   578779 
 2601000    1.0075753   -2.6523756   -2.6523756   -1.5748167  0.077625698   -2.6523756    1.0775589   578779 
 2602000    1.0069935   -2.6515162   -2.6515162   -1.5745795  0.067323144   -2.6515162    1.0769367   578779 
 2603000    1.0057872   -2.6507047   -2.6507047   -1.5750581  0.067630321   -2.6507047    1.0756466   578779 
 2604000    1.0053385   -2.6494529   -2.6494529   -1.5742862  0.069983858   -2.6494529    1.0751667   578779 
 2605000    1.0048444   -2.6489222   -2.6489222   -1.5742839  0.050924233   -2.6489222    1.0746383   578779 
 2606000    1.0042224   -2.6478063   -2.6478063   -1.5738333  0.057060932   -2.6478063    1.0739731   578779 
 2607000    1.0039114    -2.647812    -2.647812   -1.5741715  0.068912388    -2.647812    1.0736405   578779 
 2608000     1.006553   -2.6488875   -2.6488875   -1.5724219  0.067590175   -2.6488875    1.0764656   578779 
 2609000    1.0069232   -2.6499569   -2.6499569   -1.5730955  0.066483082   -2.6499569    1.0768614   578779 
 2610000       1.0057   -2.6479244   -2.6479244   -1.5723711  0.079241076   -2.6479244    1.0755533   578779 
 2611000    1.0035922   -2.6461842   -2.6461842   -1.5728851   0.07388603   -2.6461842    1.0732991   578779 
 2612000    1.0049998   -2.6476018   -2.6476018   -1.5727972   0.08135848   -2.6476018    1.0748045   578779 
 2613000     1.003317   -2.6453987   -2.6453987   -1.5723939  0.070179853   -2.6453987    1.0730048   578779 
 2614000    1.0034765   -2.6450877   -2.6450877   -1.5719123  0.056530558   -2.6450877    1.0731754   578779 
 2615000    1.0049242   -2.6461267   -2.6461267   -1.5714031  0.068616212   -2.6461267    1.0747236   578779 
 2616000    1.0023695   -2.6448168   -2.6448168   -1.5728252  0.065999013   -2.6448168    1.0719915   578779 
 2617000    1.0039001   -2.6465784   -2.6465784     -1.57295   0.05389565   -2.6465784    1.0736284   578779 
 2618000    1.0035986    -2.645824    -2.645824    -1.572518  0.063667868    -2.645824     1.073306   578779 
 2619000    1.0038157   -2.6465757   -2.6465757   -1.5730375  0.066253791   -2.6465757    1.0735381   578779 
 2620000    1.0048104   -2.6475513   -2.6475513   -1.5729494  0.058461962   -2.6475513    1.0746019   578779 
 2621000    1.0043825   -2.6472673   -2.6472673   -1.5731229  0.061079579   -2.6472673    1.0741444   578779 
 2622000    1.0040677   -2.6475117   -2.6475117   -1.5737041  0.062200059   -2.6475117    1.0738076   578779 
 2623000    1.0049683    -2.648029    -2.648029   -1.5732581  0.053581404    -2.648029    1.0747709   578779 
 2624000    1.0057906   -2.6487832   -2.6487832   -1.5731331   0.06552966   -2.6487832    1.0756502   578779 
 2625000     1.005707   -2.6481326   -2.6481326   -1.5725718  0.069356688   -2.6481326    1.0755608   578779 
 2626000    1.0061194   -2.6487683   -2.6487683   -1.5727664  0.058144618   -2.6487683    1.0760019   578779 
 2627000    1.0065588   -2.6487034   -2.6487034   -1.5722316  0.062610241   -2.6487034    1.0764718   578779 
 2628000    1.0073813   -2.6494277   -2.6494277   -1.5720762  0.065571575   -2.6494277    1.0773514   578779 
 2629000     1.005472   -2.6477473   -2.6477473   -1.5724379  0.076545306   -2.6477473    1.0753095   578779 
 2630000    1.0056844   -2.6494342   -2.6494342   -1.5738976  0.063424209   -2.6494342    1.0755366   578779 
 2631000    1.0046333   -2.6479642   -2.6479642   -1.5735517  0.067036434   -2.6479642    1.0744125   578779 
 2632000    1.0070219   -2.6504195   -2.6504195   -1.5734524  0.065419771   -2.6504195    1.0769671   578779 
 2633000    1.0053701   -2.6503359   -2.6503359   -1.5751354     0.068853   -2.6503359    1.0752005   578779 
 2634000    1.0048641    -2.649864    -2.649864   -1.5752046  0.074498726    -2.649864    1.0746594   578779 
 2635000    1.0050583   -2.6502507   -2.6502507   -1.5753836  0.063015059   -2.6502507    1.0748671   578779 
 2636000    1.0043165   -2.6495234   -2.6495234   -1.5754497  0.071084272   -2.6495234    1.0740738   578779 
 2637000    1.0048453   -2.6509603   -2.6509603    -1.576321  0.059354876   -2.6509603    1.0746393   578779 
 2638000    1.0053389   -2.6516644   -2.6516644   -1.5764972  0.073520035   -2.6516644    1.0751672   578779 
 2639000    1.0056786    -2.651545    -2.651545   -1.5760145  0.064148006    -2.651545    1.0755304   578779 
 2640000    1.0049659   -2.6504639   -2.6504639   -1.5756957  0.061806048   -2.6504639    1.0747682   578779 
 2641000    1.0059658   -2.6507224   -2.6507224   -1.5748847  0.060096795   -2.6507224    1.0758376   578779 
 2642000    1.0048376   -2.6494907   -2.6494907   -1.5748596  0.073632309   -2.6494907    1.0746311   578779 
 2643000    1.0048192    -2.648762    -2.648762   -1.5741506  0.065900407    -2.648762    1.0746113   578779 
 2644000    1.0059822   -2.6505567   -2.6505567   -1.5747016  0.079615842   -2.6505567    1.0758551   578779 
 2645000    1.0057183   -2.6506637   -2.6506637   -1.5750908  0.074296932   -2.6506637    1.0755729   578779 
 2646000    1.0067112   -2.6519266   -2.6519266   -1.5752918  0.075105578   -2.6519266    1.0766348   578779 
 2647000    1.0053358   -2.6504917   -2.6504917   -1.5753279  0.064179723   -2.6504917    1.0751639   578779 
 2648000    1.0053026   -2.6495483   -2.6495483     -1.57442  0.079816865   -2.6495483    1.0751283   578779 
 2649000    1.0060178    -2.650319    -2.650319   -1.5744258  0.072675468    -2.650319    1.0758932   578779 
 2650000    1.0049306   -2.6503964   -2.6503964   -1.5756659  0.076539324   -2.6503964    1.0747305   578779 
 2651000    1.0036344   -2.6488995   -2.6488995   -1.5755552  0.055290943   -2.6488995    1.0733443   578779 
 2652000    1.0054012   -2.6506072   -2.6506072   -1.5753734  0.074487014   -2.6506072    1.0752337   578779 
 2653000    1.0041574   -2.6505144   -2.6505144   -1.5766108  0.067630549   -2.6505144    1.0739036   578779 
 2654000    1.0064988   -2.6516551   -2.6516551   -1.5752475  0.061614914   -2.6516551    1.0764077   578779 
 2655000    1.0040028    -2.648948    -2.648948   -1.5752098  0.070988261    -2.648948    1.0737382   578779 
 2656000    1.0057617   -2.6511957   -2.6511957   -1.5755764  0.056985418   -2.6511957    1.0756193   578779 
 2657000    1.0058031   -2.6506849   -2.6506849   -1.5750213  0.062341508   -2.6506849    1.0756636   578779 
 2658000    1.0048279   -2.6494201   -2.6494201   -1.5747994  0.068761673   -2.6494201    1.0746207   578779 
 2659000      1.00659   -2.6510217   -2.6510217   -1.5745165  0.070750687   -2.6510217    1.0765052   578779 
 2660000     1.005997   -2.6507599   -2.6507599   -1.5748889  0.074829914   -2.6507599     1.075871   578779 
 2661000    1.0050098   -2.6505004   -2.6505004   -1.5756852   0.06691273   -2.6505004    1.0748152   578779 
 2662000    1.0051997   -2.6513413   -2.6513413   -1.5763229  0.052188594   -2.6513413    1.0750183   578779 
 2663000    1.0046661   -2.6500169   -2.6500169   -1.5755693  0.057958353   -2.6500169    1.0744476   578779 
 2664000    1.0052107   -2.6506984   -2.6506984   -1.5756684  0.071086093   -2.6506984      1.07503   578779 
 2665000    1.0062032   -2.6506451   -2.6506451   -1.5745536  0.065800381   -2.6506451    1.0760915   578779 
 2666000    1.0042463   -2.6490579   -2.6490579   -1.5750591  0.067601685   -2.6490579    1.0739987   578779 
 2667000    1.0050831   -2.6492721   -2.6492721   -1.5743785  0.059048135   -2.6492721    1.0748936   578779 
 2668000    1.0057127   -2.6500758   -2.6500758   -1.5745089  0.058506559   -2.6500758    1.0755669   578779 
 2669000    1.0064189   -2.6507518   -2.6507518   -1.5744296  0.064934851   -2.6507518    1.0763222   578779 
 2670000    1.0051202    -2.650511    -2.650511   -1.5755777  0.067612081    -2.650511    1.0749332   578779 
 2671000    1.0049282   -2.6499885   -2.6499885   -1.5752606  0.073257307   -2.6499885    1.0747279   578779 
 2672000     1.005331   -2.6513548   -2.6513548   -1.5761961  0.068360647   -2.6513548    1.0751587   578779 
 2673000    1.0047685   -2.6499387   -2.6499387   -1.5753815  0.067293297   -2.6499387    1.0745572   578779 
 2674000    1.0068781   -2.6511741   -2.6511741   -1.5743609  0.059979711   -2.6511741    1.0768133   578779 
 2675000    1.0041568   -2.6488238   -2.6488238   -1.5749208  0.066779466   -2.6488238    1.0739029   578779 
 2676000    1.0051948   -2.6491106   -2.6491106   -1.5740976  0.070679135   -2.6491106     1.075013   578779 
 2677000    1.0049815   -2.6498263   -2.6498263   -1.5750413  0.055049973   -2.6498263     1.074785   578779 
 2678000     1.005708   -2.6508122   -2.6508122   -1.5752503  0.068009368   -2.6508122    1.0755619   578779 
 2679000    1.0052868   -2.6503847   -2.6503847   -1.5752733  0.081622881   -2.6503847    1.0751114   578779 
 2680000    1.0051964   -2.6507874   -2.6507874   -1.5757727   0.06955021   -2.6507874    1.0750147   578779 
 2681000    1.0054961   -2.6504241   -2.6504241   -1.5750888  0.078235393   -2.6504241    1.0753353   578779 
 2682000    1.0065802   -2.6511576   -2.6511576   -1.5746628  0.059669918   -2.6511576    1.0764947   578779 
 2683000    1.0061776   -2.6504725   -2.6504725   -1.5744084      0.06329   -2.6504725    1.0760641   578779 
 2684000    1.0073026   -2.6519249   -2.6519249   -1.5746577  0.063669051   -2.6519249    1.0772672   578779 
 2685000    1.0071097    -2.651779    -2.651779    -1.574718  0.076464425    -2.651779     1.077061   578779 
 2686000    1.0073364   -2.6511781   -2.6511781   -1.5738747  0.067964517   -2.6511781    1.0773034   578779 
 2687000    1.0058219   -2.6506003   -2.6506003   -1.5749166  0.070728926   -2.6506003    1.0756837   578779 
 2688000    1.0061222   -2.6507247   -2.6507247   -1.5747198  0.055350738   -2.6507247    1.0760049   578779 
 2689000    1.0046979   -2.6501527   -2.6501527   -1.5756711  0.071296792   -2.6501527    1.0744816   578779 
 2690000    1.0048745    -2.649905    -2.649905   -1.5752345   0.06770204    -2.649905    1.0746705   578779 
 2691000    1.0061043   -2.6513502   -2.6513502   -1.5753645  0.067462448   -2.6513502    1.0759858   578779 
 2692000    1.0050331   -2.6504631   -2.6504631   -1.5756231  0.057262658   -2.6504631    1.0748401   578779 
 2693000    1.0045151   -2.6495949   -2.6495949   -1.5753087   0.07346729   -2.6495949    1.0742862   578779 
 2694000    1.0054294   -2.6511815   -2.6511815   -1.5759176  0.058306291   -2.6511815    1.0752639   578779 
 2695000    1.0051363    -2.651252    -2.651252   -1.5763015  0.056447071    -2.651252    1.0749505   578779 
 2696000    1.0038418   -2.6501999   -2.6501999   -1.5766339  0.064751276   -2.6501999     1.073566   578779 
 2697000    1.0034756   -2.6505916   -2.6505916   -1.5774172  0.066882511   -2.6505916    1.0731745   578779 
 2698000    1.0062258   -2.6525931   -2.6525931   -1.5764774  0.067824487   -2.6525931    1.0761157   578779 
 2699000    1.0049727   -2.6507775   -2.6507775    -1.576002  0.072626691   -2.6507775    1.0747756   578779 
 2700000    1.0063483   -2.6518916   -2.6518916   -1.5756449  0.070055397   -2.6518916    1.0762467   578779 
 2701000    1.0045968   -2.6501907   -2.6501907   -1.5758172  0.069586418   -2.6501907    1.0743735   578779 
 2702000    1.0068422   -2.6525116   -2.6525116   -1.5757367  0.066031116   -2.6525116    1.0767749   578779 
 2703000    1.0064338   -2.6525111   -2.6525111    -1.576173  0.071277142   -2.6525111    1.0763381   578779 
 2704000    1.0072052   -2.6521147   -2.6521147   -1.5749517  0.070327021   -2.6521147     1.077163   578779 
 2705000    1.0069357   -2.6518262   -2.6518262   -1.5749513  0.072346567   -2.6518262    1.0768749   578779 
 2706000    1.0060986   -2.6512784   -2.6512784   -1.5752987  0.079051446   -2.6512784    1.0759796   578779 
 2707000    1.0084255   -2.6537714   -2.6537714   -1.5753033  0.067320327   -2.6537714    1.0784681   578779 
 2708000    1.0060005    -2.651317    -2.651317   -1.5754423  0.084066834    -2.651317    1.0758747   578779 
 2709000    1.0083574    -2.653298    -2.653298   -1.5749027  0.067977618    -2.653298    1.0783953   578779 
 2710000    1.0062112   -2.6507319   -2.6507319   -1.5746318  0.078114924   -2.6507319    1.0761001   578779 
 2711000    1.0069915   -2.6510153   -2.6510153   -1.5740807  0.075509689   -2.6510153    1.0769346   578779 
 2712000    1.0044003   -2.6490076   -2.6490076   -1.5748442  0.065015854   -2.6490076    1.0741634   578779 
 2713000    1.0059903   -2.6505093   -2.6505093   -1.5746455  0.062812039   -2.6505093    1.0758638   578779 
 2714000    1.0045325   -2.6500631   -2.6500631   -1.5757583  0.067718424   -2.6500631    1.0743048   578779 
 2715000    1.0074339   -2.6529839   -2.6529839   -1.5755762  0.059538383   -2.6529839    1.0774077   578779 
 2716000    1.0055564   -2.6510428   -2.6510428    -1.575643  0.066677143   -2.6510428    1.0753998   578779 
 2717000    1.0042072   -2.6493014   -2.6493014   -1.5753446  0.075202075   -2.6493014    1.0739568   578779 
 2718000    1.0045698   -2.6496961   -2.6496961   -1.5753514  0.056471547   -2.6496961    1.0743447   578779 
 2719000    1.0046283   -2.6496995   -2.6496995   -1.5752923  0.068015321   -2.6496995    1.0744072   578779 
 2720000    1.0043538   -2.6497664   -2.6497664   -1.5756528  0.061348247   -2.6497664    1.0741136   578779 
 2721000     1.003854   -2.6486878   -2.6486878   -1.5751087  0.056453249   -2.6486878    1.0735791   578779 
 2722000    1.0048136   -2.6497635   -2.6497635   -1.5751582  0.050222186   -2.6497635    1.0746053   578779 
 2723000    1.0042938   -2.6493244   -2.6493244   -1.5752749  0.065207616   -2.6493244    1.0740495   578779 
 2724000    1.0042487   -2.6496284   -2.6496284   -1.5756272  0.074310178   -2.6496284    1.0740012   578779 
 2725000    1.0040285    -2.649057    -2.649057   -1.5752913  0.064272007    -2.649057    1.0737657   578779 
 2726000    1.0035426    -2.648454    -2.648454   -1.5752079  0.072906138    -2.648454     1.073246   578779 
 2727000    1.0065965   -2.6516702   -2.6516702   -1.5751582  0.052348122   -2.6516702    1.0765121   578779 
 2728000    1.0062588    -2.652354    -2.652354   -1.5762031   0.06973614    -2.652354    1.0761509   578779 
 2729000    1.0035291   -2.6493215   -2.6493215   -1.5760899  0.059550205   -2.6493215    1.0732316   578779 
 2730000    1.0042642   -2.6497096   -2.6497096   -1.5756918  0.064741025   -2.6497096    1.0740178   578779 
 2731000    1.0059582   -2.6523656   -2.6523656   -1.5765361  0.069844124   -2.6523656    1.0758295   578779 
 2732000    1.0063841   -2.6528854   -2.6528854   -1.5766005  0.061239386   -2.6528854    1.0762849   578779 
 2733000    1.0039807   -2.6501964   -2.6501964   -1.5764818  0.073670814   -2.6501964    1.0737146   578779 
 2734000    1.0064328   -2.6524948   -2.6524948   -1.5761578  0.071485832   -2.6524948    1.0763371   578779 
 2735000    1.0042793   -2.6506852   -2.6506852   -1.5766512  0.066376366   -2.6506852     1.074034   578779 
 2736000     1.004671   -2.6515102   -2.6515102   -1.5770574  0.062734218   -2.6515102    1.0744528   578779 
 2737000     1.005582   -2.6529639   -2.6529639   -1.5775368  0.062252284   -2.6529639    1.0754271   578779 
 2738000    1.0059847   -2.6542899   -2.6542899   -1.5784321  0.061933718   -2.6542899    1.0758578   578779 
 2739000    1.0064712   -2.6536844   -2.6536844   -1.5773063  0.072078679   -2.6536844    1.0763781   578779 
 2740000    1.0062288   -2.6535332   -2.6535332   -1.5774143  0.061858697   -2.6535332    1.0761189   578779 
 2741000    1.0048549    -2.653204    -2.653204   -1.5785544   0.06902517    -2.653204    1.0746496   578779 
 2742000    1.0070454   -2.6544165   -2.6544165   -1.5774243  0.061802286   -2.6544165    1.0769922   578779 
 2743000    1.0039114   -2.6513621   -2.6513621   -1.5777216  0.055470083   -2.6513621    1.0736405   578779 
 2744000     1.004763   -2.6515511   -2.6515511   -1.5769999  0.070189129   -2.6515511    1.0745512   578779 
 2745000    1.0035692   -2.6498246   -2.6498246     -1.57655  0.078674801   -2.6498246    1.0732745   578779 
 2746000    1.0045939   -2.6517235   -2.6517235   -1.5773531  0.068712248   -2.6517235    1.0743704   578779 
 2747000    1.0043325   -2.6510808   -2.6510808   -1.5769899  0.075079945   -2.6510808    1.0740909   578779 
 2748000    1.0050533   -2.6520779   -2.6520779   -1.5772161  0.058556511   -2.6520779    1.0748618   578779 
 2749000    1.0053959   -2.6513132   -2.6513132    -1.576085  0.056307959   -2.6513132    1.0752281   578779 
 2750000    1.0046273    -2.651177    -2.651177   -1.5767709  0.066906741    -2.651177    1.0744061   578779 
 2751000    1.0044344   -2.6510502   -2.6510502   -1.5768504  0.072045262   -2.6510502    1.0741999   578779 
 2752000    1.0046037   -2.6499024   -2.6499024   -1.5755216  0.063675767   -2.6499024    1.0743809   578779 
 2753000    1.0032309   -2.6491573   -2.6491573   -1.5762445  0.066302529   -2.6491573    1.0729128   578779 
 2754000    1.0033549   -2.6496502   -2.6496502   -1.5766048  0.067532618   -2.6496502    1.0730454   578779 
 2755000    1.0044371   -2.6507893   -2.6507893   -1.5765865  0.058961626   -2.6507893    1.0742027   578779 
 2756000    1.0026571   -2.6496964   -2.6496964   -1.5773973  0.061766915   -2.6496964    1.0722991   578779 
 2757000    1.0042587   -2.6519688   -2.6519688   -1.5779569  0.061002433   -2.6519688    1.0740119   578779 
 2758000    1.0042367   -2.6514304   -2.6514304   -1.5774421  0.061638014   -2.6514304    1.0739884   578779 
 2759000    1.0040257   -2.6511076   -2.6511076   -1.5773449  0.048015568   -2.6511076    1.0737627   578779 
 2760000    1.0032581   -2.6497757   -2.6497757   -1.5768339  0.057333334   -2.6497757    1.0729418   578779 
 2761000     1.003457   -2.6502033   -2.6502033   -1.5770487  0.065388037   -2.6502033    1.0731546   578779 
 2762000    1.0049192   -2.6516299   -2.6516299   -1.5769116  0.064674171   -2.6516299    1.0747183   578779 
 2763000    1.0046947   -2.6513495   -2.6513495   -1.5768712  0.055158315   -2.6513495    1.0744782   578779 
 2764000    1.0046186   -2.6507576   -2.6507576   -1.5763607  0.072783899   -2.6507576    1.0743969   578779 
 2765000    1.0043381   -2.6508674   -2.6508674   -1.5767706  0.071019685   -2.6508674    1.0740968   578779 
 2766000    1.0057243   -2.6522397   -2.6522397   -1.5766604  0.072671003   -2.6522397    1.0755793   578779 
 2767000    1.0055108   -2.6523424   -2.6523424   -1.5769915  0.064139689   -2.6523424     1.075351   578779 
 2768000     1.005348   -2.6522697   -2.6522697   -1.5770928  0.064198439   -2.6522697    1.0751769   578779 
 2769000     1.005554   -2.6525501   -2.6525501    -1.577153  0.076772481   -2.6525501    1.0753972   578779 
 2770000    1.0073901   -2.6543274   -2.6543274   -1.5769666   0.07393476   -2.6543274    1.0773608   578779 
 2771000      1.00653   -2.6530551   -2.6530551   -1.5766141  0.062682921   -2.6530551     1.076441   578779 
 2772000    1.0068233   -2.6535584   -2.6535584   -1.5768037  0.070672473   -2.6535584    1.0767547   578779 
 2773000    1.0050051   -2.6511676   -2.6511676   -1.5763575  0.080043686   -2.6511676    1.0748102   578779 
 2774000    1.0060551   -2.6528609   -2.6528609   -1.5769277  0.068636021   -2.6528609    1.0759331   578779 
 2775000    1.0045214   -2.6510557   -2.6510557   -1.5767628  0.057289944   -2.6510557    1.0742929   578779 
 2776000    1.0042504   -2.6506193   -2.6506193   -1.5766162  0.066528634   -2.6506193    1.0740031   578779 
 2777000    1.0035148   -2.6497723   -2.6497723    -1.576556  0.063698936   -2.6497723    1.0732164   578779 
 2778000    1.0054422   -2.6516582   -2.6516582   -1.5763805  0.064388841   -2.6516582    1.0752776   578779 
 2779000    1.0057203   -2.6528101   -2.6528101    -1.577235  0.068775733   -2.6528101    1.0755751   578779 
 2780000     1.005892   -2.6528985   -2.6528985   -1.5771398  0.060046482   -2.6528985    1.0757587   578779 
 2781000     1.004066   -2.6516842   -2.6516842   -1.5778784  0.061118162   -2.6516842    1.0738058   578779 
 2782000    1.0033474   -2.6505572   -2.6505572   -1.5775198  0.062392125   -2.6505572    1.0730373   578779 
 2783000      1.00637   -2.6518679   -2.6518679    -1.575598  0.064281085   -2.6518679    1.0762699   578779 
 2784000    1.0054795   -2.6518489   -2.6518489   -1.5765313  0.072317709   -2.6518489    1.0753175   578779 
 2785000    1.0050125   -2.6515922   -2.6515922   -1.5767741  0.060374922   -2.6515922    1.0748181   578779 
 2786000    1.0047448   -2.6512409   -2.6512409   -1.5767092  0.075124756   -2.6512409    1.0745317   578779 
 2787000    1.0042375   -2.6510139   -2.6510139   -1.5770247  0.066687324   -2.6510139    1.0739892   578779 
 2788000    1.0019327   -2.6492963   -2.6492963    -1.577772  0.057726141   -2.6492963    1.0715243   578779 
 2789000    1.0045722   -2.6517078   -2.6517078   -1.5773606   0.06379554   -2.6517078    1.0743472   578779 
 2790000    1.0043105     -2.65047     -2.65047   -1.5764028  0.062833684     -2.65047    1.0740673   578779 
 2791000      1.00396   -2.6501318   -2.6501318   -1.5764393  0.064709913   -2.6501318    1.0736924   578779 
 2792000    1.0055388   -2.6511656   -2.6511656   -1.5757847  0.079778995   -2.6511656    1.0753809   578779 
 2793000    1.0042422   -2.6504656   -2.6504656   -1.5764713  0.064752701   -2.6504656    1.0739943   578779 
 2794000    1.0044905   -2.6507583   -2.6507583   -1.5764985  0.074848375   -2.6507583    1.0742598   578779 
 2795000    1.0049552   -2.6520661   -2.6520661   -1.5773093  0.067037603   -2.6520661    1.0747568   578779 
 2796000     1.007084   -2.6542791   -2.6542791   -1.5772457   0.07566235   -2.6542791    1.0770334   578779 
 2797000    1.0066737   -2.6537475   -2.6537475   -1.5771528  0.061143337   -2.6537475    1.0765947   578779 
 2798000    1.0067309   -2.6536394   -2.6536394   -1.5769836  0.073691966   -2.6536394    1.0766558   578779 
 2799000    1.0058629   -2.6526644   -2.6526644   -1.5769368  0.081411506   -2.6526644    1.0757276   578779 
 2800000    1.0052887    -2.652101    -2.652101   -1.5769875  0.074329375    -2.652101    1.0751134   578779 
 2801000    1.0072899   -2.6541196   -2.6541196   -1.5768659  0.064416668   -2.6541196    1.0772536   578779 
 2802000    1.0068571   -2.6531375   -2.6531375   -1.5763466  0.072948141   -2.6531375    1.0767908   578779 
 2803000    1.0079961   -2.6550019   -2.6550019   -1.5769929  0.063168333   -2.6550019    1.0780089   578779 
 2804000    1.0052507   -2.6532307   -2.6532307   -1.5781578  0.058076589   -2.6532307    1.0750728   578779 
 2805000    1.0032142   -2.6511172   -2.6511172   -1.5782223  0.065229117   -2.6511172    1.0728948   578779 
 2806000    1.0035744   -2.6516632   -2.6516632   -1.5783832  0.063142177   -2.6516632    1.0732801   578779 
 2807000    1.0052913   -2.6538386   -2.6538386   -1.5787224   0.06904174   -2.6538386    1.0751162   578779 
 2808000    1.0054904   -2.6539803   -2.6539803   -1.5786511  0.072674977   -2.6539803    1.0753292   578779 
 2809000    1.0048678   -2.6534244   -2.6534244   -1.5787611  0.075016135   -2.6534244    1.0746633   578779 
 2810000    1.0063251   -2.6552677   -2.6552677   -1.5790458  0.058026728   -2.6552677    1.0762219   578779 
 2811000     1.005533   -2.6535765   -2.6535765   -1.5782018  0.067007256   -2.6535765    1.0753747   578779 
 2812000    1.0045873   -2.6530336   -2.6530336   -1.5786702   0.05818191   -2.6530336    1.0743634   578779 
 2813000       1.0052   -2.6538683   -2.6538683   -1.5788497  0.071938962   -2.6538683    1.0750186   578779 
 2814000    1.0049257   -2.6529798   -2.6529798   -1.5782546  0.060848592   -2.6529798    1.0747252   578779 
 2815000    1.0035747   -2.6512564   -2.6512564    -1.577976  0.061260114   -2.6512564    1.0732804   578779 
 2816000    1.0055647   -2.6534963   -2.6534963   -1.5780877  0.061591025   -2.6534963    1.0754086   578779 
 2817000    1.0052017    -2.652724    -2.652724   -1.5777035  0.075385048    -2.652724    1.0750204   578779 
 2818000     1.006701   -2.6542025   -2.6542025   -1.5775787  0.062429642   -2.6542025    1.0766239   578779 
 2819000    1.0059137    -2.652899    -2.652899   -1.5771172  0.071168913    -2.652899    1.0757818   578779 
 2820000    1.0067986   -2.6536706   -2.6536706   -1.5769423  0.069926118   -2.6536706    1.0767282   578779 
 2821000    1.0054222   -2.6525486   -2.6525486   -1.5772924  0.065370597   -2.6525486    1.0752562   578779 
 2822000    1.0063281   -2.6540579   -2.6540579   -1.5778328  0.068097721   -2.6540579    1.0762251   578779 
 2823000    1.0058616   -2.6531515   -2.6531515   -1.5774254  0.062373805   -2.6531515    1.0757261   578779 
 2824000    1.0059841   -2.6536967   -2.6536967   -1.5778395  0.065164363   -2.6536967    1.0758571   578779 
 2825000    1.0063982   -2.6536452   -2.6536452   -1.5773451  0.079775571   -2.6536452       1.0763   578779 
 2826000    1.0049792   -2.6525355   -2.6525355    -1.577753   0.07084706   -2.6525355    1.0747825   578779 
 2827000    1.0054127   -2.6530904   -2.6530904   -1.5778444   0.06570571   -2.6530904    1.0752461   578779 
 2828000    1.0068023   -2.6533587   -2.6533587   -1.5766265  0.066124529   -2.6533587    1.0767322   578779 
 2829000    1.0056787   -2.6511053   -2.6511053   -1.5755747   0.06470145   -2.6511053    1.0755306   578779 
 2830000    1.0056066   -2.6510467   -2.6510467   -1.5755933  0.066451697   -2.6510467    1.0754535   578779 
 2831000    1.0064666   -2.6521614   -2.6521614   -1.5757882  0.061697593   -2.6521614    1.0763732   578779 
 2832000    1.0063043   -2.6510465   -2.6510465   -1.5748469  0.070955156   -2.6510465    1.0761996   578779 
 2833000    1.0067546   -2.6514305   -2.6514305   -1.5747493  0.061541781   -2.6514305    1.0766812   578779 
 2834000    1.0049954   -2.6498853   -2.6498853   -1.5750856  0.072717214   -2.6498853    1.0747998   578779 
 2835000    1.0038772   -2.6491484   -2.6491484   -1.5755444  0.065459723   -2.6491484    1.0736039   578779 
 2836000    1.0054938   -2.6508372   -2.6508372   -1.5755043  0.070113439   -2.6508372    1.0753328   578779 
 2837000    1.0059235   -2.6514332   -2.6514332   -1.5756409   0.06012247   -2.6514332    1.0757924   578779 
 2838000    1.0049943   -2.6503894   -2.6503894   -1.5755908  0.059189646   -2.6503894    1.0747986   578779 
 2839000    1.0050218   -2.6498349   -2.6498349   -1.5750069  0.052391901   -2.6498349     1.074828   578779 
 2840000    1.0051173   -2.6497714   -2.6497714   -1.5748412  0.058907122   -2.6497714    1.0749302   578779 
 2841000    1.0047777   -2.6493792   -2.6493792   -1.5748122  0.067768564   -2.6493792     1.074567   578779 
 2842000    1.0060816   -2.6511578   -2.6511578   -1.5751964  0.051369371   -2.6511578    1.0759614   578779 
 2843000    1.0033033   -2.6483829   -2.6483829   -1.5753926  0.060633609   -2.6483829    1.0729902   578779 
 2844000    1.0045024    -2.649186    -2.649186   -1.5749134  0.058629055    -2.649186    1.0742726   578779 
 2845000    1.0044138   -2.6490617   -2.6490617   -1.5748839  0.067596388   -2.6490617    1.0741778   578779 
 2846000    1.0055985   -2.6505283   -2.6505283   -1.5750835  0.068281853   -2.6505283    1.0754448   578779 
 2847000     1.004592   -2.6497778   -2.6497778   -1.5754095  0.085370157   -2.6497778    1.0743683   578779 
 2848000    1.0038715   -2.6487448   -2.6487448    -1.575147  0.069571374   -2.6487448    1.0735978   578779 
 2849000    1.0050636    -2.650287    -2.650287   -1.5754143  0.057071178    -2.650287    1.0748727   578779 
 2850000    1.0044376   -2.6490152   -2.6490152   -1.5748119  0.081815328   -2.6490152    1.0742033   578779 
 2851000    1.0051413   -2.6499229   -2.6499229   -1.5749672  0.052188225   -2.6499229    1.0749558   578779 
 2852000    1.0047621   -2.6502969   -2.6502969   -1.5757466   0.07391133   -2.6502969    1.0745503   578779 
 2853000    1.0044564   -2.6504432   -2.6504432   -1.5762199  0.066435246   -2.6504432    1.0742234   578779 
 2854000    1.0062903   -2.6522538   -2.6522538   -1.5760692  0.060783409   -2.6522538    1.0761846   578779 
 2855000    1.0059107    -2.651659    -2.651659   -1.5758803  0.071413486    -2.651659    1.0757787   578779 
 2856000    1.0060037   -2.6513279   -2.6513279   -1.5754498  0.064947267   -2.6513279    1.0758781   578779 
 2857000    1.0055293   -2.6508528   -2.6508528   -1.5754821  0.068678946   -2.6508528    1.0753707   578779 
 2858000    1.0052752   -2.6511438   -2.6511438   -1.5760447   0.07439346   -2.6511438    1.0750991   578779 
 2859000    1.0058102   -2.6516959   -2.6516959   -1.5760248  0.063083203   -2.6516959    1.0756712   578779 
 2860000    1.0079721   -2.6543605   -2.6543605   -1.5763773  0.057879098   -2.6543605    1.0779832   578779 
 2861000    1.0045723   -2.6516659   -2.6516659   -1.5773186  0.066863662   -2.6516659    1.0743473   578779 
 2862000    1.0063193   -2.6518159   -2.6518159   -1.5756003  0.060260107   -2.6518159    1.0762157   578779 
 2863000    1.0072618     -2.65217     -2.65217   -1.5749464  0.071955046     -2.65217    1.0772236   578779 
 2864000    1.0046487    -2.649948    -2.649948    -1.575519  0.062560924    -2.649948     1.074429   578779 
 2865000    1.0042047   -2.6495311   -2.6495311   -1.5755769  0.066213168   -2.6495311    1.0739542   578779 
 2866000    1.0050993   -2.6511243   -2.6511243   -1.5762133  0.060438048   -2.6511243     1.074911   578779 
 2867000    1.0062945   -2.6527962   -2.6527962   -1.5766071  0.073771407   -2.6527962    1.0761891   578779 
 2868000     1.005485   -2.6520431   -2.6520431   -1.5767196  0.061593271   -2.6520431    1.0753234   578779 
 2869000    1.0042412   -2.6508707   -2.6508707   -1.5768775  0.051815688   -2.6508707    1.0739932   578779 
 2870000    1.0050328   -2.6501626   -2.6501626   -1.5753228  0.061160398   -2.6501626    1.0748398   578779 
 2871000    1.0050317   -2.6498311   -2.6498311   -1.5749925  0.075129008   -2.6498311    1.0748386   578779 
 2872000    1.0046448   -2.6502483   -2.6502483   -1.5758235   0.06397849   -2.6502483    1.0744248   578779 
 2873000    1.0021886   -2.6474681   -2.6474681   -1.5756701  0.071802534   -2.6474681    1.0717981   578779 
 2874000    1.0046635   -2.6500605   -2.6500605   -1.5756156  0.057888132   -2.6500605    1.0744449   578779 
 2875000    1.0058158    -2.651096    -2.651096   -1.5754187  0.061986916    -2.651096    1.0756772   578779 
 2876000    1.0041851   -2.6492835   -2.6492835   -1.5753503  0.065434529   -2.6492835    1.0739332   578779 
 2877000    1.0054399   -2.6506868   -2.6506868   -1.5754116  0.081076538   -2.6506868    1.0752752   578779 
 2878000    1.0049673   -2.6504684   -2.6504684   -1.5756987  0.060876174   -2.6504684    1.0747698   578779 
 2879000    1.0040772   -2.6488788   -2.6488788    -1.575061  0.067465408   -2.6488788    1.0738179   578779 
 2880000    1.0050039   -2.6505213   -2.6505213   -1.5757125  0.068182414   -2.6505213    1.0748089   578779 
 2881000    1.0051307    -2.651127    -2.651127   -1.5761825  0.060780005    -2.651127    1.0749445   578779 
 2882000    1.0047142   -2.6507002   -2.6507002   -1.5762011  0.067816826   -2.6507002    1.0744991   578779 
 2883000    1.0050851   -2.6501118   -2.6501118   -1.5752161  0.068561896   -2.6501118    1.0748957   578779 
 2884000    1.0060899    -2.651559    -2.651559   -1.5755886  0.061995131    -2.651559    1.0759704   578779 
 2885000    1.0066768   -2.6514727   -2.6514727   -1.5748747  0.064113419   -2.6514727     1.076598   578779 
 2886000    1.0066343    -2.651119    -2.651119   -1.5745664  0.066840402    -2.651119    1.0765526   578779 
 2887000    1.0051615   -2.6495874   -2.6495874   -1.5746099  0.066075491   -2.6495874    1.0749775   578779 
 2888000    1.0059975   -2.6496001   -2.6496001   -1.5737287  0.065679704   -2.6496001    1.0758714   578779 
 2889000    1.0055296   -2.6495564   -2.6495564   -1.5741853  0.059151807   -2.6495564    1.0753711   578779 
 2890000    1.0059762   -2.6488959   -2.6488959   -1.5730472  0.072249077   -2.6488959    1.0758488   578779 
 2891000    1.0062238    -2.649311    -2.649311   -1.5731975  0.065348847    -2.649311    1.0761135   578779 
 2892000    1.0052287   -2.6488329   -2.6488329   -1.5737837  0.055459848   -2.6488329    1.0750493   578779 
 2893000    1.0055233   -2.6481625   -2.6481625   -1.5727982  0.074153688   -2.6481625    1.0753644   578779 
 2894000    1.0057013   -2.6486581   -2.6486581   -1.5731034  0.064793864   -2.6486581    1.0755547   578779 
 2895000    1.0047385   -2.6484548   -2.6484548   -1.5739297  0.073451258   -2.6484548     1.074525   578779 
 2896000    1.0041813   -2.6473102   -2.6473102    -1.573381  0.056226091   -2.6473102    1.0739292   578779 
 2897000    1.0032656   -2.6476705   -2.6476705   -1.5747206   0.05906805   -2.6476705    1.0729499   578779 
 2898000    1.0031531   -2.6476732   -2.6476732   -1.5748436  0.058655949   -2.6476732    1.0728296   578779 
 2899000    1.0047006    -2.648636    -2.648636   -1.5741514  0.070706617    -2.648636    1.0744845   578779 
 2900000    1.0048368   -2.6489949   -2.6489949   -1.5743647  0.065218655   -2.6489949    1.0746302   578779 
 2901000    1.0046486   -2.6487292   -2.6487292   -1.5743003  0.063309384   -2.6487292    1.0744289   578779 
 2902000    1.0055735   -2.6488074   -2.6488074   -1.5733894  0.058407198   -2.6488074     1.075418   578779 
 2903000    1.0040032   -2.6469613   -2.6469613   -1.5732226  0.065832783   -2.6469613    1.0737387   578779 
 2904000    1.0049395   -2.6482331   -2.6482331   -1.5734931  0.066861235   -2.6482331      1.07474   578779 
 2905000    1.0042969   -2.6469212   -2.6469212   -1.5728684  0.061823249   -2.6469212    1.0740528   578779 
 2906000    1.0066675   -2.6497747   -2.6497747   -1.5731867  0.062793586   -2.6497747     1.076588   578779 
 2907000    1.0051553   -2.6488636   -2.6488636   -1.5738928  0.055505816   -2.6488636    1.0749708   578779 
 2908000    1.0043591   -2.6489942   -2.6489942   -1.5748749  0.066497126   -2.6489942    1.0741193   578779 
 2909000    1.0044523   -2.6490371   -2.6490371   -1.5748182  0.057914311   -2.6490371    1.0742189   578779 
 2910000    1.0064502   -2.6510311   -2.6510311   -1.5746755    0.0632779   -2.6510311    1.0763556   578779 
 2911000    1.0058131   -2.6512824   -2.6512824   -1.5756082  0.060596606   -2.6512824    1.0756743   578779 
 2912000    1.0027864   -2.6483964   -2.6483964   -1.5759591  0.070766008   -2.6483964    1.0724374   578779 
 2913000    1.0035508   -2.6488369   -2.6488369    -1.575582  0.066091479   -2.6488369    1.0732549   578779 
 2914000    1.0048036   -2.6500925   -2.6500925   -1.5754978  0.075746117   -2.6500925    1.0745947   578779 
 2915000    1.0069125     -2.65207     -2.65207     -1.57522   0.07015784     -2.65207      1.07685   578779 
 2916000    1.0067317   -2.6518432   -2.6518432   -1.5751865   0.06697281   -2.6518432    1.0766567   578779 
 2917000    1.0052579   -2.6503895   -2.6503895    -1.575309  0.067459054   -2.6503895    1.0750805   578779 
 2918000    1.0061834   -2.6504789   -2.6504789   -1.5744086  0.052761994   -2.6504789    1.0760703   578779 
 2919000    1.0058524   -2.6502313   -2.6502313   -1.5745151  0.073775341   -2.6502313    1.0757163   578779 
 2920000    1.0048094   -2.6497546   -2.6497546   -1.5751538  0.071682847   -2.6497546    1.0746009   578779 
 2921000    1.0062943   -2.6506831   -2.6506831   -1.5744941   0.06983621   -2.6506831    1.0761889   578779 
 2922000    1.0045354   -2.6496461   -2.6496461   -1.5753383  0.055131217   -2.6496461    1.0743078   578779 
 2923000    1.0044848   -2.6492443   -2.6492443   -1.5749906  0.075822094   -2.6492443    1.0742537   578779 
 2924000      1.00477   -2.6505551   -2.6505551   -1.5759964  0.061113013   -2.6505551    1.0745587   578779 
 2925000    1.0030668    -2.649059    -2.649059   -1.5763217   0.07768151    -2.649059    1.0727373   578779 
 2926000     1.004005   -2.6496153   -2.6496153   -1.5758748   0.05462587   -2.6496153    1.0737406   578779 
 2927000    1.0035566   -2.6495003   -2.6495003   -1.5762392  0.053779659   -2.6495003     1.073261   578779 
 2928000    1.0039429   -2.6499128   -2.6499128   -1.5762386  0.067507766   -2.6499128    1.0736742   578779 
 2929000    1.0026409   -2.6484865   -2.6484865   -1.5762047   0.06182335   -2.6484865    1.0722817   578779 
 2930000    1.0045224   -2.6495616   -2.6495616   -1.5752677  0.068599186   -2.6495616    1.0742939   578779 
 2931000    1.0032406   -2.6486562   -2.6486562   -1.5757331  0.070595152   -2.6486562    1.0729231   578779 
 2932000    1.0035926   -2.6481148   -2.6481148   -1.5748152  0.056866278   -2.6481148    1.0732996   578779 
 2933000     1.003721   -2.6483693   -2.6483693   -1.5749324  0.061308036   -2.6483693    1.0734369   578779 
 2934000    1.0042811   -2.6501127   -2.6501127   -1.5760768   0.06348985   -2.6501127    1.0740359   578779 
 2935000    1.0033867   -2.6489198   -2.6489198   -1.5758404  0.059689022   -2.6489198    1.0730793   578779 
 2936000    1.0027065   -2.6482771   -2.6482771   -1.5759252  0.060082824   -2.6482771    1.0723519   578779 
 2937000    1.0053013   -2.6509057   -2.6509057   -1.5757787  0.066087492   -2.6509057    1.0751269   578779 
 2938000      1.00509   -2.6508818   -2.6508818   -1.5759809  0.069256794   -2.6508818    1.0749009   578779 
 2939000    1.0030539   -2.6498269   -2.6498269   -1.5771035  0.068578037   -2.6498269    1.0727234   578779 
 2940000    1.0033908   -2.6497124   -2.6497124   -1.5766287  0.067680639   -2.6497124    1.0730837   578779 
 2941000    1.0029542   -2.6489546   -2.6489546   -1.5763378  0.060826807   -2.6489546    1.0726168   578779 
 2942000    1.0043829   -2.6503572   -2.6503572   -1.5762124  0.062909695   -2.6503572    1.0741448   578779 
 2943000    1.0043668   -2.6508275   -2.6508275      -1.5767  0.066410827   -2.6508275    1.0741275   578779 
 2944000     1.003205   -2.6494622   -2.6494622   -1.5765772  0.064929829   -2.6494622    1.0728851   578779 
 2945000    1.0031429   -2.6501166   -2.6501166   -1.5772979  0.068879948   -2.6501166    1.0728187   578779 
 2946000    1.0032393   -2.6502063   -2.6502063   -1.5772846  0.071324521   -2.6502063    1.0729217   578779 
 2947000    1.0048629   -2.6522534   -2.6522534   -1.5775953  0.068009134   -2.6522534    1.0746581   578779 
 2948000    1.0029574   -2.6497017   -2.6497017   -1.5770815  0.071119177   -2.6497017    1.0726202   578779 
 2949000    1.0040848   -2.6509423   -2.6509423   -1.5771164  0.072329199   -2.6509423    1.0738259   578779 
 2950000    1.0041893   -2.6510536   -2.6510536   -1.5771159  0.060479609   -2.6510536    1.0739377   578779 
 2951000    1.0052686   -2.6514929   -2.6514929   -1.5764009   0.05884454   -2.6514929     1.075092   578779 
 2952000    1.0069477   -2.6526063   -2.6526063   -1.5757186  0.069543077   -2.6526063    1.0768877   578779 
 2953000    1.0051909   -2.6508934   -2.6508934   -1.5758846  0.078161786   -2.6508934    1.0750089   578779 
 2954000    1.0043287   -2.6503261   -2.6503261   -1.5762393  0.072034912   -2.6503261    1.0740868   578779 
 2955000     1.004989   -2.6509049   -2.6509049   -1.5761119  0.071009585   -2.6509049     1.074793   578779 
 2956000    1.0047106   -2.6504602   -2.6504602   -1.5759649   0.06689225   -2.6504602    1.0744952   578779 
 2957000    1.0039195   -2.6499986   -2.6499986   -1.5763495  0.061348662   -2.6499986    1.0736491   578779 
 2958000    1.0041808   -2.6497572   -2.6497572   -1.5758286  0.066590219   -2.6497572    1.0739287   578779 
 2959000    1.0034244   -2.6481054   -2.6481054   -1.5749858  0.069820784   -2.6481054    1.0731197   578779 
 2960000    1.0057529   -2.6503433   -2.6503433   -1.5747333  0.064892556   -2.6503433    1.0756099   578779 
 2961000    1.0053603   -2.6496914   -2.6496914   -1.5745013   0.06345255   -2.6496914    1.0751901   578779 
 2962000    1.0070605   -2.6516682   -2.6516682   -1.5746599  0.062131115   -2.6516682    1.0770083   578779 
 2963000    1.0062617   -2.6512187   -2.6512187   -1.5750646   0.06408265   -2.6512187     1.076154   578779 
 2964000    1.0037033   -2.6490298   -2.6490298   -1.5756119  0.066034459   -2.6490298    1.0734179   578779 
 2965000    1.0042119   -2.6495322   -2.6495322   -1.5755704  0.066628389   -2.6495322    1.0739618   578779 
 2966000    1.0040069   -2.6486881   -2.6486881   -1.5749456  0.072729304   -2.6486881    1.0737426   578779 
 2967000    1.0063682   -2.6515977   -2.6515977   -1.5753297  0.070094938   -2.6515977    1.0762679   578779 
 2968000    1.0036121    -2.648498    -2.648498   -1.5751776  0.059488399    -2.648498    1.0733204   578779 
 2969000    1.0045285   -2.6495647   -2.6495647   -1.5752643  0.054659002   -2.6495647    1.0743004   578779 
 2970000    1.0053289    -2.650412    -2.650412   -1.5752556  0.063155583    -2.650412    1.0751564   578779 
 2971000    1.0048455   -2.6505799   -2.6505799   -1.5759404  0.063781055   -2.6505799    1.0746395   578779 
 2972000    1.0033318    -2.649778    -2.649778   -1.5767573  0.066030265    -2.649778    1.0730206   578779 
 2973000    1.0038053   -2.6507479   -2.6507479   -1.5772209  0.059966328   -2.6507479     1.073527   578779 
 2974000    1.0040606   -2.6507843   -2.6507843   -1.5769842  0.059338177   -2.6507843       1.0738   578779 
 2975000     1.004192   -2.6497464   -2.6497464   -1.5758058  0.062911308   -2.6497464    1.0739406   578779 
 2976000    1.0045842   -2.6510062   -2.6510062   -1.5766462  0.066713503   -2.6510062      1.07436   578779 
 2977000    1.0060002   -2.6529591   -2.6529591   -1.5770847  0.059244605   -2.6529591    1.0758744   578779 
 2978000    1.0040851   -2.6510003   -2.6510003    -1.577174  0.069508777   -2.6510003    1.0738262   578779 
 2979000     1.004245   -2.6512415   -2.6512415   -1.5772443  0.056581991   -2.6512415    1.0739973   578779 
 2980000    1.0050006   -2.6515377   -2.6515377   -1.5767323  0.085308958   -2.6515377    1.0748054   578779 
 2981000     1.004942   -2.6520953   -2.6520953   -1.5773526  0.064787977   -2.6520953    1.0747427   578779 
 2982000    1.0053661   -2.6528628   -2.6528628   -1.5776665   0.04731092   -2.6528628    1.0751962   578779 
 2983000    1.0050793    -2.652719    -2.652719   -1.5778295  0.059323864    -2.652719    1.0748895   578779 
 2984000    1.0058039   -2.6537924   -2.6537924    -1.578128   0.06780131   -2.6537924    1.0756644   578779 
 2985000    1.0061429   -2.6543011   -2.6543011   -1.5782741   0.05881644   -2.6543011     1.076027   578779 
 2986000    1.0038232   -2.6525508   -2.6525508   -1.5790046  0.070242433   -2.6525508    1.0735462   578779 
 2987000     1.004687   -2.6531517   -2.6531517   -1.5786818  0.061035489   -2.6531517    1.0744699   578779 
 2988000    1.0059267   -2.6547084   -2.6547084   -1.5789126  0.057768639   -2.6547084    1.0757958   578779 
 2989000    1.0027534    -2.651864    -2.651864   -1.5794619  0.059647018    -2.651864    1.0724021   578779 
 2990000    1.0033297   -2.6517877   -2.6517877   -1.5787693  0.065668806   -2.6517877    1.0730184   578779 
 2991000    1.0042619    -2.652428    -2.652428   -1.5784126   0.06508325    -2.652428    1.0740153   578779 
 2992000    1.0047615   -2.6526598   -2.6526598   -1.5781102   0.04767107   -2.6526598    1.0745496   578779 
 2993000    1.0042125    -2.651652    -2.651652   -1.5776895  0.066304008    -2.651652    1.0739625   578779 
 2994000    1.0047561    -2.653287    -2.653287   -1.5787432   0.04483914    -2.653287    1.0745439   578779 
 2995000    1.0045183   -2.6520716   -2.6520716    -1.577782  0.062790677   -2.6520716    1.0742895   578779 
 2996000    1.0037018   -2.6517011   -2.6517011   -1.5782847    0.0733326   -2.6517011    1.0734164   578779 
 2997000    1.0044012   -2.6523143   -2.6523143   -1.5781501  0.067997322   -2.6523143    1.0741643   578779 
 2998000      1.00459   -2.6517049   -2.6517049   -1.5773386  0.070810181   -2.6517049    1.0743663   578779 
 2999000    1.0046285    -2.652542    -2.652542   -1.5781346  0.059696689    -2.652542    1.0744074   578779 
 3000000    1.0037545   -2.6514334   -2.6514334   -1.5779607  0.062310194   -2.6514334    1.0734727   578779 
 3001000    1.0046278   -2.6516927   -2.6516927    -1.577286  0.064792861   -2.6516927    1.0744067   578779 
 3002000    1.0046798   -2.6519407   -2.6519407   -1.5774785  0.068036143   -2.6519407    1.0744622   578779 
 3003000     1.006382   -2.6535449   -2.6535449   -1.5772622  0.055890878   -2.6535449    1.0762827   578779 
 3004000    1.0058157    -2.653601    -2.653601   -1.5779239  0.062310581    -2.653601    1.0756771   578779 
 3005000    1.0043381   -2.6520123   -2.6520123   -1.5779155  0.066091094   -2.6520123    1.0740968   578779 
 3006000    1.0024118    -2.649832    -2.649832   -1.5777952  0.058047357    -2.649832    1.0720368   578779 
 3007000    1.0039322   -2.6512628   -2.6512628      -1.5776  0.057479378   -2.6512628    1.0736628   578779 
 3008000    1.0046515   -2.6518723   -2.6518723   -1.5774403  0.059832042   -2.6518723     1.074432   578779 
 3009000    1.0030948   -2.6503528   -2.6503528   -1.5775855  0.059635735   -2.6503528    1.0727672   578779 
 3010000    1.0041922   -2.6512872   -2.6512872   -1.5773464  0.071990802   -2.6512872    1.0739408   578779 
 3011000    1.0053031   -2.6520787   -2.6520787   -1.5769498  0.067179371   -2.6520787    1.0751289   578779 
 3012000    1.0065248   -2.6519309   -2.6519309   -1.5754955  0.055612808   -2.6519309    1.0764354   578779 
 3013000    1.0059024    -2.651087    -2.651087   -1.5753171  0.056150368    -2.651087    1.0757698   578779 
 3014000    1.0059547   -2.6516674   -2.6516674   -1.5758417  0.066327405   -2.6516674    1.0758257   578779 
 3015000    1.0050378   -2.6510376   -2.6510376   -1.5761925  0.070418611   -2.6510376    1.0748451   578779 
 3016000    1.0056256   -2.6512036   -2.6512036   -1.5757299  0.067939367   -2.6512036    1.0754737   578779 
 3017000    1.0043451   -2.6497722   -2.6497722   -1.5756679  0.060677866   -2.6497722    1.0741043   578779 
 3018000    1.0054748   -2.6514459   -2.6514459   -1.5761334  0.074101893   -2.6514459    1.0753125   578779 
 3019000    1.0046835   -2.6504168   -2.6504168   -1.5759506  0.071165548   -2.6504168    1.0744662   578779 
 3020000    1.0039215   -2.6488133   -2.6488133    -1.575162  0.057648855   -2.6488133    1.0736513   578779 
 3021000    1.0056079   -2.6505736   -2.6505736   -1.5751188  0.061330143   -2.6505736    1.0754549   578779 
 3022000    1.0047049   -2.6499212   -2.6499212   -1.5754321   0.06467247   -2.6499212    1.0744891   578779 
 3023000    1.0058932   -2.6513796   -2.6513796   -1.5756197  0.064357162   -2.6513796      1.07576   578779 
 3024000    1.0064347   -2.6523315   -2.6523315   -1.5759924  0.067008508   -2.6523315    1.0763391   578779 
 3025000    1.0056485   -2.6523233   -2.6523233   -1.5768251  0.053428004   -2.6523233    1.0754983   578779 
 3026000    1.0035047   -2.6501659   -2.6501659   -1.5769604   0.06401855   -2.6501659    1.0732056   578779 
 3027000    1.0031266   -2.6503863   -2.6503863   -1.5775851   0.06167019   -2.6503863    1.0728011   578779 
 3028000    1.0053717   -2.6516514   -2.6516514   -1.5764491  0.056334502   -2.6516514    1.0752022   578779 
 3029000    1.0029964   -2.6497579   -2.6497579    -1.577096  0.062944137   -2.6497579    1.0726619   578779 
 3030000    1.0047794   -2.6516418   -2.6516418   -1.5770729  0.048739618   -2.6516418    1.0745688   578779 
 3031000    1.0040688   -2.6520796   -2.6520796   -1.5782708  0.057859366   -2.6520796    1.0738088   578779 
 3032000    1.0048546   -2.6522938   -2.6522938   -1.5776446  0.051658555   -2.6522938    1.0746492   578779 
 3033000    1.0039029    -2.651277    -2.651277   -1.5776456  0.055579583    -2.651277    1.0736314   578779 
 3034000    1.0065196   -2.6536154   -2.6536154   -1.5771856  0.062245128   -2.6536154    1.0764298   578779 
 3035000    1.0065301   -2.6533926   -2.6533926   -1.5769516  0.065199788   -2.6533926     1.076441   578779 
 3036000    1.0051488   -2.6526549   -2.6526549   -1.5776911  0.070063937   -2.6526549    1.0749638   578779 
 3037000    1.0046116   -2.6522818   -2.6522818   -1.5778925   0.07832543   -2.6522818    1.0743893   578779 
 3038000    1.0067979   -2.6537098   -2.6537098   -1.5769823  0.069384808   -2.6537098    1.0767275   578779 
 3039000      1.00581   -2.6535358   -2.6535358   -1.5778648  0.067822605   -2.6535358     1.075671   578779 
 3040000    1.0049391   -2.6529065   -2.6529065    -1.578167  0.073023952   -2.6529065    1.0747396   578779 
 3041000     1.006153   -2.6536921   -2.6536921   -1.5776543  0.068658791   -2.6536921    1.0760378   578779 
 3042000    1.0055996   -2.6534724   -2.6534724   -1.5780264  0.077097211   -2.6534724     1.075446   578779 
 3043000    1.0056769   -2.6540135   -2.6540135   -1.5784849  0.069275563   -2.6540135    1.0755286   578779 
 3044000    1.0056306   -2.6543382   -2.6543382   -1.5788591   0.06641542   -2.6543382    1.0754791   578779 
 3045000    1.0037043    -2.652816    -2.652816    -1.579397  0.065394936    -2.652816     1.073419   578779 
 3046000    1.0044672   -2.6539443   -2.6539443   -1.5797094  0.059356264   -2.6539443    1.0742349   578779 
 3047000    1.0053595   -2.6545861   -2.6545861   -1.5793969  0.056142622   -2.6545861    1.0751892   578779 
 3048000    1.0050079   -2.6542179   -2.6542179   -1.5794048  0.066034314   -2.6542179    1.0748131   578779 
 3049000    1.0039377    -2.653219    -2.653219   -1.5795504  0.067256506    -2.653219    1.0736686   578779 
 3050000    1.0064242   -2.6546249   -2.6546249   -1.5782971  0.072912876   -2.6546249    1.0763278   578779 
 3051000    1.0058881   -2.6544145   -2.6544145   -1.5786601  0.058426175   -2.6544145    1.0757545   578779 
 3052000    1.0047308    -2.653093    -2.653093   -1.5785761  0.066141367    -2.653093    1.0745169   578779 
 3053000    1.0049999   -2.6532236   -2.6532236    -1.578419  0.061809746   -2.6532236    1.0748046   578779 
 3054000    1.0062341   -2.6551143   -2.6551143   -1.5789898   0.05820492   -2.6551143    1.0761245   578779 
 3055000    1.0054187   -2.6538375   -2.6538375    -1.578585  0.061318564   -2.6538375    1.0752525   578779 
 3056000    1.0046128   -2.6526183   -2.6526183   -1.5782277    0.0777609   -2.6526183    1.0743906   578779 
 3057000     1.005569   -2.6531979   -2.6531979   -1.5777847   0.08546259   -2.6531979    1.0754132   578779 
 3058000    1.0044293   -2.6521994   -2.6521994    -1.578005  0.066622762   -2.6521994    1.0741944   578779 
 3059000    1.0062072   -2.6540716   -2.6540716   -1.5779758  0.067267639   -2.6540716    1.0760958   578779 
 3060000     1.005673   -2.6528284   -2.6528284    -1.577304  0.077419837   -2.6528284    1.0755245   578779 
 3061000       1.0063   -2.6540377   -2.6540377   -1.5778427   0.05946574   -2.6540377     1.076195   578779 
 3062000    1.0048229   -2.6515326   -2.6515326   -1.5769173  0.075178769   -2.6515326    1.0746153   578779 
 3063000    1.0052694   -2.6526575   -2.6526575   -1.5775647  0.057280396   -2.6526575    1.0750928   578779 
 3064000    1.0031178   -2.6502122   -2.6502122   -1.5774204  0.068564882   -2.6502122    1.0727918   578779 
 3065000    1.0027379   -2.6500755   -2.6500755     -1.57769  0.065386236   -2.6500755    1.0723855   578779 
 3066000    1.0047477   -2.6515979   -2.6515979   -1.5770631  0.070042657   -2.6515979    1.0745348   578779 
 3067000    1.0023945   -2.6482628   -2.6482628   -1.5762445   0.06587818   -2.6482628    1.0720183   578779 
 3068000    1.0042245   -2.6504518   -2.6504518   -1.5764765  0.082428656   -2.6504518    1.0739753   578779 
 3069000    1.0027999   -2.6498023   -2.6498023   -1.5773505  0.068264243   -2.6498023    1.0724518   578779 
 3070000    1.0024538   -2.6498845   -2.6498845   -1.5778029  0.054364247   -2.6498845    1.0720817   578779 
 3071000    1.0037335   -2.6511792   -2.6511792   -1.5777289  0.069231162   -2.6511792    1.0734503   578779 
 3072000    1.0038044   -2.6501336   -2.6501336   -1.5766075  0.061717588   -2.6501336    1.0735261   578779 
 3073000    1.0050635   -2.6516849   -2.6516849   -1.5768124  0.064816107   -2.6516849    1.0748726   578779 
 3074000    1.0055342   -2.6518425   -2.6518425   -1.5764664  0.054237841   -2.6518425     1.075376   578779 
 3075000    1.0058193   -2.6516327   -2.6516327   -1.5759518  0.061184683   -2.6516327    1.0756809   578779 
 3076000     1.005851   -2.6524583   -2.6524583   -1.5767435  0.064417072   -2.6524583    1.0757148   578779 
 3077000    1.0050445   -2.6512967   -2.6512967   -1.5764444  0.058429006   -2.6512967    1.0748523   578779 
 3078000     1.004282   -2.6503168   -2.6503168     -1.57628  0.064822123   -2.6503168    1.0740369   578779 
 3079000    1.0032149   -2.6498966   -2.6498966    -1.577001  0.064046723   -2.6498966    1.0728956   578779 
 3080000    1.0034569   -2.6490317   -2.6490317   -1.5758773  0.065325306   -2.6490317    1.0731544   578779 
 3081000    1.0045046   -2.6506999   -2.6506999    -1.576425  0.056756342   -2.6506999    1.0742749   578779 
 3082000    1.0044046   -2.6507501   -2.6507501   -1.5765821   0.06597482   -2.6507501     1.074168   578779 
 3083000      1.00592    -2.652873    -2.652873   -1.5770844  0.074512199    -2.652873    1.0757886   578779 
 3084000    1.0046393    -2.651844    -2.651844    -1.577425  0.064507765    -2.651844     1.074419   578779 
 3085000    1.0053593   -2.6521896   -2.6521896   -1.5770006  0.050806719   -2.6521896     1.075189   578779 
 3086000    1.0050196   -2.6516954   -2.6516954   -1.5768697  0.070069846   -2.6516954    1.0748257   578779 
 3087000    1.0054106    -2.651629    -2.651629   -1.5763852  0.062349311    -2.651629    1.0752438   578779 
 3088000    1.0046006   -2.6513825   -2.6513825   -1.5770049  0.076842597   -2.6513825    1.0743776   578779 
 3089000    1.0059334   -2.6527534   -2.6527534   -1.5769504  0.064923803   -2.6527534     1.075803   578779 
 3090000    1.0066315   -2.6537988   -2.6537988   -1.5772493   0.06996415   -2.6537988    1.0765496   578779 
 3091000    1.0047457    -2.651686    -2.651686   -1.5771532  0.069460048    -2.651686    1.0745328   578779 
 3092000    1.0070147   -2.6534173   -2.6534173    -1.576458  0.062796887   -2.6534173    1.0769593   578779 
 3093000    1.0047555   -2.6517145   -2.6517145   -1.5771712  0.062003115   -2.6517145    1.0745433   578779 
 3094000    1.0046517   -2.6510309   -2.6510309   -1.5765986  0.075904771   -2.6510309    1.0744323   578779 
 3095000    1.0049341   -2.6518744   -2.6518744   -1.5771401  0.062007058   -2.6518744    1.0747342   578779 
 3096000    1.0054262   -2.6528371   -2.6528371   -1.5775766  0.056908709   -2.6528371    1.0752605   578779 
 3097000    1.0036635   -2.6500902   -2.6500902   -1.5767148  0.073699069   -2.6500902    1.0733754   578779 
 3098000    1.0051225    -2.651826    -2.651826   -1.5768902  0.067605584    -2.651826    1.0749357   578779 
 3099000    1.0046762   -2.6520788   -2.6520788   -1.5776204  0.062100034   -2.6520788    1.0744584   578779 
 3100000     1.004607   -2.6512446   -2.6512446   -1.5768602   0.06880408   -2.6512446    1.0743844   578779 
 3101000    1.0061756   -2.6530027   -2.6530027   -1.5769408  0.071791819   -2.6530027     1.076062   578779 
 3102000    1.0056787   -2.6522545   -2.6522545   -1.5767239  0.065790447   -2.6522545    1.0755306   578779 
 3103000    1.0048891   -2.6508406   -2.6508406   -1.5761545  0.073608357   -2.6508406    1.0746861   578779 
 3104000    1.0051654   -2.6509444   -2.6509444   -1.5759628  0.055150179   -2.6509444    1.0749816   578779 
 3105000    1.0045031   -2.6502687   -2.6502687   -1.5759955  0.071479502   -2.6502687    1.0742733   578779 
 3106000    1.0038593    -2.650506    -2.650506   -1.5769213  0.081871344    -2.650506    1.0735847   578779 
 3107000    1.0030115   -2.6494119   -2.6494119   -1.5767338  0.063729488   -2.6494119    1.0726781   578779 
 3108000    1.0039856   -2.6493608   -2.6493608   -1.5756409  0.062951273   -2.6493608    1.0737199   578779 
 3109000     1.004491    -2.651005    -2.651005   -1.5767446  0.060390666    -2.651005    1.0742604   578779 
 3110000    1.0037993    -2.649907    -2.649907   -1.5763864   0.05752684    -2.649907    1.0735206   578779 
 3111000    1.0045392   -2.6507141   -2.6507141   -1.5764022  0.068975654   -2.6507141    1.0743119   578779 
 3112000    1.0043783   -2.6502922   -2.6502922   -1.5761524  0.069616044   -2.6502922    1.0741398   578779 
 3113000     1.006247   -2.6532207   -2.6532207   -1.5770824  0.063789895   -2.6532207    1.0761384   578779 
 3114000    1.0041738   -2.6512378   -2.6512378   -1.5773167  0.054318467   -2.6512378    1.0739211   578779 
 3115000    1.0054087   -2.6515205   -2.6515205   -1.5762787  0.067061578   -2.6515205    1.0752418   578779 
 3116000    1.0051983   -2.6521873   -2.6521873   -1.5771705  0.056324043   -2.6521873    1.0750168   578779 
 3117000    1.0035186   -2.6503595   -2.6503595   -1.5771391  0.070983612   -2.6503595    1.0732204   578779 
 3118000    1.0051217   -2.6512818   -2.6512818   -1.5763469   0.05908331   -2.6512818    1.0749349   578779 
 3119000    1.0057087   -2.6520777   -2.6520777   -1.5765151  0.066453401   -2.6520777    1.0755626   578779 
 3120000    1.0049215   -2.6518307   -2.6518307   -1.5771099  0.067032863   -2.6518307    1.0747208   578779 
 3121000    1.0040417   -2.6516273   -2.6516273   -1.5778475   0.06296128   -2.6516273    1.0737798   578779 
 3122000    1.0054337   -2.6533711   -2.6533711   -1.5781025  0.058530029   -2.6533711    1.0752686   578779 
 3123000    1.0058793    -2.653316    -2.653316    -1.577571  0.070449141    -2.653316     1.075745   578779 
 3124000    1.0051419   -2.6520467   -2.6520467   -1.5770903  0.079949788   -2.6520467    1.0749565   578779 
 3125000    1.0053365   -2.6529359   -2.6529359   -1.5777713  0.066244472   -2.6529359    1.0751646   578779 
 3126000    1.0057254   -2.6527068   -2.6527068   -1.5771263  0.061817089   -2.6527068    1.0755805   578779 
 3127000    1.0065246   -2.6533093   -2.6533093   -1.5768741  0.066268711   -2.6533093    1.0764352   578779 
 3128000    1.0065789    -2.653864    -2.653864   -1.5773707  0.060764809    -2.653864    1.0764933   578779 
 3129000    1.0045542   -2.6518064   -2.6518064   -1.5774784  0.074747141   -2.6518064    1.0743279   578779 
 3130000    1.0057746   -2.6530321   -2.6530321    -1.577399  0.060380885   -2.6530321    1.0756331   578779 
 3131000    1.0046587    -2.651703    -2.651703   -1.5772633  0.069079779    -2.651703    1.0744397   578779 
 3132000    1.0059305   -2.6525286   -2.6525286   -1.5767287  0.072775624   -2.6525286    1.0757999   578779 
 3133000     1.005426   -2.6519281   -2.6519281   -1.5766678  0.066844766   -2.6519281    1.0752603   578779 
 3134000    1.0034967   -2.6501406   -2.6501406   -1.5769435  0.054733419   -2.6501406     1.073197   578779 
 3135000    1.0046078   -2.6506089   -2.6506089   -1.5762236  0.073743333   -2.6506089    1.0743853   578779 
 3136000    1.0042707   -2.6512015   -2.6512015   -1.5771766  0.052413752   -2.6512015    1.0740248   578779 
 3137000     1.004535   -2.6506108   -2.6506108   -1.5763034  0.055723904   -2.6506108    1.0743074   578779 
 3138000    1.0038514   -2.6493291   -2.6493291   -1.5757527  0.065048245   -2.6493291    1.0735763   578779 
 3139000    1.0062835   -2.6524909   -2.6524909   -1.5763135  0.066037081   -2.6524909    1.0761774   578779 
 3140000    1.0037016   -2.6491692   -2.6491692   -1.5757531  0.078282242   -2.6491692    1.0734161   578779 
 3141000    1.0036109   -2.6493866   -2.6493866   -1.5760676  0.070651838   -2.6493866    1.0733191   578779 
 3142000    1.0042637   -2.6503918   -2.6503918   -1.5763744  0.055766521   -2.6503918    1.0740173   578779 
 3143000    1.0047113    -2.650193    -2.650193    -1.575697  0.057018658    -2.650193     1.074496   578779 
 3144000    1.0044362   -2.6504053   -2.6504053   -1.5762035  0.064400213   -2.6504053    1.0742018   578779 
 3145000    1.0029175   -2.6491333   -2.6491333   -1.5765557  0.062927784   -2.6491333    1.0725776   578779 
 3146000    1.0043571   -2.6506343   -2.6506343   -1.5765172  0.072346581   -2.6506343    1.0741171   578779 
 3147000    1.0044774   -2.6506256   -2.6506256   -1.5763798  0.070217135   -2.6506256    1.0742458   578779 
 3148000     1.003309   -2.6495594   -2.6495594   -1.5765631  0.065013864   -2.6495594    1.0729963   578779 
 3149000    1.0031012   -2.6502015   -2.6502015   -1.5774275  0.057903209   -2.6502015     1.072774   578779 
 3150000    1.0034972   -2.6498536   -2.6498536   -1.5766561  0.064782605   -2.6498536    1.0731975   578779 
 3151000    1.0027472   -2.6501613   -2.6501613   -1.5777659  0.070050095   -2.6501613    1.0723955   578779 
 3152000    1.0032865   -2.6517152   -2.6517152   -1.5787431  0.060965557   -2.6517152    1.0729722   578779 
 3153000    1.0048171   -2.6520599   -2.6520599   -1.5774508   0.06711718   -2.6520599    1.0746091   578779 
 3154000    1.0055588   -2.6526835   -2.6526835   -1.5772811  0.048284618   -2.6526835    1.0754024   578779 
 3155000    1.0050593   -2.6531435   -2.6531435   -1.5782754  0.052427699   -2.6531435    1.0748681   578779 
 3156000    1.0043932    -2.651171    -2.651171   -1.5770152  0.062345934    -2.651171    1.0741558   578779 
 3157000    1.0042323   -2.6511688   -2.6511688   -1.5771851  0.079820419   -2.6511688    1.0739837   578779 
 3158000    1.0048572   -2.6524007   -2.6524007   -1.5777487  0.058692271   -2.6524007     1.074652   578779 
 3159000    1.0068155    -2.653428    -2.653428   -1.5766817  0.068643024    -2.653428    1.0767463   578779 
 3160000    1.0043152   -2.6515337   -2.6515337   -1.5774613  0.076778929   -2.6515337    1.0740724   578779 
 3161000    1.0059394   -2.6533118   -2.6533118   -1.5775025  0.056956809   -2.6533118    1.0758093   578779 
 3162000    1.0062813   -2.6535494   -2.6535494   -1.5773743  0.062912613   -2.6535494    1.0761751   578779 
 3163000    1.0042192   -2.6516492   -2.6516492   -1.5776795  0.077985144   -2.6516492    1.0739697   578779 
 3164000    1.0053036   -2.6535241   -2.6535241   -1.5783946  0.076618328   -2.6535241    1.0751294   578779 
 3165000    1.0047923   -2.6529281   -2.6529281   -1.5783456  0.069098795   -2.6529281    1.0745826   578779 
 3166000    1.0046293     -2.65219     -2.65219   -1.5777818  0.067936609     -2.65219    1.0744082   578779 
 3167000    1.0051954    -2.652196    -2.652196   -1.5771823  0.078135574    -2.652196    1.0750137   578779 
 3168000    1.0053487   -2.6520355   -2.6520355   -1.5768579  0.070793434   -2.6520355    1.0751776   578779 
 3169000    1.0054034   -2.6528603   -2.6528603   -1.5776242  0.072096228   -2.6528603    1.0752362   578779 
 3170000    1.0042333   -2.6516321   -2.6516321   -1.5776473  0.059699417   -2.6516321    1.0739848   578779 
 3171000    1.0050099   -2.6521704   -2.6521704   -1.5773551  0.053028493   -2.6521704    1.0748153   578779 
 3172000    1.0028152   -2.6493272   -2.6493272   -1.5768591  0.064943258   -2.6493272    1.0724681   578779 
 3173000    1.0049147   -2.6512679   -2.6512679   -1.5765544  0.072152523   -2.6512679    1.0747135   578779 
 3174000    1.0050321   -2.6514976   -2.6514976   -1.5766585  0.067933382   -2.6514976     1.074839   578779 
 3175000     1.003969   -2.6495057   -2.6495057   -1.5758035  0.068672921   -2.6495057    1.0737022   578779 
 3176000    1.0036287   -2.6489114   -2.6489114   -1.5755732  0.071470262   -2.6489114    1.0733382   578779 
 3177000      1.00418   -2.6494729   -2.6494729   -1.5755451  0.071642974   -2.6494729    1.0739278   578779 
 3178000    1.0045629   -2.6511157   -2.6511157   -1.5767785  0.063406138   -2.6511157    1.0743372   578779 
 3179000     1.002804   -2.6485524   -2.6485524   -1.5760962  0.061049482   -2.6485524    1.0724562   578779 
 3180000    1.0032369   -2.6495535   -2.6495535   -1.5766343  0.070259971   -2.6495535    1.0729192   578779 
 3181000    1.0023197    -2.648401    -2.648401   -1.5764628  0.056155212    -2.648401    1.0719382   578779 
 3182000    1.0036807   -2.6494369   -2.6494369   -1.5760431  0.069134714   -2.6494369    1.0733938   578779 
 3183000    1.0034864   -2.6495751   -2.6495751   -1.5763891  0.067848478   -2.6495751    1.0731859   578779 
 3184000    1.0053201   -2.6519937   -2.6519937   -1.5768466  0.068220262   -2.6519937    1.0751471   578779 
 3185000    1.0046579   -2.6507593   -2.6507593   -1.5763204  0.063962977   -2.6507593    1.0744388   578779 
 3186000    1.0051343   -2.6514493   -2.6514493   -1.5765009  0.070314491   -2.6514493    1.0749483   578779 
 3187000    1.0063104     -2.65152     -2.65152   -1.5753139  0.068512106     -2.65152    1.0762062   578779 
 3188000    1.0053445   -2.6505708   -2.6505708   -1.5753976  0.066998555   -2.6505708    1.0751732   578779 
 3189000    1.0053402    -2.650739    -2.650739   -1.5755704  0.055560098    -2.650739    1.0751686   578779 
 3190000    1.0069722   -2.6532397   -2.6532397   -1.5763258  0.063305204   -2.6532397    1.0769139   578779 
 3191000    1.0054377   -2.6516236   -2.6516236   -1.5763508  0.064421102   -2.6516236    1.0752728   578779 
 3192000    1.0055956   -2.6513335   -2.6513335   -1.5758918  0.058794195   -2.6513335    1.0754417   578779 
 3193000    1.0072433   -2.6536786   -2.6536786   -1.5764749  0.063465701   -2.6536786    1.0772038   578779 
 3194000    1.0052152    -2.650151    -2.650151   -1.5751161  0.073105801    -2.650151    1.0750348   578779 
 3195000    1.0060621   -2.6515042   -2.6515042   -1.5755636  0.070817176   -2.6515042    1.0759406   578779 
 3196000    1.0051346   -2.6514662   -2.6514662   -1.5765175  0.060954445   -2.6514662    1.0749487   578779 
 3197000    1.0055961   -2.6526289   -2.6526289   -1.5771866  0.070050804   -2.6526289    1.0754422   578779 
 3198000    1.0050563   -2.6519341   -2.6519341   -1.5770692  0.073278172   -2.6519341    1.0748649   578779 
 3199000    1.0058707   -2.6519197   -2.6519197   -1.5761838  0.071626903   -2.6519197    1.0757359   578779 
 3200000    1.0051245   -2.6509532   -2.6509532   -1.5760154  0.060345063   -2.6509532    1.0749378   578779 
 3201000    1.0040977   -2.6499712   -2.6499712   -1.5761314  0.076357155   -2.6499712    1.0738397   578779 
 3202000    1.0047605   -2.6502281   -2.6502281   -1.5756795  0.076098738   -2.6502281    1.0745486   578779 
 3203000    1.0055943   -2.6511914   -2.6511914   -1.5757512   0.05846233   -2.6511914    1.0754403   578779 
 3204000    1.0054958   -2.6504132   -2.6504132   -1.5750783  0.056958301   -2.6504132    1.0753349   578779 
 3205000    1.0046803    -2.651443    -2.651443   -1.5769801  0.052904354    -2.651443    1.0744629   578779 
 3206000    1.0047043    -2.651618    -2.651618   -1.5771296  0.073337441    -2.651618    1.0744884   578779 
 3207000    1.0039803   -2.6508594   -2.6508594   -1.5771452  0.068526809   -2.6508594    1.0737142   578779 
 3208000    1.0043565   -2.6512993   -2.6512993   -1.5771828  0.063643941   -2.6512993    1.0741165   578779 
 3209000    1.0055788   -2.6520732   -2.6520732   -1.5766495  0.062242264   -2.6520732    1.0754237   578779 
 3210000    1.0039641   -2.6502689   -2.6502689   -1.5765721  0.056170585   -2.6502689    1.0736968   578779 
 3211000     1.002832   -2.6490197   -2.6490197   -1.5765335  0.070544391   -2.6490197    1.0724862   578779 
 3212000    1.0039966   -2.6511934   -2.6511934   -1.5774617  0.063962418   -2.6511934    1.0737316   578779 
 3213000    1.0032075   -2.6498474   -2.6498474   -1.5769597  0.070723071   -2.6498474    1.0728877   578779 
 3214000    1.0065576    -2.652869    -2.652869   -1.5763985  0.071369655    -2.652869    1.0764705   578779 
 3215000    1.0055484   -2.6522253   -2.6522253   -1.5768341  0.065870062   -2.6522253    1.0753912   578779 
 3216000    1.0051919   -2.6515075   -2.6515075   -1.5764975  0.061123191   -2.6515075      1.07501   578779 
 3217000     1.006812   -2.6525978   -2.6525978   -1.5758552  0.063719189   -2.6525978    1.0767426   578779 
 3218000    1.0053498   -2.6519189   -2.6519189   -1.5767401  0.075098888   -2.6519189    1.0751788   578779 
 3219000    1.0061024   -2.6522325   -2.6522325   -1.5762488  0.070117727   -2.6522325    1.0759837   578779 
 3220000    1.0048188   -2.6517375   -2.6517375   -1.5771265  0.068462007   -2.6517375    1.0746109   578779 
 3221000    1.0053714   -2.6517128   -2.6517128   -1.5765109  0.070270225   -2.6517128    1.0752019   578779 
 3222000     1.004583   -2.6515274   -2.6515274   -1.5771687  0.075350076   -2.6515274    1.0743588   578779 
 3223000    1.0055725   -2.6532791   -2.6532791   -1.5778621  0.066554332   -2.6532791     1.075417   578779 
 3224000    1.0050265   -2.6523643   -2.6523643   -1.5775312  0.058663235   -2.6523643     1.074833   578779 
 3225000    1.0057824   -2.6533251   -2.6533251   -1.5776836  0.076577234   -2.6533251    1.0756415   578779 
 3226000    1.0067891   -2.6551249   -2.6551249   -1.5784068  0.064785849   -2.6551249     1.076718   578779 
 3227000    1.0052963   -2.6534892   -2.6534892   -1.5783676  0.076054687   -2.6534892    1.0751216   578779 
 3228000     1.004736   -2.6526739   -2.6526739   -1.5781516  0.065054434   -2.6526739    1.0745223   578779 
 3229000    1.0038089   -2.6510452   -2.6510452   -1.5775143  0.074023508   -2.6510452    1.0735309   578779 
 3230000    1.0042133   -2.6512679   -2.6512679   -1.5773044  0.076209165   -2.6512679    1.0739634   578779 
 3231000    1.0053877   -2.6532133   -2.6532133    -1.577994  0.066354635   -2.6532133    1.0752194   578779 
 3232000    1.0040647   -2.6524724   -2.6524724    -1.578668  0.058501613   -2.6524724    1.0738044   578779 
 3233000    1.0028813   -2.6514535   -2.6514535   -1.5789147  0.072163829   -2.6514535    1.0725388   578779 
 3234000    1.0040541   -2.6529004   -2.6529004   -1.5791073  0.053734811   -2.6529004    1.0737931   578779 
 3235000    1.0034873   -2.6517981   -2.6517981   -1.5786111  0.057551852   -2.6517981     1.073187   578779 
 3236000    1.0032761    -2.653022    -2.653022    -1.580061  0.065690156    -2.653022     1.072961   578779 
 3237000    1.0033685   -2.6518121   -2.6518121   -1.5787523  0.066426807   -2.6518121    1.0730599   578779 
 3238000     1.002355   -2.6506462   -2.6506462   -1.5786702  0.060590432   -2.6506462     1.071976   578779 
 3239000    1.0039788   -2.6523294   -2.6523294   -1.5786168  0.066964056   -2.6523294    1.0737126   578779 
 3240000    1.0048753   -2.6522543   -2.6522543    -1.577583  0.061656509   -2.6522543    1.0746714   578779 
 3241000    1.0050193   -2.6522184   -2.6522184    -1.577393  0.067941669   -2.6522184    1.0748254   578779 
 3242000    1.0037127    -2.650198    -2.650198     -1.57677  0.076097757    -2.650198     1.073428   578779 
 3243000    1.0044804   -2.6507118   -2.6507118   -1.5764628  0.068998867   -2.6507118     1.074249   578779 
 3244000    1.0057249   -2.6522836   -2.6522836   -1.5767036  0.065799528   -2.6522836      1.07558   578779 
 3245000    1.0037507   -2.6500156   -2.6500156    -1.576547   0.07678487   -2.6500156    1.0734687   578779 
 3246000    1.0028642   -2.6492908   -2.6492908   -1.5767703  0.060537553   -2.6492908    1.0725205   578779 
 3247000    1.0041745   -2.6504972   -2.6504972   -1.5765753  0.058832682   -2.6504972    1.0739219   578779 
 3248000    1.0050106   -2.6508313   -2.6508313   -1.5760153  0.066370388   -2.6508313    1.0748161   578779 
 3249000    1.0052724   -2.6506045   -2.6506045   -1.5755084  0.072148138   -2.6506045    1.0750961   578779 
 3250000    1.0051839   -2.6499617   -2.6499617   -1.5749603  0.062756145   -2.6499617    1.0750014   578779 
 3251000    1.0039803   -2.6489234   -2.6489234   -1.5752092  0.061264611   -2.6489234    1.0737142   578779 
 3252000     1.004897   -2.6497153   -2.6497153   -1.5750207  0.066783152   -2.6497153    1.0746946   578779 
 3253000    1.0054602   -2.6503438   -2.6503438   -1.5750469   0.06254982   -2.6503438    1.0752969   578779 
 3254000    1.0037924   -2.6498417   -2.6498417   -1.5763285  0.062118466   -2.6498417    1.0735132   578779 
 3255000    1.0046315   -2.6513423   -2.6513423   -1.5769316   0.06126665   -2.6513423    1.0744106   578779 
 3256000    1.0037942   -2.6487001   -2.6487001   -1.5751849  0.075277823   -2.6487001    1.0735152   578779 
 3257000    1.0066651   -2.6508434   -2.6508434    -1.574258  0.077641524   -2.6508434    1.0765854   578779 
 3258000    1.0058768   -2.6503515   -2.6503515   -1.5746091  0.055866045   -2.6503515    1.0757425   578779 
 3259000    1.0049025   -2.6505606   -2.6505606   -1.5758602  0.066533403   -2.6505606    1.0747004   578779 
 3260000    1.0049619   -2.6507563   -2.6507563   -1.5759923  0.049931433   -2.6507563     1.074764   578779 
 3261000     1.004355   -2.6494083   -2.6494083   -1.5752934  0.070211552   -2.6494083    1.0741149   578779 
 3262000    1.0057721   -2.6504599   -2.6504599   -1.5748295  0.060683733   -2.6504599    1.0756304   578779 
 3263000    1.0056717   -2.6501827   -2.6501827   -1.5746596  0.076367821   -2.6501827    1.0755231   578779 
 3264000     1.007005    -2.651179    -2.651179     -1.57423  0.067797329    -2.651179     1.076949   578779 
 3265000    1.0056808    -2.649317    -2.649317   -1.5737841  0.064066259    -2.649317    1.0755328   578779 
 3266000    1.0061004   -2.6499539   -2.6499539   -1.5739724  0.070684227   -2.6499539    1.0759815   578779 
 3267000    1.0056725   -2.6494717   -2.6494717   -1.5739478  0.069521307   -2.6494717    1.0755239   578779 
 3268000    1.0063623   -2.6503711   -2.6503711   -1.5741094  0.061698948   -2.6503711    1.0762617   578779 
 3269000    1.0049225   -2.6492549   -2.6492549    -1.574533  0.073532139   -2.6492549    1.0747219   578779 
 3270000    1.0049687   -2.6492448   -2.6492448   -1.5744735   0.07234521   -2.6492448    1.0747712   578779 
 3271000    1.0049497   -2.6494559   -2.6494559    -1.574705  0.075882013   -2.6494559    1.0747509   578779 
 3272000    1.0039265   -2.6481121   -2.6481121   -1.5744555  0.068239943   -2.6481121    1.0736566   578779 
 3273000    1.0058383   -2.6507261   -2.6507261   -1.5750249  0.065346341   -2.6507261    1.0757012   578779 
 3274000    1.0053456    -2.650429    -2.650429   -1.5752546  0.067590216    -2.650429    1.0751743   578779 
 3275000    1.0044473   -2.6499042   -2.6499042   -1.5756906  0.064165495   -2.6499042    1.0742136   578779 
 3276000    1.0039138   -2.6483939   -2.6483939   -1.5747509  0.072993748   -2.6483939    1.0736431   578779 
 3277000    1.0049136    -2.649743    -2.649743   -1.5750307  0.065913294    -2.649743    1.0747124   578779 
 3278000    1.0039685   -2.6493506   -2.6493506   -1.5756491  0.069358956   -2.6493506    1.0737015   578779 
 3279000    1.0041587   -2.6493717   -2.6493717   -1.5754668  0.072412927   -2.6493717     1.073905   578779 
 3280000    1.0060845   -2.6510474   -2.6510474   -1.5750829  0.069002225   -2.6510474    1.0759645   578779 
 3281000    1.0057834   -2.6498819   -2.6498819   -1.5742394  0.069624798   -2.6498819    1.0756425   578779 
 3282000    1.0056351   -2.6495855   -2.6495855   -1.5741016  0.062408982   -2.6495855     1.075484   578779 
 3283000    1.0042066   -2.6490386   -2.6490386   -1.5750824  0.056957409   -2.6490386    1.0739562   578779 
 3284000    1.0042135   -2.6486791   -2.6486791   -1.5747155  0.059509947   -2.6486791    1.0739636   578779 
 3285000    1.0027662   -2.6485081   -2.6485081   -1.5760923  0.063808207   -2.6485081    1.0724158   578779 
 3286000    1.0032502    -2.649298    -2.649298   -1.5763646  0.076855108    -2.649298    1.0729333   578779 
 3287000     1.004284   -2.6499241   -2.6499241   -1.5758852  0.056674044   -2.6499241     1.074039   578779 
 3288000    1.0051307   -2.6498039   -2.6498039   -1.5748593  0.081801749   -2.6498039    1.0749445   578779 
 3289000    1.0060993   -2.6507647   -2.6507647   -1.5747843  0.073261898   -2.6507647    1.0759804   578779 
 3290000    1.0054038   -2.6500332   -2.6500332   -1.5747967  0.065434924   -2.6500332    1.0752365   578779 
 3291000    1.0042985   -2.6484396   -2.6484396   -1.5743851  0.069830062   -2.6484396    1.0740544   578779 
 3292000    1.0066522   -2.6508213   -2.6508213   -1.5742496  0.073323659   -2.6508213    1.0765717   578779 
 3293000    1.0064893   -2.6502143   -2.6502143   -1.5738169  0.078029449   -2.6502143    1.0763975   578779 
 3294000    1.0050556   -2.6489738   -2.6489738   -1.5741096  0.055332487   -2.6489738    1.0748642   578779 
 3295000    1.0050877   -2.6490637   -2.6490637   -1.5741652  0.063005026   -2.6490637    1.0748985   578779 
 3296000    1.0052792   -2.6497239   -2.6497239   -1.5746205  0.063958194   -2.6497239    1.0751033   578779 
 3297000    1.0070485   -2.6510851   -2.6510851   -1.5740895  0.062846034   -2.6510851    1.0769955   578779 
 3298000    1.0050005   -2.6500359   -2.6500359   -1.5752306  0.066401293   -2.6500359    1.0748053   578779 
 3299000    1.0065676   -2.6511976   -2.6511976   -1.5747164  0.070011387   -2.6511976    1.0764812   578779 
 3300000    1.0050538   -2.6502742   -2.6502742    -1.575412  0.062012814   -2.6502742    1.0748622   578779 
 3301000    1.0067424   -2.6505534   -2.6505534   -1.5738852  0.063602722   -2.6505534    1.0766681   578779 
 3302000    1.0073962   -2.6514433   -2.6514433    -1.574076  0.075353359   -2.6514433    1.0773673   578779 
 3303000    1.0053496   -2.6505881   -2.6505881   -1.5754096  0.063915687   -2.6505881    1.0751786   578779 
 3304000    1.0043948   -2.6494786   -2.6494786   -1.5753211  0.070578203   -2.6494786    1.0741575   578779 
 3305000    1.0049043   -2.6501713   -2.6501713   -1.5754689  0.077874294   -2.6501713    1.0747024   578779 
 3306000    1.0068084   -2.6515756   -2.6515756   -1.5748368  0.072456613   -2.6515756    1.0767387   578779 
 3307000    1.0067649   -2.6510991   -2.6510991   -1.5744069  0.066466659   -2.6510991    1.0766922   578779 
 3308000    1.0058206   -2.6500782   -2.6500782   -1.5743959  0.068815046   -2.6500782    1.0756823   578779 
 3309000    1.0054944   -2.6503884   -2.6503884    -1.575055  0.062454287   -2.6503884    1.0753334   578779 
 3310000    1.0042545   -2.6484248   -2.6484248   -1.5744174  0.065894395   -2.6484248    1.0740074   578779 
 3311000    1.0043482   -2.6487776   -2.6487776   -1.5746699  0.070222954   -2.6487776    1.0741076   578779 
 3312000    1.0054974   -2.6495487   -2.6495487    -1.574212  0.072346375   -2.6495487    1.0753367   578779 
 3313000    1.0045398   -2.6489474   -2.6489474   -1.5746349  0.073921182   -2.6489474    1.0743126   578779 
 3314000    1.0066262   -2.6509433   -2.6509433   -1.5743994  0.059733581   -2.6509433    1.0765438   578779 
 3315000    1.0053285    -2.649548    -2.649548    -1.574392  0.058505115    -2.649548     1.075156   578779 
 3316000    1.0054235   -2.6489902   -2.6489902   -1.5737325  0.067632819   -2.6489902    1.0752577   578779 
 3317000    1.0031936   -2.6483256   -2.6483256   -1.5754528   0.05690819   -2.6483256    1.0728728   578779 
 3318000    1.0046813   -2.6493091   -2.6493091   -1.5748452  0.068733247   -2.6493091    1.0744639   578779 
 3319000    1.0045045   -2.6486322   -2.6486322   -1.5743573  0.058663332   -2.6486322    1.0742748   578779 
 3320000    1.0041669   -2.6482933   -2.6482933   -1.5743795  0.059329608   -2.6482933    1.0739138   578779 
 3321000    1.0049276   -2.6487524   -2.6487524   -1.5740251  0.072090981   -2.6487524    1.0747273   578779 
 3322000    1.0040524   -2.6488246   -2.6488246   -1.5750333  0.066161699   -2.6488246    1.0737913   578779 
 3323000    1.0046049   -2.6494373   -2.6494373   -1.5750551  0.070672691   -2.6494373    1.0743822   578779 
 3324000     1.005077    -2.649909    -2.649909   -1.5750219  0.068698124    -2.649909    1.0748871   578779 
 3325000     1.004308   -2.6492526   -2.6492526   -1.5751879  0.074332441   -2.6492526    1.0740647   578779 
 3326000    1.0041417   -2.6488264   -2.6488264   -1.5749397  0.068195505   -2.6488264    1.0738868   578779 
 3327000    1.0041709   -2.6488796   -2.6488796   -1.5749615  0.074652138   -2.6488796    1.0739181   578779 
 3328000    1.0050188    -2.649893    -2.649893   -1.5750682  0.059140212    -2.649893    1.0748248   578779 
 3329000    1.0072409   -2.6522874   -2.6522874   -1.5750862  0.069595727   -2.6522874    1.0772013   578779 
 3330000    1.0071094    -2.651725    -2.651725   -1.5746643   0.06572116    -2.651725    1.0770607   578779 
 3331000    1.0055961   -2.6504251   -2.6504251   -1.5749828  0.077385946   -2.6504251    1.0754422   578779 
 3332000    1.0065439   -2.6521275   -2.6521275   -1.5756716  0.061244628   -2.6521275    1.0764559   578779 
 3333000    1.0056689   -2.6508058   -2.6508058   -1.5752857  0.064628217   -2.6508058      1.07552   578779 
 3334000    1.0061067      -2.6511      -2.6511   -1.5751117   0.06831767      -2.6511    1.0759883   578779 
 3335000    1.0060673   -2.6509363   -2.6509363   -1.5749902  0.074701153   -2.6509363    1.0759461   578779 
 3336000    1.0067212   -2.6517194   -2.6517194   -1.5750739   0.05961099   -2.6517194    1.0766455   578779 
 3337000    1.0043062   -2.6494518   -2.6494518   -1.5753891   0.06650235   -2.6494518    1.0740627   578779 
 3338000    1.0068493    -2.652713    -2.652713   -1.5759305  0.057394244    -2.652713    1.0767825   578779 
 3339000    1.0059719   -2.6503312   -2.6503312   -1.5744871  0.065592025   -2.6503312    1.0758441   578779 
 3340000    1.0052614    -2.649311    -2.649311   -1.5742267   0.06443083    -2.649311    1.0750843   578779 
 3341000    1.0053423   -2.6485899   -2.6485899   -1.5734191   0.07391503   -2.6485899    1.0751708   578779 
 3342000    1.0073641   -2.6503905   -2.6503905   -1.5730575  0.065140247   -2.6503905     1.077333   578779 
 3343000    1.0071436    -2.649279    -2.649279   -1.5721819  0.066328535    -2.649279    1.0770972   578779 
 3344000    1.0081723   -2.6496637   -2.6496637   -1.5714664  0.078548615   -2.6496637    1.0781974   578779 
 3345000    1.0082493    -2.650709    -2.650709   -1.5724293  0.071965813    -2.650709    1.0782797   578779 
 3346000    1.0045875   -2.6472059   -2.6472059   -1.5728423   0.06548902   -2.6472059    1.0743636   578779 
 3347000    1.0045184   -2.6477357   -2.6477357    -1.573446   0.05786769   -2.6477357    1.0742897   578779 
 3348000     1.006563   -2.6499226   -2.6499226   -1.5734463  0.059153234   -2.6499226    1.0764763   578779 
 3349000    1.0051682   -2.6476721   -2.6476721   -1.5726875  0.070221666   -2.6476721    1.0749846   578779 
 3350000    1.0033797   -2.6454119   -2.6454119     -1.57234  0.066464441   -2.6454119    1.0730718   578779 
 3351000    1.0040262   -2.6472374   -2.6472374   -1.5734741  0.059082804   -2.6472374    1.0737633   578779 
 3352000    1.0053009   -2.6481362   -2.6481362   -1.5730097  0.061372546   -2.6481362    1.0751265   578779 
 3353000    1.0028018    -2.645507    -2.645507   -1.5730532  0.058872623    -2.645507    1.0724538   578779 
 3354000    1.0040185   -2.6470467   -2.6470467   -1.5732916  0.062104705   -2.6470467    1.0737551   578779 
 3355000    1.0011521   -2.6444253   -2.6444253   -1.5737357  0.061999458   -2.6444253    1.0706896   578779 
 3356000    1.0034648   -2.6457514   -2.6457514   -1.5725885  0.068097375   -2.6457514    1.0731629   578779 
 3357000    1.0028331   -2.6451661   -2.6451661   -1.5726788  0.081380731   -2.6451661    1.0724874   578779 
 3358000    1.0052174   -2.6470996   -2.6470996   -1.5720623  0.059803656   -2.6470996    1.0750372   578779 
 3359000     1.006052   -2.6476144   -2.6476144   -1.5716846  0.062299591   -2.6476144    1.0759297   578779 
 3360000    1.0055882   -2.6474779   -2.6474779   -1.5720442  0.065135228   -2.6474779    1.0754337   578779 
 3361000    1.0058592   -2.6484642   -2.6484642   -1.5727406   0.05511682   -2.6484642    1.0757236   578779 
 3362000    1.0060828   -2.6489183   -2.6489183   -1.5729555  0.059814286   -2.6489183    1.0759628   578779 
 3363000    1.0064639   -2.6485803   -2.6485803     -1.57221  0.063114271   -2.6485803    1.0763703   578779 
 3364000    1.0054071   -2.6483498   -2.6483498   -1.5731096  0.074583146   -2.6483498    1.0752401   578779 
 3365000    1.0055963   -2.6491619   -2.6491619   -1.5737195   0.06086242   -2.6491619    1.0754424   578779 
 3366000    1.0054839   -2.6487735   -2.6487735   -1.5734513  0.068217414   -2.6487735    1.0753222   578779 
 3367000    1.0041629   -2.6479505   -2.6479505    -1.574041  0.068918922   -2.6479505    1.0739095   578779 
 3368000    1.0054494   -2.6503394   -2.6503394   -1.5750541  0.058985785   -2.6503394    1.0752854   578779 
 3369000    1.0058501   -2.6511063   -2.6511063   -1.5753925  0.069734062   -2.6511063    1.0757138   578779 
 3370000    1.0062882   -2.6507016   -2.6507016   -1.5745192  0.073653174   -2.6507016    1.0761824   578779 
 3371000    1.0074559   -2.6520067   -2.6520067   -1.5745755  0.059874419   -2.6520067    1.0774312   578779 
 3372000    1.0070773   -2.6511428   -2.6511428   -1.5741165  0.058753741   -2.6511428    1.0770262   578779 
 3373000    1.0067895   -2.6512529   -2.6512529   -1.5745345   0.06856982   -2.6512529    1.0767185   578779 
 3374000    1.0059287    -2.649697    -2.649697    -1.573899  0.081914045    -2.649697    1.0757979   578779 
 3375000    1.0077125   -2.6516358   -2.6516358   -1.5739302  0.076617451   -2.6516358    1.0777057   578779 
 3376000    1.0071411   -2.6513532   -2.6513532   -1.5742587  0.060881551   -2.6513532    1.0770945   578779 
 3377000    1.0081266   -2.6520879   -2.6520879   -1.5739394  0.064268811   -2.6520879    1.0781485   578779 
 3378000     1.007003   -2.6517541   -2.6517541   -1.5748072  0.075436903   -2.6517541    1.0769469   578779 
 3379000     1.007249   -2.6515557   -2.6515557   -1.5743458  0.065339185   -2.6515557    1.0772099   578779 
 3380000    1.0056442   -2.6503581   -2.6503581   -1.5748644  0.083467095   -2.6503581    1.0754937   578779 
 3381000    1.0054449   -2.6502396   -2.6502396   -1.5749591  0.084300452   -2.6502396    1.0752805   578779 
 3382000    1.0045539   -2.6498281   -2.6498281   -1.5755005  0.068849114   -2.6498281    1.0743276   578779 
 3383000    1.0051276   -2.6501171   -2.6501171   -1.5751759   0.06488094   -2.6501171    1.0749412   578779 
 3384000    1.0077469    -2.652951    -2.652951   -1.5752087  0.066057484    -2.652951    1.0777424   578779 
 3385000    1.0062549    -2.651939    -2.651939   -1.5757922  0.073461237    -2.651939    1.0761468   578779 
 3386000     1.007445   -2.6527188   -2.6527188   -1.5752992  0.065896447   -2.6527188    1.0774196   578779 
 3387000    1.0058111   -2.6505462   -2.6505462    -1.574874  0.074306828   -2.6505462    1.0756722   578779 
 3388000     1.005869   -2.6501617   -2.6501617   -1.5744276  0.064961514   -2.6501617    1.0757341   578779 
 3389000    1.0071569   -2.6515284   -2.6515284   -1.5744169  0.058470566   -2.6515284    1.0771115   578779 
 3390000    1.0060817   -2.6499888   -2.6499888   -1.5740273  0.077353818   -2.6499888    1.0759615   578779 
 3391000    1.0056423   -2.6492565   -2.6492565   -1.5737648  0.074190722   -2.6492565    1.0754916   578779 
 3392000    1.0070046   -2.6497153   -2.6497153   -1.5727668  0.064863133   -2.6497153    1.0769486   578779 
 3393000    1.0064571   -2.6491778   -2.6491778   -1.5728147  0.072413775   -2.6491778     1.076363   578779 
 3394000    1.0043388   -2.6478448   -2.6478448   -1.5737472  0.067692282   -2.6478448    1.0740976   578779 
 3395000    1.0042808   -2.6477907   -2.6477907   -1.5737552  0.072100042   -2.6477907    1.0740355   578779 
 3396000    1.0045861   -2.6481243   -2.6481243   -1.5737623  0.060026639   -2.6481243    1.0743621   578779 
 3397000    1.0048071   -2.6487704   -2.6487704    -1.574172  0.065525327   -2.6487704    1.0745984   578779 
 3398000    1.0036945   -2.6470876   -2.6470876   -1.5736791  0.068105244   -2.6470876    1.0734086   578779 
 3399000    1.0057656   -2.6482373   -2.6482373   -1.5726139  0.070826276   -2.6482373    1.0756234   578779 
 3400000    1.0042575   -2.6469582   -2.6469582   -1.5729475  0.075973318   -2.6469582    1.0740107   578779 
 3401000    1.0055185   -2.6491846   -2.6491846   -1.5738253  0.054925583   -2.6491846    1.0753593   578779 
 3402000    1.0062221   -2.6490783   -2.6490783   -1.5729666  0.058992879   -2.6490783    1.0761117   578779 
 3403000    1.0058905   -2.6486697   -2.6486697   -1.5729126   0.06250232   -2.6486697    1.0757571   578779 
 3404000    1.0057567   -2.6486468   -2.6486468   -1.5730328   0.05953399   -2.6486468     1.075614   578779 
 3405000    1.0053368   -2.6484085   -2.6484085   -1.5732436  0.067074838   -2.6484085    1.0751649   578779 
 3406000     1.005651   -2.6486368   -2.6486368    -1.573136  0.063620697   -2.6486368    1.0755009   578779 
 3407000     1.006907   -2.6502807   -2.6502807   -1.5734366  0.070147104   -2.6502807    1.0768441   578779 
 3408000    1.0046818     -2.64854     -2.64854   -1.5740756  0.067803122     -2.64854    1.0744644   578779 
 3409000    1.0050255   -2.6492258   -2.6492258   -1.5743938  0.057833684   -2.6492258     1.074832   578779 
 3410000    1.0063295   -2.6501369   -2.6501369   -1.5739103  0.062466852   -2.6501369    1.0762266   578779 
 3411000     1.007007   -2.6506402   -2.6506402   -1.5736891  0.079124991   -2.6506402    1.0769512   578779 
 3412000    1.0045601    -2.649217    -2.649217   -1.5748828   0.06562952    -2.649217    1.0743343   578779 
 3413000    1.0057886   -2.6494601   -2.6494601    -1.573812  0.072478281   -2.6494601    1.0756481   578779 
 3414000    1.0067248   -2.6510686   -2.6510686   -1.5744193  0.080068117   -2.6510686    1.0766493   578779 
 3415000    1.0064384   -2.6491863   -2.6491863   -1.5728433   0.06956281   -2.6491863    1.0763431   578779 
 3416000     1.006818   -2.6491881   -2.6491881   -1.5724391   0.06561181   -2.6491881     1.076749   578779 
 3417000    1.0083261   -2.6506645   -2.6506645   -1.5723027  0.077155608   -2.6506645    1.0783619   578779 
 3418000    1.0073396    -2.650292    -2.650292   -1.5729852  0.069550131    -2.650292    1.0773068   578779 
 3419000    1.0078466   -2.6504042   -2.6504042   -1.5725552  0.078630946   -2.6504042     1.077849   578779 
 3420000    1.0070388   -2.6501491   -2.6501491    -1.573164  0.066478569   -2.6501491    1.0769852   578779 
 3421000    1.0075505   -2.6509765   -2.6509765   -1.5734441  0.063534533   -2.6509765    1.0775324   578779 
 3422000    1.0078533   -2.6511431   -2.6511431   -1.5732869  0.066044858   -2.6511431    1.0778562   578779 
 3423000    1.0058051   -2.6492148   -2.6492148    -1.573549  0.069661352   -2.6492148    1.0756657   578779 
 3424000    1.0071059   -2.6499934   -2.6499934   -1.5729366  0.067408307   -2.6499934    1.0770569   578779 
 3425000    1.0075913    -2.651248    -2.651248    -1.573672  0.074672337    -2.651248     1.077576   578779 
 3426000    1.0060585   -2.6491488   -2.6491488   -1.5732121  0.080841744   -2.6491488    1.0759367   578779 
 3427000    1.0060188    -2.648804    -2.648804   -1.5729097  0.072743895    -2.648804    1.0758943   578779 
 3428000    1.0067105   -2.6494636   -2.6494636   -1.5728296  0.069767473   -2.6494636     1.076634   578779 
 3429000    1.0063525   -2.6496727   -2.6496727   -1.5734216  0.066989478   -2.6496727    1.0762511   578779 
 3430000    1.0046225   -2.6470783   -2.6470783   -1.5726773  0.058269602   -2.6470783     1.074401   578779 
 3431000    1.0044266   -2.6481061   -2.6481061   -1.5739146  0.056223456   -2.6481061    1.0741915   578779 
 3432000     1.005312   -2.6479976   -2.6479976   -1.5728591  0.065278765   -2.6479976    1.0751384   578779 
 3433000    1.0043806   -2.6476092   -2.6476092   -1.5734668  0.066682635   -2.6476092    1.0741423   578779 
 3434000    1.0046751   -2.6467646   -2.6467646   -1.5723074  0.080451586   -2.6467646    1.0744573   578779 
 3435000    1.0042712   -2.6464848   -2.6464848   -1.5724595   0.06982065   -2.6464848    1.0740253   578779 
 3436000    1.0048785   -2.6472155   -2.6472155   -1.5725407  0.073119476   -2.6472155    1.0746748   578779 
 3437000    1.0055511    -2.648226    -2.648226   -1.5728318  0.060515183    -2.648226    1.0753941   578779 
 3438000    1.0048004   -2.6472421   -2.6472421   -1.5726509  0.060818529   -2.6472421    1.0745913   578779 
 3439000    1.0035278    -2.645488    -2.645488   -1.5722576  0.063058427    -2.645488    1.0732303   578779 
 3440000    1.0039186   -2.6459245   -2.6459245   -1.5722763  0.065576462   -2.6459245    1.0736482   578779 
 3441000     1.004732   -2.6473628   -2.6473628   -1.5728447  0.060928902   -2.6473628    1.0745181   578779 
 3442000    1.0045924    -2.646756    -2.646756   -1.5723872    0.0577762    -2.646756    1.0743688   578779 
 3443000      1.00492   -2.6475844   -2.6475844   -1.5728652  0.062463074   -2.6475844    1.0747192   578779 
 3444000    1.0051636   -2.6492935   -2.6492935   -1.5743138   0.06319558   -2.6492935    1.0749797   578779 
 3445000    1.0049066   -2.6487264   -2.6487264   -1.5740215  0.070435315   -2.6487264    1.0747048   578779 
 3446000    1.0036211   -2.6474577   -2.6474577   -1.5741276  0.065777186   -2.6474577    1.0733301   578779 
 3447000    1.0056349   -2.6492087   -2.6492087    -1.573725  0.062579338   -2.6492087    1.0754837   578779 
 3448000    1.0056852   -2.6494074   -2.6494074   -1.5738698  0.059125773   -2.6494074    1.0755375   578779 
 3449000    1.0068456   -2.6508088   -2.6508088   -1.5740303  0.066473518   -2.6508088    1.0767785   578779 
 3450000    1.0037585   -2.6484472   -2.6484472   -1.5749702  0.060055588   -2.6484472     1.073477   578779 
 3451000    1.0039308   -2.6486865   -2.6486865   -1.5750253  0.067946141   -2.6486865    1.0736613   578779 
 3452000    1.0055217   -2.6511367   -2.6511367   -1.5757741  0.074487743   -2.6511367    1.0753626   578779 
 3453000    1.0051422   -2.6502413   -2.6502413   -1.5752844  0.077351723   -2.6502413    1.0749568   578779 
 3454000    1.0048847   -2.6493005   -2.6493005   -1.5746191  0.066681745   -2.6493005    1.0746814   578779 
 3455000    1.0052512   -2.6488947   -2.6488947   -1.5738213  0.059311053   -2.6488947    1.0750734   578779 
 3456000    1.0059117   -2.6506455   -2.6506455   -1.5748658  0.062912839   -2.6506455    1.0757797   578779 
 3457000    1.0052378   -2.6504175   -2.6504175   -1.5753585   0.07161139   -2.6504175     1.075059   578779 
 3458000    1.0083377   -2.6534437   -2.6534437   -1.5750694  0.067863749   -2.6534437    1.0783743   578779 
 3459000    1.0071211   -2.6519327   -2.6519327   -1.5748595  0.076320291   -2.6519327    1.0770732   578779 
 3460000     1.007482   -2.6522443   -2.6522443   -1.5747852  0.071315503   -2.6522443    1.0774591   578779 
 3461000     1.006305   -2.6510037   -2.6510037   -1.5748034  0.082288143   -2.6510037    1.0762003   578779 
 3462000     1.008037    -2.652634    -2.652634   -1.5745813   0.05965847    -2.652634    1.0780527   578779 
 3463000    1.0083458   -2.6525564   -2.6525564   -1.5741735  0.063464519   -2.6525564    1.0783829   578779 
 3464000    1.0063296   -2.6507523   -2.6507523   -1.5745256  0.069868413   -2.6507523    1.0762266   578779 
 3465000    1.0054457   -2.6503672   -2.6503672   -1.5750859  0.068417893   -2.6503672    1.0752814   578779 
 3466000    1.0050233   -2.6503973   -2.6503973   -1.5755677  0.067657571   -2.6503973    1.0748296   578779 
 3467000    1.0056977    -2.650959    -2.650959   -1.5754081  0.060071922    -2.650959    1.0755509   578779 
 3468000     1.005532   -2.6511156   -2.6511156    -1.575742  0.071353617   -2.6511156    1.0753736   578779 
 3469000    1.0060571   -2.6502949   -2.6502949   -1.5743597  0.058368737   -2.6502949    1.0759352   578779 
 3470000    1.0070013   -2.6511836   -2.6511836   -1.5742386  0.061124125   -2.6511836     1.076945   578779 
 3471000    1.0061898   -2.6499948   -2.6499948   -1.5739176  0.066566051   -2.6499948    1.0760772   578779 
 3472000    1.0052769   -2.6485272   -2.6485272   -1.5734264  0.071325142   -2.6485272    1.0751008   578779 
 3473000    1.0067172   -2.6499277   -2.6499277   -1.5732865  0.067642345   -2.6499277    1.0766412   578779 
 3474000    1.0054006    -2.648082    -2.648082   -1.5728489  0.073508045    -2.648082    1.0752331   578779 
 3475000    1.0041261   -2.6471283   -2.6471283   -1.5732581  0.062443094   -2.6471283    1.0738702   578779 
 3476000    1.0074677   -2.6502002   -2.6502002   -1.5727563  0.066432172   -2.6502002    1.0774438   578779 
 3477000    1.0068312   -2.6495317   -2.6495317   -1.5727687  0.061970946   -2.6495317    1.0767631   578779 
 3478000    1.0036574   -2.6470917   -2.6470917   -1.5737228  0.074190912   -2.6470917    1.0733689   578779 
 3479000    1.0037866    -2.646869    -2.646869    -1.573362  0.061718427    -2.646869     1.073507   578779 
 3480000     1.004987    -2.647029    -2.647029   -1.5722382  0.068709426    -2.647029    1.0747908   578779 
 3481000    1.0048995   -2.6473036   -2.6473036   -1.5726063  0.062763185   -2.6473036    1.0746973   578779 
 3482000    1.0042361   -2.6470946   -2.6470946   -1.5731068  0.054046963   -2.6470946    1.0739878   578779 
 3483000     1.004051   -2.6476308   -2.6476308    -1.573841  0.064892468   -2.6476308    1.0737898   578779 
 3484000    1.0054715   -2.6495748   -2.6495748   -1.5742658  0.059738429   -2.6495748     1.075309   578779 
 3485000    1.0047637   -2.6491288   -2.6491288   -1.5745768   0.05770899   -2.6491288     1.074552   578779 
 3486000    1.0056408    -2.649884    -2.649884    -1.574394  0.071974568    -2.649884      1.07549   578779 
 3487000    1.0043283   -2.6484874   -2.6484874   -1.5744011  0.056868472   -2.6484874    1.0740863   578779 
 3488000    1.0044789   -2.6486371   -2.6486371   -1.5743897  0.058756163   -2.6486371    1.0742475   578779 
 3489000    1.0041564   -2.6481277   -2.6481277   -1.5742252  0.070944367   -2.6481277    1.0739025   578779 
 3490000    1.0049685   -2.6492419   -2.6492419    -1.574471  0.071869298   -2.6492419     1.074771   578779 
 3491000    1.0069186   -2.6512762   -2.6512762   -1.5744196  0.059753243   -2.6512762    1.0768565   578779 
 3492000    1.0055767   -2.6506312   -2.6506312   -1.5752098  0.058375509   -2.6506312    1.0754214   578779 
 3493000    1.0064774    -2.651443    -2.651443   -1.5750582  0.066466093    -2.651443    1.0763848   578779 
 3494000    1.0055232   -2.6501783   -2.6501783    -1.574814  0.068397721   -2.6501783    1.0753642   578779 
 3495000     1.005614    -2.649955    -2.649955   -1.5744937  0.075067783    -2.649955    1.0754613   578779 
 3496000    1.0057901    -2.650196    -2.650196   -1.5745462  0.072332558    -2.650196    1.0756497   578779 
 3497000    1.0069619    -2.650845    -2.650845    -1.573942  0.072393645    -2.650845    1.0769029   578779 
 3498000    1.0062601   -2.6506115   -2.6506115   -1.5744592  0.071010811   -2.6506115    1.0761523   578779 
 3499000    1.0061631   -2.6511688   -2.6511688   -1.5751202  0.070847739   -2.6511688    1.0760486   578779 
 3500000    1.0055704   -2.6518071   -2.6518071   -1.5763923    0.0743363   -2.6518071    1.0754147   578779 
 3501000    1.0053424   -2.6509198   -2.6509198   -1.5757489  0.079627555   -2.6509198    1.0751709   578779 
 3502000    1.0048288   -2.6501199   -2.6501199   -1.5754982  0.071197408   -2.6501199    1.0746217   578779 
 3503000    1.0058134    -2.652148    -2.652148   -1.5764734  0.062762937    -2.652148    1.0756747   578779 
 3504000     1.004247   -2.6497078   -2.6497078   -1.5757084  0.073964315   -2.6497078    1.0739994   578779 
 3505000    1.0051807   -2.6509472   -2.6509472   -1.5759492  0.064474328   -2.6509472     1.074998   578779 
 3506000    1.0057585   -2.6508815   -2.6508815   -1.5752655  0.069228928   -2.6508815    1.0756159   578779 
 3507000    1.0040848    -2.649275    -2.649275    -1.575449  0.059188615    -2.649275     1.073826   578779 
 3508000    1.0050205   -2.6500969   -2.6500969   -1.5752702   0.07487631   -2.6500969    1.0748266   578779 
 3509000    1.0051421   -2.6506603   -2.6506603   -1.5757037  0.053978696   -2.6506603    1.0749567   578779 
 3510000    1.0049263   -2.6496018   -2.6496018   -1.5748759  0.066079738   -2.6496018    1.0747259   578779 
 3511000    1.0056829   -2.6513631   -2.6513631    -1.575828  0.061227491   -2.6513631    1.0755351   578779 
 3512000     1.004961   -2.6503242   -2.6503242   -1.5755612  0.058336168   -2.6503242     1.074763   578779 
 3513000    1.0044981   -2.6487587   -2.6487587   -1.5744907   0.07255161   -2.6487587     1.074268   578779 
 3514000    1.0047083   -2.6494585   -2.6494585   -1.5749658  0.065219541   -2.6494585    1.0744927   578779 
 3515000    1.0052026   -2.6493936   -2.6493936   -1.5743723  0.072245219   -2.6493936    1.0750214   578779 
 3516000    1.0052117   -2.6492731   -2.6492731    -1.574242  0.064915026   -2.6492731    1.0750311   578779 
 3517000    1.0052128   -2.6491556   -2.6491556   -1.5741233  0.072690717   -2.6491556    1.0750323   578779 
 3518000    1.0050271   -2.6490124   -2.6490124   -1.5741787  0.075670246   -2.6490124    1.0748337   578779 
 3519000    1.0061741    -2.650531    -2.650531   -1.5744707   0.05639192    -2.650531    1.0760603   578779 
 3520000    1.0039566   -2.6481385   -2.6481385   -1.5744497  0.062821625   -2.6481385    1.0736888   578779 
 3521000    1.0061039   -2.6503731   -2.6503731   -1.5743878  0.071922118   -2.6503731    1.0759853   578779 
 3522000    1.0065105   -2.6507601   -2.6507601     -1.57434  0.061780381   -2.6507601    1.0764201   578779 
 3523000    1.0063631   -2.6501245   -2.6501245    -1.573862  0.066039067   -2.6501245    1.0762625   578779 
 3524000    1.0062245   -2.6502981   -2.6502981   -1.5741839  0.067926326   -2.6502981    1.0761142   578779 
 3525000    1.0073507   -2.6514764   -2.6514764   -1.5741577  0.073161929   -2.6514764    1.0773187   578779 
 3526000     1.005609   -2.6501318   -2.6501318   -1.5746757  0.077460563   -2.6501318    1.0754561   578779 
 3527000    1.0062708   -2.6512176   -2.6512176   -1.5750538  0.052577184   -2.6512176    1.0761638   578779 
 3528000    1.0056183   -2.6513551   -2.6513551   -1.5758891  0.068471408   -2.6513551     1.075466   578779 
 3529000    1.0042145   -2.6510044   -2.6510044   -1.5770398  0.063709051   -2.6510044    1.0739646   578779 
 3530000    1.0044498    -2.651375    -2.651375   -1.5771588  0.067647307    -2.651375    1.0742163   578779 
 3531000    1.0036522   -2.6503893   -2.6503893    -1.577026  0.059514286   -2.6503893    1.0733633   578779 
 3532000    1.0056175   -2.6530607   -2.6530607   -1.5775955  0.066242061   -2.6530607    1.0754652   578779 
 3533000     1.005378   -2.6521906   -2.6521906   -1.5769816   0.06781282   -2.6521906     1.075209   578779 
 3534000     1.005391   -2.6526279   -2.6526279    -1.577405  0.070211656   -2.6526279    1.0752229   578779 
 3535000    1.0058096   -2.6527375   -2.6527375    -1.577067   0.07475412   -2.6527375    1.0756705   578779 
 3536000    1.0052635   -2.6520661   -2.6520661   -1.5769796   0.06488645   -2.6520661    1.0750865   578779 
 3537000    1.0056054   -2.6527511   -2.6527511   -1.5772989  0.066401412   -2.6527511    1.0754522   578779 
 3538000    1.0060495   -2.6526924   -2.6526924   -1.5767654  0.067684656   -2.6526924    1.0759271   578779 
 3539000    1.0059287   -2.6524856   -2.6524856   -1.5766877  0.068556534   -2.6524856     1.075798   578779 
 3540000    1.0061935    -2.653039    -2.653039   -1.5769579   0.07262562    -2.653039    1.0760811   578779 
 3541000    1.0049017    -2.652035    -2.652035   -1.5773355  0.050747112    -2.652035    1.0746995   578779 
 3542000    1.0039017   -2.6511149   -2.6511149   -1.5774848  0.074093922   -2.6511149    1.0736301   578779 
 3543000    1.0036373   -2.6499338   -2.6499338   -1.5765865  0.067224835   -2.6499338    1.0733474   578779 
 3544000    1.0059373   -2.6522822   -2.6522822   -1.5764751  0.067763418   -2.6522822    1.0758071   578779 
 3545000    1.0039995   -2.6507346   -2.6507346   -1.5769999  0.069170933   -2.6507346    1.0737348   578779 
 3546000    1.0041814     -2.65104     -2.65104   -1.5771108  0.056839875     -2.65104    1.0739293   578779 
 3547000    1.0042337   -2.6519693   -2.6519693   -1.5779842  0.063435927   -2.6519693    1.0739851   578779 
 3548000    1.0010116   -2.6481309   -2.6481309   -1.5775917  0.071239666   -2.6481309    1.0705393   578779 
 3549000    1.0048936    -2.651894    -2.651894   -1.5772031  0.071976642    -2.651894    1.0746909   578779 
 3550000    1.0039561   -2.6513269   -2.6513269   -1.5776385  0.078480614   -2.6513269    1.0736883   578779 
 3551000    1.0049437   -2.6514247   -2.6514247   -1.5766802   0.07331923   -2.6514247    1.0747445   578779 
 3552000    1.0042048   -2.6506964   -2.6506964   -1.5767421  0.067048904   -2.6506964    1.0739543   578779 
 3553000    1.0034729   -2.6501836   -2.6501836   -1.5770121  0.070765833   -2.6501836    1.0731715   578779 
 3554000    1.0055697   -2.6514611   -2.6514611   -1.5760472  0.071348634   -2.6514611    1.0754139   578779 
 3555000    1.0064528   -2.6517596   -2.6517596   -1.5754011  0.062625753   -2.6517596    1.0763584   578779 
 3556000    1.0037725   -2.6491067   -2.6491067   -1.5756148  0.065332724   -2.6491067    1.0734919   578779 
 3557000    1.0055937   -2.6509587   -2.6509587   -1.5755191  0.064079533   -2.6509587    1.0754396   578779 
 3558000    1.0065448   -2.6523424   -2.6523424   -1.5758856   0.06868456   -2.6523424    1.0764568   578779 
 3559000    1.0063162   -2.6519461   -2.6519461   -1.5757338  0.070098547   -2.6519461    1.0762123   578779 
 3560000    1.0069879   -2.6535789   -2.6535789   -1.5766482  0.059920569   -2.6535789    1.0769307   578779 
 3561000    1.0041522   -2.6507272   -2.6507272   -1.5768292  0.067839772   -2.6507272     1.073898   578779 
 3562000    1.0049162   -2.6508336   -2.6508336   -1.5761184  0.063148201   -2.6508336    1.0747151   578779 
 3563000    1.0048877   -2.6505749   -2.6505749   -1.5758903  0.055785154   -2.6505749    1.0746846   578779 
 3564000    1.0039563   -2.6486962   -2.6486962   -1.5750077  0.068293245   -2.6486962    1.0736885   578779 
 3565000    1.0051012   -2.6498409   -2.6498409   -1.5749279  0.069927868   -2.6498409    1.0749129   578779 
 3566000    1.0046448    -2.650302    -2.650302   -1.5758772  0.068278833    -2.650302    1.0744248   578779 
 3567000    1.0031565   -2.6491778   -2.6491778   -1.5763446  0.065600532   -2.6491778    1.0728332   578779 
 3568000    1.0055771   -2.6511101   -2.6511101   -1.5756882  0.067857747   -2.6511101    1.0754219   578779 
 3569000    1.0044119   -2.6498719   -2.6498719   -1.5756961   0.06251024   -2.6498719    1.0741758   578779 
 3570000    1.0058737   -2.6510828   -2.6510828   -1.5753437  0.052821298   -2.6510828    1.0757391   578779 
 3571000    1.0056537    -2.650317    -2.650317   -1.5748131   0.07896052    -2.650317    1.0755039   578779 
 3572000    1.0049917   -2.6496259   -2.6496259   -1.5748301  0.064044311   -2.6496259    1.0747958   578779 
 3573000     1.005014   -2.6495107   -2.6495107   -1.5746909  0.073637781   -2.6495107    1.0748197   578779 
 3574000    1.0057398   -2.6502577   -2.6502577   -1.5746618   0.06350986   -2.6502577    1.0755959   578779 
 3575000    1.0060061   -2.6506593   -2.6506593   -1.5747785  0.067523615   -2.6506593    1.0758807   578779 
 3576000    1.0060723   -2.6496504   -2.6496504   -1.5736989  0.065529423   -2.6496504    1.0759515   578779 
 3577000    1.0055545   -2.6502379   -2.6502379   -1.5748401  0.065117532   -2.6502379    1.0753978   578779 
 3578000    1.0052427   -2.6493657   -2.6493657   -1.5743014  0.072048984   -2.6493657    1.0750643   578779 
 3579000    1.0043097   -2.6488536   -2.6488536   -1.5747871  0.065439699   -2.6488536    1.0740665   578779 
 3580000    1.0049048   -2.6493278   -2.6493278   -1.5746248  0.069320857   -2.6493278    1.0747029   578779 
 3581000    1.0063956   -2.6510016   -2.6510016   -1.5747044   0.06668453   -2.6510016    1.0762973   578779 
 3582000    1.0039711   -2.6487745   -2.6487745   -1.5750701  0.065350611   -2.6487745    1.0737044   578779 
 3583000    1.0055533   -2.6501721   -2.6501721   -1.5747757  0.072400211   -2.6501721    1.0753964   578779 
 3584000     1.006327   -2.6504656   -2.6504656   -1.5742417  0.063544163   -2.6504656    1.0762239   578779 
 3585000    1.0066335   -2.6508005   -2.6508005   -1.5742488  0.072215757   -2.6508005    1.0765517   578779 
 3586000    1.0070897   -2.6515268   -2.6515268   -1.5744872  0.069860323   -2.6515268    1.0770396   578779 
 3587000    1.0068966   -2.6506675   -2.6506675   -1.5738344  0.072096238   -2.6506675    1.0768331   578779 
 3588000    1.0075633   -2.6509765   -2.6509765   -1.5734305  0.078208876   -2.6509765     1.077546   578779 
 3589000    1.0082248   -2.6510537   -2.6510537   -1.5728003   0.06855402   -2.6510537    1.0782535   578779 
 3590000     1.008733   -2.6519437   -2.6519437   -1.5731467  0.055136406   -2.6519437     1.078797   578779 
 3591000    1.0080755   -2.6505525   -2.6505525   -1.5724587  0.068506345   -2.6505525    1.0780938   578779 
 3592000    1.0054012   -2.6482958   -2.6482958    -1.573062  0.065485292   -2.6482958    1.0752338   578779 
 3593000    1.0069904    -2.650156    -2.650156   -1.5732227  0.064849698    -2.650156    1.0769334   578779 
 3594000    1.0066706   -2.6493836   -2.6493836   -1.5727923  0.059543271   -2.6493836    1.0765914   578779 
 3595000    1.0064132   -2.6493245   -2.6493245   -1.5730085   0.06616212   -2.6493245     1.076316   578779 
 3596000    1.0061044   -2.6489106   -2.6489106   -1.5729248  0.064808181   -2.6489106    1.0759858   578779 
 3597000    1.0059118   -2.6486999   -2.6486999   -1.5729201  0.075384008   -2.6486999    1.0757798   578779 
 3598000    1.0062034   -2.6487715   -2.6487715   -1.5726799  0.059414406   -2.6487715    1.0760917   578779 
 3599000    1.0056734   -2.6487857   -2.6487857   -1.5732608  0.069540682   -2.6487857    1.0755249   578779 
 3600000     1.005985   -2.6491645   -2.6491645   -1.5733063  0.075821669   -2.6491645    1.0758581   578779 
 3601000    1.0069408   -2.6502511   -2.6502511   -1.5733708   0.06312638   -2.6502511    1.0768803   578779 
 3602000    1.0063184   -2.6496041   -2.6496041   -1.5733894  0.069356855   -2.6496041    1.0762147   578779 
 3603000    1.0055509   -2.6488812   -2.6488812   -1.5734873  0.066862076   -2.6488812    1.0753939   578779 
 3604000    1.0058581   -2.6485894   -2.6485894   -1.5728669  0.073500674   -2.6485894    1.0757224   578779 
 3605000    1.0050013   -2.6488736   -2.6488736   -1.5740674  0.059997725   -2.6488736    1.0748061   578779 
 3606000    1.0054686   -2.6488645   -2.6488645   -1.5735587  0.063924216   -2.6488645    1.0753058   578779 
 3607000    1.0054904   -2.6485783   -2.6485783   -1.5732491   0.06969223   -2.6485783    1.0753291   578779 
 3608000    1.0068838   -2.6490069   -2.6490069   -1.5721875  0.077515155   -2.6490069    1.0768193   578779 
 3609000    1.0048723   -2.6478254   -2.6478254   -1.5731573  0.064353467   -2.6478254    1.0746681   578779 
 3610000    1.0045028   -2.6473046   -2.6473046   -1.5730316  0.061014234   -2.6473046     1.074273   578779 
 3611000    1.0051316   -2.6477575   -2.6477575   -1.5728121  0.079433888   -2.6477575    1.0749454   578779 
 3612000    1.0054334   -2.6483957   -2.6483957   -1.5731274  0.067421809   -2.6483957    1.0752682   578779 
 3613000    1.0057283   -2.6489188   -2.6489188   -1.5733353  0.057281389   -2.6489188    1.0755836   578779 
 3614000    1.0076486   -2.6507291   -2.6507291   -1.5730918  0.064414311   -2.6507291    1.0776372   578779 
 3615000    1.0058366   -2.6498855   -2.6498855    -1.574186  0.064360383   -2.6498855    1.0756995   578779 
 3616000    1.0049342   -2.6489687   -2.6489687   -1.5742344  0.065558246   -2.6489687    1.0747343   578779 
 3617000    1.0038803   -2.6478503   -2.6478503   -1.5742431  0.061654573   -2.6478503    1.0736072   578779 
 3618000    1.0049153   -2.6481463   -2.6481463   -1.5734322  0.064442017   -2.6481463    1.0747141   578779 
 3619000    1.0052747   -2.6482241   -2.6482241   -1.5731256  0.072381133   -2.6482241    1.0750985   578779 
 3620000    1.0063339   -2.6503902   -2.6503902   -1.5741589  0.071035468   -2.6503902    1.0762313   578779 
 3621000    1.0037342   -2.6482908   -2.6482908   -1.5748398  0.065345685   -2.6482908     1.073451   578779 
 3622000    1.0055549   -2.6510065   -2.6510065   -1.5756084  0.066767381   -2.6510065    1.0753981   578779 
 3623000    1.0051688   -2.6508895   -2.6508895   -1.5759042    0.0581169   -2.6508895    1.0749853   578779 
 3624000    1.0049218   -2.6498778   -2.6498778   -1.5751568  0.057551913   -2.6498778    1.0747211   578779 
 3625000    1.0064839   -2.6510858   -2.6510858   -1.5746942  0.076712788   -2.6510858    1.0763916   578779 
 3626000    1.0057481   -2.6506944   -2.6506944   -1.5750896   0.06657708   -2.6506944    1.0756048   578779 
 3627000    1.0043231   -2.6489274   -2.6489274   -1.5748466   0.06286128   -2.6489274    1.0740808   578779 
 3628000    1.0046158    -2.648884    -2.648884   -1.5744902  0.071297439    -2.648884    1.0743939   578779 
 3629000    1.0064134   -2.6507898   -2.6507898   -1.5744735  0.066867775   -2.6507898    1.0763162   578779 
 3630000    1.0065718   -2.6516299   -2.6516299   -1.5751442  0.066574073   -2.6516299    1.0764857   578779 
 3631000    1.0060719   -2.6523466   -2.6523466   -1.5763955  0.079532514   -2.6523466    1.0759511   578779 
 3632000    1.0055196   -2.6508057   -2.6508057   -1.5754454  0.063733357   -2.6508057    1.0753604   578779 
 3633000    1.0035925   -2.6489108   -2.6489108   -1.5756113   0.06983743   -2.6489108    1.0732995   578779 
 3634000    1.0047474   -2.6501294   -2.6501294   -1.5755948  0.053123251   -2.6501294    1.0745346   578779 
 3635000    1.0055515   -2.6500425   -2.6500425   -1.5746479   0.07327191   -2.6500425    1.0753945   578779 
 3636000    1.0049835   -2.6498543   -2.6498543   -1.5750672  0.064347593   -2.6498543    1.0747871   578779 
 3637000    1.0055238   -2.6507191   -2.6507191   -1.5753542  0.056969472   -2.6507191    1.0753648   578779 
 3638000    1.0028316   -2.6482253   -2.6482253   -1.5757396  0.070154108   -2.6482253    1.0724857   578779 
 3639000    1.0048492   -2.6496129   -2.6496129   -1.5749694  0.054270091   -2.6496129    1.0746434   578779 
 3640000     1.003931   -2.6495175   -2.6495175   -1.5758561  0.070784312   -2.6495175    1.0736615   578779 
 3641000    1.0039521   -2.6496304   -2.6496304   -1.5759464  0.062019921   -2.6496304    1.0736841   578779 
 3642000    1.0062037   -2.6506145   -2.6506145   -1.5745225  0.075039525   -2.6506145     1.076092   578779 
 3643000    1.0053362   -2.6496776   -2.6496776   -1.5745134  0.064980747   -2.6496776    1.0751642   578779 
 3644000    1.0049778   -2.6495097   -2.6495097   -1.5747287  0.066978621   -2.6495097    1.0747809   578779 
 3645000    1.0047017   -2.6492991   -2.6492991   -1.5748134  0.073771367   -2.6492991    1.0744857   578779 
 3646000    1.0045871   -2.6483352   -2.6483352    -1.573972  0.062447918   -2.6483352    1.0743631   578779 
 3647000     1.004062   -2.6488298   -2.6488298   -1.5750282  0.062917382   -2.6488298    1.0738016   578779 
 3648000    1.0051161   -2.6497249   -2.6497249    -1.574796  0.050156389   -2.6497249    1.0749289   578779 
 3649000    1.0058096   -2.6506931   -2.6506931   -1.5750225  0.066927099   -2.6506931    1.0756706   578779 
 3650000    1.0044876   -2.6491424   -2.6491424   -1.5748857  0.074398084   -2.6491424    1.0742567   578779 
 3651000     1.005942   -2.6500276   -2.6500276   -1.5742155  0.063423243   -2.6500276    1.0758121   578779 
 3652000    1.0072713   -2.6511891   -2.6511891   -1.5739553   0.05659437   -2.6511891    1.0772338   578779 
 3653000    1.0058166   -2.6496114   -2.6496114   -1.5739335  0.069645483   -2.6496114     1.075678   578779 
 3654000    1.0061898   -2.6505434   -2.6505434   -1.5744663  0.065822939   -2.6505434    1.0760771   578779 
 3655000    1.0071014   -2.6513718   -2.6513718   -1.5743198  0.069747921   -2.6513718    1.0770521   578779 
 3656000    1.0078134   -2.6515845   -2.6515845   -1.5737709  0.065686419   -2.6515845    1.0778135   578779 
 3657000     1.007249   -2.6507924   -2.6507924   -1.5735824  0.069947449   -2.6507924    1.0772099   578779 
 3658000    1.0058197   -2.6498384   -2.6498384   -1.5741571  0.075868238   -2.6498384    1.0756813   578779 
 3659000    1.0077982   -2.6517224   -2.6517224   -1.5739251   0.06621705   -2.6517224    1.0777972   578779 
 3660000     1.004695   -2.6483382   -2.6483382   -1.5738596  0.070234363   -2.6483382    1.0744785   578779 
 3661000    1.0053839   -2.6498537   -2.6498537   -1.5746385  0.069131973   -2.6498537    1.0752152   578779 
 3662000    1.0046401   -2.6490353   -2.6490353   -1.5746154  0.068561279   -2.6490353    1.0744198   578779 
 3663000     1.005345   -2.6496111   -2.6496111   -1.5744375  0.060036513   -2.6496111    1.0751736   578779 
 3664000    1.0053211   -2.6498562   -2.6498562   -1.5747082  0.058161818   -2.6498562    1.0751481   578779 
 3665000    1.0049606    -2.650492    -2.650492   -1.5757294  0.064194083    -2.650492    1.0747626   578779 
 3666000    1.0068377   -2.6515639   -2.6515639   -1.5747938  0.064614734   -2.6515639    1.0767701   578779 
 3667000    1.0063838   -2.6505588   -2.6505588   -1.5742742  0.063643322   -2.6505588    1.0762846   578779 
 3668000    1.0055571   -2.6494042   -2.6494042   -1.5740037   0.07376523   -2.6494042    1.0754006   578779 
 3669000    1.0068022   -2.6508213   -2.6508213   -1.5740892  0.068396254   -2.6508213     1.076732   578779 
 3670000    1.0058002   -2.6501316   -2.6501316   -1.5744711  0.071019793   -2.6501316    1.0756605   578779 
 3671000    1.0040349   -2.6481246   -2.6481246   -1.5743521  0.072784305   -2.6481246    1.0737726   578779 
 3672000    1.0047242   -2.6493289   -2.6493289   -1.5748192   0.06019306   -2.6493289    1.0745097   578779 
 3673000    1.0047535   -2.6494412   -2.6494412   -1.5749001  0.061448338   -2.6494412    1.0745411   578779 
 3674000    1.0052432   -2.6494144   -2.6494144   -1.5743496   0.07142076   -2.6494144    1.0750648   578779 
 3675000    1.0054288   -2.6499946   -2.6499946   -1.5747313  0.071234095   -2.6499946    1.0752633   578779 
 3676000    1.0058525   -2.6497404   -2.6497404   -1.5740239  0.065754465   -2.6497404    1.0757165   578779 
 3677000    1.0040183   -2.6481573   -2.6481573   -1.5744025  0.064861013   -2.6481573    1.0737548   578779 
 3678000    1.0047137   -2.6491987   -2.6491987   -1.5747001  0.057551013   -2.6491987    1.0744986   578779 
 3679000    1.0037025   -2.6486745   -2.6486745   -1.5752574  0.058214474   -2.6486745    1.0734171   578779 
 3680000     1.004498   -2.6486665   -2.6486665   -1.5743987  0.060556488   -2.6486665    1.0742678   578779 
 3681000    1.0042979   -2.6479816   -2.6479816   -1.5739277  0.049911643   -2.6479816    1.0740539   578779 
 3682000    1.0049412   -2.6471487   -2.6471487   -1.5724069  0.064790899   -2.6471487    1.0747418   578779 
 3683000    1.0057893   -2.6482116   -2.6482116   -1.5725627  0.067095176   -2.6482116    1.0756489   578779 
 3684000     1.005755   -2.6484184   -2.6484184   -1.5728063  0.063821698   -2.6484184    1.0756121   578779 
 3685000    1.0041326   -2.6479248   -2.6479248   -1.5740478  0.064293253   -2.6479248     1.073877   578779 
 3686000    1.0056748   -2.6496834   -2.6496834   -1.5741571  0.063933132   -2.6496834    1.0755263   578779 
 3687000    1.0047576   -2.6486205   -2.6486205   -1.5740751  0.062878701   -2.6486205    1.0745454   578779 
 3688000    1.0065697    -2.651589    -2.651589   -1.5751056  0.068586653    -2.651589    1.0764834   578779 
 3689000    1.0056294   -2.6505874   -2.6505874   -1.5751095  0.068220529   -2.6505874    1.0754779   578779 
 3690000    1.0065028   -2.6507799   -2.6507799   -1.5743681  0.053803242   -2.6507799    1.0764119   578779 
 3691000    1.0055708   -2.6495853   -2.6495853   -1.5741701  0.061418575   -2.6495853    1.0754152   578779 
 3692000    1.0049626   -2.6481964   -2.6481964   -1.5734318  0.060753707   -2.6481964    1.0747647   578779 
 3693000    1.0044116   -2.6476523   -2.6476523   -1.5734769  0.059986088   -2.6476523    1.0741754   578779 
 3694000    1.0031901   -2.6477762   -2.6477762   -1.5749071  0.061537108   -2.6477762    1.0728691   578779 
 3695000    1.0044684   -2.6478839   -2.6478839   -1.5736476  0.065894122   -2.6478839    1.0742362   578779 
 3696000    1.0042074   -2.6480166   -2.6480166   -1.5740595  0.058620537   -2.6480166     1.073957   578779 
 3697000    1.0050851   -2.6480773   -2.6480773   -1.5731816  0.064689555   -2.6480773    1.0748958   578779 
 3698000    1.0047888   -2.6482136   -2.6482136   -1.5736348    0.0606997   -2.6482136    1.0745788   578779 
 3699000    1.0052295   -2.6492919   -2.6492919   -1.5742418  0.072310947   -2.6492919    1.0750501   578779 
 3700000    1.0062776   -2.6498183   -2.6498183   -1.5736472   0.07536028   -2.6498183     1.076171   578779 
 3701000    1.0060746   -2.6486018   -2.6486018   -1.5726478  0.065910029   -2.6486018     1.075954   578779 
 3702000    1.0054149   -2.6481522   -2.6481522   -1.5729037  0.068920037   -2.6481522    1.0752484   578779 
 3703000    1.0062279   -2.6489972   -2.6489972   -1.5728793  0.070034542   -2.6489972    1.0761179   578779 
 3704000    1.0059348   -2.6490823   -2.6490823   -1.5732778  0.069170742   -2.6490823    1.0758045   578779 
 3705000    1.0060723   -2.6482317   -2.6482317   -1.5722802  0.062007751   -2.6482317    1.0759515   578779 
 3706000     1.005191   -2.6469859   -2.6469859   -1.5719769  0.067378877   -2.6469859    1.0750089   578779 
 3707000    1.0064945   -2.6489456   -2.6489456   -1.5725425  0.070066432   -2.6489456    1.0764031   578779 
 3708000    1.0061654   -2.6482105   -2.6482105   -1.5721595  0.068626095   -2.6482105    1.0760511   578779 
 3709000    1.0069352   -2.6483599   -2.6483599   -1.5714856  0.062315987   -2.6483599    1.0768743   578779 
 3710000    1.0049975   -2.6467596   -2.6467596   -1.5719576  0.079554776   -2.6467596     1.074802   578779 
 3711000    1.0062117   -2.6473917   -2.6473917    -1.571291  0.063381195   -2.6473917    1.0761006   578779 
 3712000    1.0053901   -2.6475182   -2.6475182   -1.5722963  0.062035783   -2.6475182     1.075222   578779 
 3713000    1.0050118   -2.6464778   -2.6464778   -1.5716605  0.064953148   -2.6464778    1.0748173   578779 
 3714000    1.0054094   -2.6476945   -2.6476945    -1.572452  0.062745585   -2.6476945    1.0752426   578779 
 3715000    1.0051517   -2.6474397   -2.6474397   -1.5724727  0.065821199   -2.6474397     1.074967   578779 
 3716000    1.0045343   -2.6469239   -2.6469239   -1.5726173  0.073288706   -2.6469239    1.0743066   578779 
 3717000    1.0048622    -2.648511    -2.648511   -1.5738536  0.074079865    -2.648511    1.0746574   578779 
 3718000    1.0038674   -2.6466864   -2.6466864   -1.5730929  0.063282543   -2.6466864    1.0735934   578779 
 3719000    1.0050818   -2.6482637   -2.6482637   -1.5733714  0.065188925   -2.6482637    1.0748922   578779 
 3720000    1.0052404   -2.6488094   -2.6488094   -1.5737476  0.066217567   -2.6488094    1.0750618   578779 
 3721000    1.0065061   -2.6495133   -2.6495133   -1.5730979  0.054248472   -2.6495133    1.0764154   578779 
 3722000    1.0051142   -2.6479061   -2.6479061   -1.5729792  0.064064443   -2.6479061    1.0749269   578779 
 3723000     1.004308   -2.6475663   -2.6475663   -1.5735016   0.06962426   -2.6475663    1.0740646   578779 
 3724000    1.0047819   -2.6475358   -2.6475358   -1.5729644   0.06621953   -2.6475358    1.0745714   578779 
 3725000    1.0046975    -2.648154    -2.648154   -1.5736728  0.062787482    -2.648154    1.0744812   578779 
 3726000    1.0073428    -2.649675    -2.649675   -1.5723647  0.069597915    -2.649675    1.0773103   578779 
 3727000    1.0064917   -2.6492417   -2.6492417   -1.5728416  0.064322749   -2.6492417    1.0764001   578779 
 3728000    1.0056065   -2.6475225   -2.6475225   -1.5720692  0.063111395   -2.6475225    1.0754533   578779 
 3729000      1.00536    -2.648827    -2.648827   -1.5736372  0.068096086    -2.648827    1.0751898   578779 
 3730000    1.0067273   -2.6502348   -2.6502348   -1.5735828  0.061447159   -2.6502348     1.076652   578779 
 3731000    1.0048107   -2.6484012   -2.6484012   -1.5737989  0.072836292   -2.6484012    1.0746023   578779 
 3732000    1.0058029   -2.6493446   -2.6493446   -1.5736812  0.070810009   -2.6493446    1.0756633   578779 
 3733000    1.0079216   -2.6517813   -2.6517813   -1.5738521  0.063774036   -2.6517813    1.0779292   578779 
 3734000    1.0062008   -2.6508488   -2.6508488   -1.5747599  0.068445531   -2.6508488    1.0760889   578779 
 3735000    1.0058056   -2.6495578   -2.6495578   -1.5738915  0.076570259   -2.6495578    1.0756663   578779 
 3736000    1.0078738   -2.6514404   -2.6514404   -1.5735622   0.06125315   -2.6514404    1.0778781   578779 
 3737000    1.0062649    -2.649668    -2.649668   -1.5735106  0.076197703    -2.649668    1.0761574   578779 
 3738000    1.0069653   -2.6508316   -2.6508316    -1.573925  0.076487819   -2.6508316    1.0769065   578779 
 3739000    1.0067925   -2.6502288   -2.6502288    -1.573507  0.057116073   -2.6502288    1.0767218   578779 
 3740000    1.0080409   -2.6518466   -2.6518466   -1.5737898  0.063462663   -2.6518466    1.0780568   578779 
 3741000    1.0072838   -2.6512372   -2.6512372   -1.5739901   0.07474996   -2.6512372    1.0772471   578779 
 3742000    1.0062869   -2.6512578   -2.6512578   -1.5750767  0.072071064   -2.6512578     1.076181   578779 
 3743000    1.0065933   -2.6504757   -2.6504757   -1.5739671  0.078019704   -2.6504757    1.0765087   578779 
 3744000     1.007403   -2.6512001   -2.6512001   -1.5738255  0.068677632   -2.6512001    1.0773746   578779 
 3745000    1.0082831   -2.6523423   -2.6523423   -1.5740264  0.054666392   -2.6523423    1.0783159   578779 
 3746000    1.0061825    -2.649952    -2.649952   -1.5738826   0.06916442    -2.649952    1.0760694   578779 
 3747000    1.0067519   -2.6509083   -2.6509083     -1.57423  0.081645856   -2.6509083    1.0766783   578779 
 3748000    1.0057967   -2.6496675   -2.6496675   -1.5740107  0.072477302   -2.6496675    1.0756567   578779 
 3749000    1.0063703    -2.649047    -2.649047   -1.5727769  0.065207234    -2.649047    1.0762702   578779 
 3750000    1.0077276   -2.6501668   -2.6501668    -1.572445  0.068754184   -2.6501668    1.0777218   578779 
 3751000    1.0063291   -2.6484289   -2.6484289   -1.5722028   0.06617362   -2.6484289    1.0762261   578779 
 3752000    1.0047468   -2.6473285   -2.6473285   -1.5727946  0.072812278   -2.6473285    1.0745339   578779 
 3753000    1.0068453    -2.649696    -2.649696   -1.5729178  0.057152428    -2.649696    1.0767781   578779 
 3754000    1.0079172    -2.649188    -2.649188   -1.5712635  0.060855566    -2.649188    1.0779245   578779 
 3755000    1.0046686   -2.6457971   -2.6457971   -1.5713468   0.06776726   -2.6457971    1.0744503   578779 
 3756000    1.0054643   -2.6470501   -2.6470501   -1.5717489   0.07521556   -2.6470501    1.0753012   578779 
 3757000    1.0047499   -2.6462168   -2.6462168   -1.5716796  0.059253203   -2.6462168    1.0745372   578779 
 3758000    1.0055215   -2.6465827   -2.6465827   -1.5712203  0.067156133   -2.6465827    1.0753624   578779 
 3759000    1.0063065   -2.6465752   -2.6465752   -1.5703732  0.064340009   -2.6465752     1.076202   578779 
 3760000    1.0068963    -2.647682    -2.647682   -1.5708493  0.067252271    -2.647682    1.0768327   578779 
 3761000    1.0057667   -2.6474545   -2.6474545   -1.5718299  0.066596399   -2.6474545    1.0756247   578779 
 3762000     1.005539   -2.6468578   -2.6468578   -1.5714767  0.059434842   -2.6468578    1.0753811   578779 
 3763000    1.0047333   -2.6472161   -2.6472161   -1.5726967    0.0642686   -2.6472161    1.0745194   578779 
 3764000    1.0068289    -2.648766    -2.648766   -1.5720053  0.068392654    -2.648766    1.0767607   578779 
 3765000    1.0041624   -2.6461297   -2.6461297   -1.5722207  0.067340831   -2.6461297     1.073909   578779 
 3766000    1.0044974    -2.647063    -2.647063   -1.5727959   0.06595666    -2.647063    1.0742672   578779 
 3767000    1.0049827    -2.646904    -2.646904   -1.5721178  0.071171304    -2.646904    1.0747863   578779 
 3768000    1.0052163   -2.6470532   -2.6470532   -1.5720172  0.074415171   -2.6470532     1.075036   578779 
 3769000    1.0050277   -2.6477662   -2.6477662   -1.5729319   0.06873525   -2.6477662    1.0748343   578779 
 3770000    1.0058293   -2.6473645   -2.6473645   -1.5716729  0.060788261   -2.6473645    1.0756916   578779 
 3771000    1.0054169   -2.6465755   -2.6465755   -1.5713249  0.074923757   -2.6465755    1.0752506   578779 
 3772000    1.0061932   -2.6476201   -2.6476201   -1.5715394  0.067175571   -2.6476201    1.0760807   578779 
 3773000     1.005835   -2.6477088   -2.6477088   -1.5720111  0.064043382   -2.6477088    1.0756977   578779 
 3774000     1.006805   -2.6484662   -2.6484662   -1.5717312  0.070916632   -2.6484662     1.076735   578779 
 3775000    1.0052456    -2.647235    -2.647235   -1.5721675  0.058947497    -2.647235    1.0750674   578779 
 3776000    1.0062055   -2.6477068   -2.6477068   -1.5716128  0.060646456   -2.6477068    1.0760939   578779 
 3777000     1.006877    -2.648506    -2.648506   -1.5716939  0.076294146    -2.648506    1.0768121   578779 
 3778000    1.0050005   -2.6469592   -2.6469592   -1.5721539  0.071959262   -2.6469592    1.0748053   578779 
 3779000    1.0063059   -2.6484531   -2.6484531   -1.5722518  0.063258327   -2.6484531    1.0762013   578779 
 3780000    1.0063906    -2.647711    -2.647711   -1.5714192  0.074226098    -2.647711    1.0762919   578779 
 3781000    1.0072511   -2.6486622   -2.6486622     -1.57145  0.074969611   -2.6486622    1.0772122   578779 
 3782000    1.0060706   -2.6476963   -2.6476963   -1.5717467   0.08138924   -2.6476963    1.0759496   578779 
 3783000    1.0078532   -2.6495789   -2.6495789   -1.5717228   0.06624579   -2.6495789    1.0778561   578779 
 3784000      1.00861   -2.6499098   -2.6499098   -1.5712443  0.071045352   -2.6499098    1.0786655   578779 
 3785000    1.0075416   -2.6487693   -2.6487693   -1.5712465  0.063113263   -2.6487693    1.0775229   578779 
 3786000    1.0065251   -2.6486796   -2.6486796   -1.5722439  0.083753666   -2.6486796    1.0764357   578779 
 3787000    1.0070394   -2.6486898   -2.6486898   -1.5717041  0.070592762   -2.6486898    1.0769857   578779 
 3788000    1.0061008   -2.6482067   -2.6482067   -1.5722247  0.062110442   -2.6482067     1.075982   578779 
 3789000    1.0050297   -2.6475871   -2.6475871   -1.5727507  0.063621314   -2.6475871    1.0748364   578779 
 3790000    1.0056303   -2.6479149   -2.6479149   -1.5724362  0.059983854   -2.6479149    1.0754788   578779 
 3791000     1.007871   -2.6497542   -2.6497542    -1.571879   0.07281497   -2.6497542    1.0778752   578779 
 3792000    1.0071412   -2.6489313   -2.6489313   -1.5718367  0.058942907   -2.6489313    1.0770947   578779 
 3793000    1.0057262   -2.6470396   -2.6470396   -1.5714582  0.076937629   -2.6470396    1.0755813   578779 
 3794000    1.0053399   -2.6464671   -2.6464671   -1.5712989  0.075286821   -2.6464671    1.0751682   578779 
 3795000    1.0062418   -2.6473468   -2.6473468    -1.571214  0.059409948   -2.6473468    1.0761328   578779 
 3796000    1.0053405    -2.646385    -2.646385   -1.5712162    0.0786932    -2.646385    1.0751688   578779 
 3797000    1.0066297   -2.6472658   -2.6472658   -1.5707182  0.063353631   -2.6472658    1.0765476   578779 
 3798000    1.0037752    -2.644823    -2.644823   -1.5713281  0.070553132    -2.644823    1.0734948   578779 
 3799000    1.0048404   -2.6461819   -2.6461819   -1.5715479  0.058030975   -2.6461819     1.074634   578779 
 3800000    1.0066467    -2.647737    -2.647737   -1.5711712  0.065934325    -2.647737    1.0765658   578779 
 3801000    1.0063953   -2.6473659   -2.6473659    -1.571069  0.073764461   -2.6473659    1.0762969   578779 
 3802000     1.006803   -2.6471343   -2.6471343   -1.5704013  0.068783629   -2.6471343     1.076733   578779 
 3803000    1.0059728   -2.6473851   -2.6473851     -1.57154  0.060906109   -2.6473851    1.0758451   578779 
 3804000     1.005318   -2.6460346   -2.6460346   -1.5708898  0.072430862   -2.6460346    1.0751448   578779 
 3805000      1.00662   -2.6467745   -2.6467745   -1.5702372  0.071136435   -2.6467745    1.0765373   578779 
 3806000    1.0063708   -2.6460611   -2.6460611   -1.5697904  0.066293484   -2.6460611    1.0762708   578779 
 3807000    1.0069153   -2.6462941   -2.6462941   -1.5694411  0.074665581   -2.6462941     1.076853   578779 
 3808000    1.0068016    -2.647081    -2.647081   -1.5703495  0.067830325    -2.647081    1.0767315   578779 
 3809000    1.0053766   -2.6452531   -2.6452531   -1.5700457  0.072314413   -2.6452531    1.0752075   578779 
 3810000    1.0055568   -2.6456819   -2.6456819   -1.5702817   0.06617356   -2.6456819    1.0754001   578779 
 3811000    1.0068378    -2.646732    -2.646732   -1.5699618  0.061855213    -2.646732    1.0767701   578779 
 3812000    1.0054196   -2.6448829   -2.6448829   -1.5696295  0.079953642   -2.6448829    1.0752535   578779 
 3813000    1.0058862   -2.6461835   -2.6461835    -1.570431  0.065683643   -2.6461835    1.0757525   578779 
 3814000    1.0051361   -2.6450277   -2.6450277   -1.5700774  0.064959428   -2.6450277    1.0749503   578779 
 3815000    1.0042033   -2.6448697   -2.6448697    -1.570917   0.06518531   -2.6448697    1.0739527   578779 
 3816000    1.0050089   -2.6444272   -2.6444272   -1.5696129  0.070704287   -2.6444272    1.0748142   578779 
 3817000    1.0058164   -2.6465661   -2.6465661   -1.5708883  0.068737279   -2.6465661    1.0756778   578779 
 3818000    1.0057145   -2.6461772   -2.6461772   -1.5706084  0.056809165   -2.6461772    1.0755688   578779 
 3819000    1.0036911   -2.6440225   -2.6440225   -1.5706176   0.07052923   -2.6440225    1.0734049   578779 
 3820000    1.0080401   -2.6485332   -2.6485332   -1.5704772  0.062993735   -2.6485332     1.078056   578779 
 3821000     1.005626   -2.6458361   -2.6458361    -1.570362  0.075544723   -2.6458361    1.0754741   578779 
 3822000    1.0070942   -2.6472357   -2.6472357   -1.5701913  0.065855213   -2.6472357    1.0770444   578779 
 3823000    1.0079054   -2.6486262   -2.6486262   -1.5707143  0.063141617   -2.6486262     1.077912   578779 
 3824000    1.0064294   -2.6469384   -2.6469384    -1.570605   0.06959274   -2.6469384    1.0763334   578779 
 3825000    1.0100121   -2.6501728   -2.6501728   -1.5700079  0.067944765   -2.6501728    1.0801649   578779 
 3826000    1.0064424   -2.6464246   -2.6464246   -1.5700773  0.068828331   -2.6464246    1.0763473   578779 
 3827000    1.0074676   -2.6479151   -2.6479151   -1.5704713  0.071174754   -2.6479151    1.0774437   578779 
 3828000    1.0075179   -2.6476732   -2.6476732   -1.5701757  0.075263695   -2.6476732    1.0774975   578779 
 3829000    1.0076115   -2.6473614   -2.6473614   -1.5697638   0.07315956   -2.6473614    1.0775976   578779 
 3830000    1.0095688   -2.6500269   -2.6500269   -1.5703361  0.069103994   -2.6500269    1.0796908   578779 
 3831000    1.0068274   -2.6472322   -2.6472322   -1.5704732  0.066592821   -2.6472322    1.0767591   578779 
 3832000    1.0084518    -2.649314    -2.649314   -1.5708178  0.075692397    -2.649314    1.0784962   578779 
 3833000    1.0077617   -2.6492533   -2.6492533    -1.571495  0.055024082   -2.6492533    1.0777583   578779 
 3834000    1.0064317   -2.6484307   -2.6484307   -1.5720948  0.057011312   -2.6484307    1.0763359   578779 
 3835000    1.0051058   -2.6469919   -2.6469919   -1.5720741  0.071589419   -2.6469919    1.0749178   578779 
 3836000    1.0044032   -2.6461873   -2.6461873   -1.5720208  0.064275417   -2.6461873    1.0741665   578779 
 3837000    1.0040357   -2.6461457   -2.6461457   -1.5723722  0.062598162   -2.6461457    1.0737735   578779 
 3838000    1.0051734   -2.6475822   -2.6475822   -1.5725921  0.064411195   -2.6475822    1.0749902   578779 
 3839000     1.004976   -2.6471901   -2.6471901    -1.572411  0.068080409   -2.6471901    1.0747791   578779 
 3840000    1.0044692   -2.6474015   -2.6474015   -1.5731645  0.078202461   -2.6474015     1.074237   578779 
 3841000    1.0052459   -2.6474459   -2.6474459   -1.5723783  0.060108887   -2.6474459    1.0750677   578779 
 3842000    1.0065212   -2.6485116   -2.6485116     -1.57208  0.061504932   -2.6485116    1.0764316   578779 
 3843000    1.0046988   -2.6466947   -2.6466947   -1.5722122  0.063745849   -2.6466947    1.0744825   578779 
 3844000    1.0055028   -2.6462564   -2.6462564   -1.5709139  0.073657081   -2.6462564    1.0753424   578779 
 3845000    1.0057074   -2.6461072   -2.6461072    -1.570546  0.061381531   -2.6461072    1.0755613   578779 
 3846000     1.004982   -2.6460484   -2.6460484   -1.5712629   0.05400031   -2.6460484    1.0747855   578779 
 3847000    1.0052779   -2.6457491   -2.6457491   -1.5706472  0.055830059   -2.6457491    1.0751019   578779 
 3848000    1.0064156   -2.6468281   -2.6468281   -1.5705095  0.059684626   -2.6468281    1.0763186   578779 
 3849000    1.0068326   -2.6469919   -2.6469919   -1.5702274  0.060472009   -2.6469919    1.0767646   578779 
 3850000     1.008312   -2.6484791   -2.6484791   -1.5701324  0.061531818   -2.6484791    1.0783467   578779 
 3851000    1.0053708   -2.6458792   -2.6458792   -1.5706778  0.071286272   -2.6458792    1.0752013   578779 
 3852000    1.0072465   -2.6480216   -2.6480216   -1.5708143  0.063209554   -2.6480216    1.0772073   578779 
 3853000    1.0064072   -2.6470616   -2.6470616    -1.570752  0.065560419   -2.6470616    1.0763097   578779 
 3854000    1.0053383   -2.6456444   -2.6456444   -1.5704779  0.070976591   -2.6456444    1.0751665   578779 
 3855000    1.0048308   -2.6462305   -2.6462305   -1.5716067  0.074209052   -2.6462305    1.0746238   578779 
 3856000     1.005893   -2.6463863   -2.6463863   -1.5706265  0.077549846   -2.6463863    1.0757598   578779 
 3857000    1.0064783   -2.6473269   -2.6473269   -1.5709412  0.073301275   -2.6473269    1.0763857   578779 
 3858000    1.0067472   -2.6480611   -2.6480611   -1.5713879  0.065006203   -2.6480611    1.0766732   578779 
 3859000    1.0056962   -2.6473838   -2.6473838   -1.5718345  0.070886903   -2.6473838    1.0755492   578779 
 3860000     1.005095   -2.6470264   -2.6470264     -1.57212  0.076865814   -2.6470264    1.0749064   578779 
 3861000    1.0067501   -2.6488627   -2.6488627   -1.5721863  0.065409415   -2.6488627    1.0766764   578779 
 3862000    1.0058206   -2.6471514   -2.6471514   -1.5714692  0.066865071   -2.6471514    1.0756823   578779 
 3863000    1.0065412   -2.6471987   -2.6471987   -1.5707458    0.0723451   -2.6471987     1.076453   578779 
 3864000    1.0054205   -2.6474782   -2.6474782   -1.5722238   0.06428023   -2.6474782    1.0752544   578779 
 3865000    1.0071926     -2.64859     -2.64859   -1.5714405  0.068328637     -2.64859    1.0771496   578779 
 3866000     1.007984   -2.6485767   -2.6485767   -1.5705807  0.069107478   -2.6485767     1.077996   578779 
 3867000    1.0074742   -2.6484743   -2.6484743   -1.5710236  0.077725024   -2.6484743    1.0774507   578779 
 3868000    1.0089459   -2.6489285   -2.6489285   -1.5699038  0.083071471   -2.6489285    1.0790246   578779 
 3869000    1.0083867   -2.6490097   -2.6490097   -1.5705831   0.07985991   -2.6490097    1.0784266   578779 
 3870000    1.0070325   -2.6477013   -2.6477013   -1.5707229  0.071213708   -2.6477013    1.0769784   578779 
 3871000    1.0067204   -2.6467799   -2.6467799   -1.5701352  0.072290836   -2.6467799    1.0766446   578779 
 3872000    1.0078075   -2.6484524   -2.6484524   -1.5706452  0.066540679   -2.6484524    1.0778072   578779 
 3873000    1.0076487   -2.6484244   -2.6484244    -1.570787  0.063797126   -2.6484244    1.0776374   578779 
 3874000    1.0062463   -2.6471675   -2.6471675   -1.5710299   0.06922412   -2.6471675    1.0761376   578779 
 3875000    1.0045164   -2.6458314   -2.6458314   -1.5715438  0.055676812   -2.6458314    1.0742876   578779 
 3876000    1.0043225   -2.6462397   -2.6462397   -1.5721596   0.06182282   -2.6462397    1.0740802   578779 
 3877000    1.0055973   -2.6467567   -2.6467567   -1.5713132  0.069163462   -2.6467567    1.0754435   578779 
 3878000    1.0054525   -2.6458676   -2.6458676   -1.5705789  0.071933547   -2.6458676    1.0752887   578779 
 3879000    1.0071695   -2.6479833   -2.6479833   -1.5708584  0.058778483   -2.6479833    1.0771249   578779 
 3880000    1.0080121   -2.6490055   -2.6490055   -1.5709794  0.063457391   -2.6490055    1.0780261   578779 
 3881000    1.0054468   -2.6463657   -2.6463657   -1.5710832  0.067997549   -2.6463657    1.0752825   578779 
 3882000    1.0073222   -2.6481945   -2.6481945   -1.5709063  0.057105164   -2.6481945    1.0772883   578779 
 3883000    1.0059673   -2.6471681   -2.6471681   -1.5713289  0.072533563   -2.6471681    1.0758392   578779 
 3884000    1.0054332   -2.6461738   -2.6461738   -1.5709058  0.074703797   -2.6461738     1.075268   578779 
 3885000     1.007138   -2.6480101   -2.6480101   -1.5709189  0.071800696   -2.6480101    1.0770912   578779 
 3886000    1.0075085   -2.6481495   -2.6481495    -1.570662  0.059220745   -2.6481495    1.0774875   578779 
 3887000    1.0048722   -2.6461417   -2.6461417   -1.5714736  0.058926165   -2.6461417     1.074668   578779 
 3888000    1.0067935    -2.648031    -2.648031   -1.5713082  0.068258924    -2.648031    1.0767228   578779 
 3889000    1.0063762   -2.6469249   -2.6469249   -1.5706483  0.065926177   -2.6469249    1.0762765   578779 
 3890000    1.0051808   -2.6466063   -2.6466063   -1.5716082  0.063554179   -2.6466063    1.0749981   578779 
 3891000    1.0057653   -2.6467858   -2.6467858   -1.5711627  0.063567228   -2.6467858    1.0756231   578779 
 3892000     1.008175     -2.64907     -2.64907   -1.5708698  0.058445948     -2.64907    1.0782003   578779 
 3893000    1.0070945   -2.6476181   -2.6476181   -1.5705735  0.060047644   -2.6476181    1.0770447   578779 
 3894000     1.006965   -2.6474095   -2.6474095   -1.5705033  0.060514642   -2.6474095    1.0769062   578779 
 3895000    1.0066661   -2.6466629   -2.6466629   -1.5700764  0.065210784   -2.6466629    1.0765865   578779 
 3896000    1.0067769   -2.6465721   -2.6465721   -1.5698671  0.077127892   -2.6465721    1.0767051   578779 
 3897000    1.0079271   -2.6479561   -2.6479561    -1.570021  0.076154872   -2.6479561    1.0779351   578779 
 3898000    1.0076085    -2.646859    -2.646859   -1.5692646  0.076693227    -2.646859    1.0775944   578779 
 3899000    1.0080318   -2.6481255   -2.6481255   -1.5700784  0.072843992   -2.6481255    1.0780471   578779 
 3900000    1.0057775    -2.645189    -2.645189   -1.5695528  0.071564667    -2.645189    1.0756362   578779 
 3901000    1.0063568   -2.6454667   -2.6454667   -1.5692109  0.065324359   -2.6454667    1.0762558   578779 
 3902000    1.0044709   -2.6438283   -2.6438283   -1.5695895  0.062224592   -2.6438283    1.0742388   578779 
 3903000     1.005062   -2.6437981   -2.6437981   -1.5689271  0.068597248   -2.6437981     1.074871   578779 
 3904000    1.0052935   -2.6442841   -2.6442841   -1.5691655   0.06817307   -2.6442841    1.0751186   578779 
 3905000    1.0039081   -2.6432264   -2.6432264   -1.5695894  0.065792132   -2.6432264     1.073637   578779 
 3906000    1.0075322   -2.6467253   -2.6467253   -1.5692125  0.068791606   -2.6467253    1.0775128   578779 
 3907000    1.0056888   -2.6454028   -2.6454028   -1.5698615  0.067093581   -2.6454028    1.0755413   578779 
 3908000    1.0052163   -2.6446463   -2.6446463   -1.5696102  0.067763134   -2.6446463    1.0750361   578779 
 3909000    1.0050075   -2.6444281   -2.6444281   -1.5696154  0.058289694   -2.6444281    1.0748127   578779 
 3910000    1.0068039   -2.6459497   -2.6459497   -1.5692158  0.061738541   -2.6459497    1.0767339   578779 
 3911000    1.0060029   -2.6437529   -2.6437529   -1.5678755  0.063426149   -2.6437529    1.0758773   578779 
 3912000    1.0061041   -2.6443818   -2.6443818   -1.5683963   0.06010144   -2.6443818    1.0759855   578779 
 3913000    1.0061875   -2.6435556   -2.6435556   -1.5674809  0.070115398   -2.6435556    1.0760747   578779 
 3914000    1.0057781   -2.6442835   -2.6442835   -1.5686466  0.065367303   -2.6442835    1.0756369   578779 
 3915000    1.0065833   -2.6456407   -2.6456407   -1.5691427  0.065941067   -2.6456407     1.076498   578779 
 3916000    1.0050394   -2.6437717   -2.6437717   -1.5689249   0.07288326   -2.6437717    1.0748468   578779 
 3917000    1.0050871   -2.6436165   -2.6436165   -1.5687187  0.057232299   -2.6436165    1.0748978   578779 
 3918000    1.0058005   -2.6443186   -2.6443186   -1.5686578  0.070855228   -2.6443186    1.0756609   578779 
 3919000    1.0044733    -2.643691    -2.643691   -1.5694495  0.059638776    -2.643691    1.0742415   578779 
 3920000    1.0049641   -2.6430383   -2.6430383   -1.5682719  0.067593304   -2.6430383    1.0747664   578779 
 3921000     1.005271    -2.643258    -2.643258   -1.5681635   0.06156437    -2.643258    1.0750945   578779 
 3922000     1.005431   -2.6446416   -2.6446416    -1.569376  0.065396823   -2.6446416    1.0752657   578779 
 3923000    1.0046706   -2.6440817   -2.6440817   -1.5696293  0.067209156   -2.6440817    1.0744525   578779 
 3924000    1.0058301   -2.6444289   -2.6444289   -1.5687364  0.049503523   -2.6444289    1.0756925   578779 
 3925000     1.006864   -2.6450945   -2.6450945   -1.5682963  0.066595982   -2.6450945    1.0767982   578779 
 3926000    1.0081008   -2.6461829   -2.6461829    -1.568062  0.060489767   -2.6461829    1.0781209   578779 
 3927000    1.0061387   -2.6443759   -2.6443759   -1.5683534   0.05350481   -2.6443759    1.0760225   578779 
 3928000    1.0063589   -2.6450701   -2.6450701   -1.5688121   0.07292573   -2.6450701     1.076258   578779 
 3929000    1.0063615   -2.6451742   -2.6451742   -1.5689134  0.064186677   -2.6451742    1.0762608   578779 
 3930000    1.0057166   -2.6447708   -2.6447708   -1.5691997  0.059846001   -2.6447708    1.0755711   578779 
 3931000    1.0054726   -2.6445435   -2.6445435   -1.5692333   0.07544513   -2.6445435    1.0753102   578779 
 3932000    1.0075222   -2.6457775   -2.6457775   -1.5682754   0.07026294   -2.6457775    1.0775021   578779 
 3933000    1.0055137   -2.6439218   -2.6439218   -1.5685678  0.077126502   -2.6439218    1.0753541   578779 
 3934000    1.0065265   -2.6447751   -2.6447751   -1.5683379  0.074729453   -2.6447751    1.0764372   578779 
 3935000    1.0053496   -2.6438041   -2.6438041   -1.5686255  0.070006841   -2.6438041    1.0751786   578779 
 3936000    1.0065488   -2.6450355   -2.6450355   -1.5685744  0.078387964   -2.6450355     1.076461   578779 
 3937000    1.0080078    -2.646565    -2.646565   -1.5685436  0.067201547    -2.646565    1.0780214   578779 
 3938000    1.0098575   -2.6487512   -2.6487512   -1.5687515  0.065683362   -2.6487512    1.0799996   578779 
 3939000     1.008378   -2.6471617   -2.6471617   -1.5687443    0.0683139   -2.6471617    1.0784173   578779 
 3940000    1.0074925   -2.6462947   -2.6462947   -1.5688244  0.073746472   -2.6462947    1.0774703   578779 
 3941000    1.0068091   -2.6461443   -2.6461443   -1.5694048  0.064451815   -2.6461443    1.0767395   578779 
 3942000    1.0071616   -2.6473725   -2.6473725    -1.570256  0.067446916   -2.6473725    1.0771165   578779 
 3943000    1.0068323   -2.6468393   -2.6468393    -1.570075  0.070717111   -2.6468393    1.0767643   578779 
 3944000    1.0061415   -2.6462233   -2.6462233   -1.5701978  0.069682503   -2.6462233    1.0760255   578779 
 3945000    1.0058584   -2.6462677   -2.6462677    -1.570545  0.072191192   -2.6462677    1.0757227   578779 
 3946000    1.0058294   -2.6458834   -2.6458834   -1.5701917  0.070212719   -2.6458834    1.0756917   578779 
 3947000    1.0055879   -2.6459383   -2.6459383   -1.5705049  0.073230244   -2.6459383    1.0754335   578779 
 3948000    1.0047309   -2.6449523   -2.6449523   -1.5704354  0.079591455   -2.6449523    1.0745169   578779 
 3949000    1.0039208   -2.6441794   -2.6441794   -1.5705289  0.062929047   -2.6441794    1.0736505   578779 
 3950000    1.0057232   -2.6450203   -2.6450203   -1.5694422  0.078778544   -2.6450203    1.0755781   578779 
 3951000    1.0072322   -2.6469387   -2.6469387   -1.5697468   0.06224193   -2.6469387    1.0771919   578779 
 3952000    1.0053432   -2.6450099   -2.6450099   -1.5698382  0.059365413   -2.6450099    1.0751717   578779 
 3953000    1.0054179   -2.6452177   -2.6452177   -1.5699661  0.067554857   -2.6452177    1.0752516   578779 
 3954000     1.005587   -2.6444687   -2.6444687   -1.5690363  0.071894455   -2.6444687    1.0754324   578779 
 3955000    1.0056361   -2.6445178   -2.6445178   -1.5690327  0.059889308   -2.6445178     1.075485   578779 
 3956000    1.0071564   -2.6463742   -2.6463742   -1.5692633  0.064062444   -2.6463742    1.0771109   578779 
 3957000    1.0067494   -2.6456593   -2.6456593   -1.5689837  0.062424905   -2.6456593    1.0766757   578779 
 3958000    1.0051617   -2.6442268   -2.6442268   -1.5692492  0.067580152   -2.6442268    1.0749776   578779 
 3959000    1.0056096   -2.6447658   -2.6447658   -1.5693092  0.060113365   -2.6447658    1.0754566   578779 
 3960000     1.007113   -2.6455895   -2.6455895   -1.5685251  0.061503063   -2.6455895    1.0770644   578779 
 3961000    1.0055158   -2.6438984   -2.6438984   -1.5685421  0.062478772   -2.6438984    1.0753564   578779 
 3962000    1.0057198   -2.6444115   -2.6444115   -1.5688371  0.077919603   -2.6444115    1.0755745   578779 
 3963000    1.0059656   -2.6447463   -2.6447463   -1.5689089  0.068454677   -2.6447463    1.0758374   578779 
 3964000    1.0068637   -2.6453986   -2.6453986   -1.5686008  0.058287955   -2.6453986    1.0767978   578779 
 3965000    1.0066228   -2.6463276   -2.6463276   -1.5697874  0.074585333   -2.6463276    1.0765402   578779 
 3966000    1.0050882   -2.6442433   -2.6442433   -1.5693442  0.065104365   -2.6442433    1.0748991   578779 
 3967000    1.0078603   -2.6466416   -2.6466416   -1.5687779  0.070944205   -2.6466416    1.0778637   578779 
 3968000    1.0074026   -2.6458551   -2.6458551   -1.5684809  0.065073782   -2.6458551    1.0773742   578779 
 3969000    1.0065176   -2.6454042   -2.6454042   -1.5689764  0.075033212   -2.6454042    1.0764277   578779 
 3970000     1.006614   -2.6461896   -2.6461896   -1.5696588  0.059813457   -2.6461896    1.0765308   578779 
 3971000    1.0068173   -2.6459591   -2.6459591   -1.5692108  0.064927586   -2.6459591    1.0767482   578779 
 3972000    1.0067685   -2.6465612   -2.6465612   -1.5698652  0.073951947   -2.6465612     1.076696   578779 
 3973000    1.0056385   -2.6457776   -2.6457776     -1.57029  0.068567002   -2.6457776    1.0754876   578779 
 3974000    1.0058394   -2.6457085   -2.6457085   -1.5700061  0.064430205   -2.6457085    1.0757024   578779 
 3975000     1.004113   -2.6433313   -2.6433313   -1.5694751  0.079306257   -2.6433313    1.0738561   578779 
 3976000    1.0046318   -2.6443223   -2.6443223   -1.5699113  0.060622424   -2.6443223     1.074411   578779 
 3977000    1.0051294   -2.6454135   -2.6454135   -1.5704704  0.067233676   -2.6454135    1.0749431   578779 
 3978000    1.0047689   -2.6451452   -2.6451452   -1.5705877   0.05307078   -2.6451452    1.0745575   578779 
 3979000    1.0046215   -2.6450634   -2.6450634   -1.5706635  0.077660859   -2.6450634       1.0744   578779 
 3980000     1.005317    -2.646261    -2.646261   -1.5711173  0.061511297    -2.646261    1.0751437   578779 
 3981000    1.0056621   -2.6460171   -2.6460171   -1.5705042   0.07042935   -2.6460171    1.0755128   578779 
 3982000    1.0055833   -2.6463619   -2.6463619   -1.5709334  0.062202788   -2.6463619    1.0754285   578779 
 3983000    1.0067862    -2.646517    -2.646517   -1.5698021  0.056632709    -2.646517     1.076715   578779 
 3984000    1.0053849   -2.6462514   -2.6462514   -1.5710351     0.068324   -2.6462514    1.0752163   578779 
 3985000    1.0061705   -2.6463644   -2.6463644    -1.570308  0.071011364   -2.6463644    1.0760565   578779 
 3986000    1.0052597   -2.6460081   -2.6460081   -1.5709256  0.067002863   -2.6460081    1.0750825   578779 
 3987000    1.0067459   -2.6476498   -2.6476498   -1.5709779  0.058021527   -2.6476498    1.0766719   578779 
 3988000    1.0084986   -2.6488149   -2.6488149   -1.5702686  0.059282417   -2.6488149    1.0785463   578779 
 3989000     1.005505   -2.6457607   -2.6457607   -1.5704159  0.064722111   -2.6457607    1.0753448   578779 
 3990000     1.006594   -2.6470216   -2.6470216   -1.5705122  0.071070731   -2.6470216    1.0765094   578779 
 3991000    1.0058431   -2.6463659   -2.6463659   -1.5706595  0.059677041   -2.6463659    1.0757064   578779 
 3992000    1.0065172   -2.6469611   -2.6469611   -1.5705338  0.055451083   -2.6469611    1.0764273   578779 
 3993000     1.004003   -2.6444727   -2.6444727   -1.5707343  0.064129069   -2.6444727    1.0737384   578779 
 3994000    1.0028305    -2.642748    -2.642748   -1.5702635  0.074129363    -2.642748    1.0724846   578779 
 3995000    1.0054578   -2.6457708   -2.6457708   -1.5704764  0.067169431   -2.6457708    1.0752943   578779 
 3996000    1.0043448   -2.6447845   -2.6447845   -1.5706805  0.075154531   -2.6447845     1.074104   578779 
 3997000    1.0050361   -2.6453587   -2.6453587   -1.5705154  0.066634582   -2.6453587    1.0748434   578779 
 3998000    1.0046893   -2.6447808   -2.6447808   -1.5703084  0.077250085   -2.6447808    1.0744724   578779 
 3999000    1.0044616   -2.6444829   -2.6444829    -1.570254  0.069837341   -2.6444829    1.0742289   578779 
 4000000    1.0071048   -2.6461525   -2.6461525   -1.5690968  0.068452326   -2.6461525    1.0770557   578779 
Loop time of 8326.59 on 288 procs for 4000000 steps with 578779 atoms

Performance: 207527.838 tau/day, 480.389 timesteps/s
98.6% CPU use with 288 MPI tasks x 1 OpenMP threads

MPI task timing breakdown:
Section |  min time  |  avg time  |  max time  |%varavg|  %CPU | %total
-----------------------------------------------------------------------
Pair    | 1311.8     | 1879.8     | 2441.8     | 673.0 |  98.7 | 22.58
Bond    | 2.6737     | 2.8121     | 3.0417     |   3.5 | 100.0 |  0.03
Neigh   | 1030.8     | 1627.9     | 2560.8     | 651.9 |  99.5 | 19.55
Comm    | 1960.1     | 2913       | 4405.7     | 852.2 |  98.3 | 34.98
Output  | 228.47     | 230.23     | 234.33     |  14.5 |  97.4 |  2.76
Modify  | 825.09     | 1574.8     | 2407.2     | 998.7 |  98.4 | 18.91
Other   |            | 97.89      |            |       |       |  1.18

Nlocal:        2009.65 ave        2689 max        1577 min
Histogram: 14 29 38 85 54 31 20 11 5 1
Nghost:        6094.31 ave        9950 max        2242 min
Histogram: 24 31 21 17 28 46 53 35 27 6
Neighs:        44810.9 ave       60745 max       21997 min
Histogram: 2 4 13 36 45 52 51 32 31 22

Total # of neighbors = 12905530
Ave neighs/atom = 22.297855
Ave special neighs/atom = 0.0000000
Neighbor list builds = 400000
Dangerous builds = 396000

Total wall time: 2:18:51
