LAMMPS (24 Dec 2020)
OMP_NUM_THREADS environment is not set. Defaulting to 1 thread. (src/comm.cpp:94)
  using 1 OpenMP thread(s) per MPI task
#Read the equilibrated lj fluid and add nanocubes

units           lj
atom_style      full
atom_modify     map array first cubes
dimension       3
boundary        p p f
pair_style      lj/cut/opt 2.5

variable        sigma           equal 1.0
variable        epsilon         equal 1.0
read_restart	restart.dat.3000000
Reading restart file ...
  restart file = 24 Dec 2020, LAMMPS = 24 Dec 2020
WARNING: Restart file used different # of processors: 48 vs. 288 (src/read_restart.cpp:697)
  restoring atom style full from restart
  orthogonal box = (0.0000000 0.0000000 0.0000000) to (80.000000 80.000000 160.00000)
  6 by 4 by 12 MPI processor grid
  restoring pair style lj/cut/opt from restart
  518400 atoms
Finding 1-2 1-3 1-4 neighbors ...
  special bond factors lj:    0        0        0       
  special bond factors coul:  0        0        0       
     0 = max # of 1-2 neighbors
     0 = max # of 1-3 neighbors
     0 = max # of 1-4 neighbors
     1 = max # of special neighbors
  special bonds CPU = 2.445 seconds
  read_restart CPU = 2.821 seconds

group		solvent type 1
518400 atoms in group solvent

read_data	data_96.cubes group cubes add append
Reading data file ...
  orthogonal box = (0.0000000 0.0000000 0.0000000) to (80.000000 80.000000 160.00000)
  6 by 4 by 12 MPI processor grid
  reading atoms ...
  109728 atoms
  reading velocities ...
  109728 velocities
Finding 1-2 1-3 1-4 neighbors ...
  special bond factors lj:    0        0        0       
  special bond factors coul:  0        0        0       
     0 = max # of 1-2 neighbors
     0 = max # of 1-3 neighbors
     0 = max # of 1-4 neighbors
     1 = max # of special neighbors
  special bonds CPU = 0.061 seconds
  read_data CPU = 0.397 seconds

group 		hull  type 2
42816 atoms in group hull
group 		dummy type 3
66912 atoms in group dummy

neighbor      0.4 bin
neigh_modify  exclude molecule/intra cubes


pair_modify   shift yes

pair_coeff    1 1 1.0 1.0 #solvent
pair_coeff    2 2 1.0 1.0 1.12 #np
pair_coeff    3 3 0.0 0.0 0.0 #dummy
pair_coeff    2 3 0.0 0.0 0.0 #np dummy
pair_coeff    1 2 ${eps} ${sig} ${nscut} #np solvent
pair_coeff    1 2 1.0 ${sig} ${nscut} 
pair_coeff    1 2 1.0 2.0 ${nscut} 
pair_coeff    1 2 1.0 2.0 4.0 
pair_coeff    1 3 0.0 0.0 2.5 #dummy solvent

# delete solvent where the cubes are
delete_atoms  overlap 2.0 solvent cubes
System init for delete_atoms ...
Neighbor list info ...
  update every 1 steps, delay 10 steps, check yes
  max neighbors/atom: 2000, page size: 100000
  master list distance cutoff = 4.4
  ghost atom cutoff = 4.4
  binsize = 2.2, bins = 37 37 73
  2 neighbor lists, perpetual/occasional/extra = 1 1 0
  (1) command delete_atoms, occasional
      attributes: full, newton on
      pair build: full/bin
      stencil: full/bin/3d
      bin: standard
  (2) pair lj/cut/opt, perpetual
      attributes: half, newton on
      pair build: half/bin/newton
      stencil: half/bin/3d/newton
      bin: standard
WARNING: Delete_atoms cutoff > minimum neighbor cutoff (src/delete_atoms.cpp:307)
WARNING: Ignoring 'compress yes' for molecular system (src/delete_atoms.cpp:125)
Deleted 107525 atoms, new total = 520603



pair_coeff    1 1 1.0 1.0 #solvent
pair_coeff    2 2 1.0 1.0 1.12 #np
pair_coeff    3 3 0.0 0.0 0.0 #dummy
pair_coeff    2 3 0.0 0.0 0.0 #np dummy
pair_coeff    1 2 ${eps} ${sig} ${nscut} #np solvent
pair_coeff    1 2 1.0 ${sig} ${nscut} 
pair_coeff    1 2 1.0 2.0 ${nscut} 
pair_coeff    1 2 1.0 2.0 4.0 
pair_coeff    1 3 0.0 0.0 0.0 #dummy solvent


comm_modify   mode multi cutoff/multi 1 2.5 cutoff/multi 2 2.5 cutoff/multi 3 6.95

reset_timestep 	0

balance 	1.05 shift z 10 1.05
Balancing ...
Neighbor list info ...
  update every 1 steps, delay 10 steps, check yes
  max neighbors/atom: 2000, page size: 100000
  master list distance cutoff = 4.4
  ghost atom cutoff = 6.95
  binsize = 2.2, bins = 37 37 73
  1 neighbor lists, perpetual/occasional/extra = 1 0 0
  (1) pair lj/cut/opt, perpetual
      attributes: half, newton on
      pair build: half/bin/newton
      stencil: half/bin/3d/newton
      bin: standard
 rebalancing time: 0.005 seconds
  iteration count = 4
  initial/final maximal load/proc = 2217.0000 2502.0000
  initial/final imbalance factor  = 1.2264547 1.3841180
  x cuts: 0.0000000 0.16666667 0.33333333 0.50000000 0.66666667 0.83333333 1.0000000
  y cuts: 0.0000000 0.25000000 0.50000000 0.75000000 1.0000000
  z cuts: 0.0000000 0.078125000 0.16145833 0.25520833 0.34895833 0.42187500 0.49479167 0.57812500 0.65104167 0.72395833 0.78645833 0.85937500 1.0000000

####################### WALLS ###########################

variable       epsilonWall equal 2*${epsilon}
variable       epsilonWall equal 2*1
variable       repulsive   equal   0.7147*${sigma}
variable       repulsive   equal   0.7147*1
variable       full	   equal   3*${sigma}
variable       full	   equal   3*1
region         lowWall block EDGE EDGE EDGE EDGE EDGE 2

fix            topWall all wall/lj93 zhi EDGE 	       ${epsilonWall} ${sigma} ${repulsive} units box
fix            topWall all wall/lj93 zhi EDGE 	       2 ${sigma} ${repulsive} units box
fix            topWall all wall/lj93 zhi EDGE 	       2 1 ${repulsive} units box
fix            topWall all wall/lj93 zhi EDGE 	       2 1 0.7147 units box
fix            lowSol solvent wall/lj93 zlo EDGE                ${epsilonWall} ${sigma} ${full} units box
fix            lowSol solvent wall/lj93 zlo EDGE                2 ${sigma} ${full} units box
fix            lowSol solvent wall/lj93 zlo EDGE                2 1 ${full} units box
fix            lowSol solvent wall/lj93 zlo EDGE                2 1 3 units box
fix 	       lowCub cubes wall/lj93 zlo EDGE                ${epsilonWall} ${sigma} ${repulsive} units box
fix 	       lowCub cubes wall/lj93 zlo EDGE                2 ${sigma} ${repulsive} units box
fix 	       lowCub cubes wall/lj93 zlo EDGE                2 1 ${repulsive} units box
fix 	       lowCub cubes wall/lj93 zlo EDGE                2 1 0.7147 units box


###################### COMPUTES ##########################

compute        bin1 solvent chunk/atom bin/1d z lower 1.0 units box


######################  FIXES ############################


fix             peclet solvent ave/chunk 10 10 10000 bin1 density/number norm                  none ave one file density.profile

fix              temp solvent ave/chunk 10 10 10000 bin1 temp norm                  none ave one file temp.profile

fix             1 cubes rigid/nve/small molecule
  create bodies CPU = 0.002 seconds
  96 rigid bodies with 109728 atoms
  6.9282032 = max distance from body owner to body atom

fix             2 solvent nve# temp ${temp} ${temp} 10


## Thermostat
region          regthermo block EDGE EDGE EDGE EDGE 0 15
group           thermo dynamic solvent region regthermo every 1000
dynamic group thermo defined
fix             3 thermo langevin ${temp} ${temp} 10 156453
fix             3 thermo langevin 1.0 ${temp} 10 156453
fix             3 thermo langevin 1.0 1.0 10 156453


#### Load balancing

fix             bal all balance 1000 1.05 shift z 10 1.05

############### Diagnostics and computes ###################

compute        	com cubes          rigid/local   1 mol x y z
compute        	quat cubes         rigid/local   1 mol quatw quati quatj quatk

compute 	cc2 cubes 	   chunk/atom 	 molecule
compute 	msd cubes 	   msd/chunk 	 cc2

fix 		msd all ave/time  1 1 10000 c_msd[*] file dump.msd ave one mode vector

dump            1 all custom 500000 dump.lammpstrj id mol type x y z
dump		cubetrj hull custom 500000 cubes.lammpstrj id mol type x y z
dump            com cubes local 10000 dump.*.xyz c_com[*]
dump	        xyz hull xyz 100000 cubes.xyz
dump            quat cubes      local 10000 dump.*.quat c_quat[*]
#dump		mol cubes molfile 10000 mol.xyz xyz


dump            2 all image 10000 image.*.png type type
dump_modify     2 pad 8
dump		image cubes image 10000 image_cubes.*.png type type
dump_modify	image pad 8
dump            3 all movie 5000 movie.avi type type
dump		4 cubes movie 5000 movie_cubes.avi type type


thermo          1000
thermo_style    custom step temp epair evdwl etotal press pe ke atoms

restart         1000000 restart.dat
timestep        0.005
timer           full
New timer settings: style=full  mode=nosync  timeout=off

run 		4000000
Per MPI rank memory allocation (min/avg/max) = 15.55 | 19.74 | 23.37 Mbytes
Step Temp E_pair E_vdwl TotEng Press PotEng KinEng Atoms 
       0   0.99072986   -2.9552206   -2.9552206   -1.7818062  -0.81538058   -2.9552206    1.1734144   520603 
    1000    1.1827554   -3.1974912   -3.1974912    -1.796643   0.17638083   -3.1974912    1.4008483   520603 
    2000    1.2047692    -3.238962    -3.238962   -1.8120408   0.19886642    -3.238962    1.4269212   520603 
    3000    1.2111281   -3.2613622   -3.2613622   -1.8269095    0.1930567   -3.2613622    1.4344527   520603 
    4000     1.214249   -3.2786902   -3.2786902   -1.8405411   0.21460347   -3.2786902     1.438149   520603 
    5000    1.2080411   -3.2836444   -3.2836444   -1.8528479   0.18731361   -3.2836444    1.4307965   520603 
    6000    1.1977009   -3.2847455   -3.2847455   -1.8661959   0.19040312   -3.2847455    1.4185496   520603 
    7000    1.1886713   -3.2884993   -3.2884993   -1.8806443   0.18369957   -3.2884993     1.407855   520603 
    8000    1.1780648   -3.2895784   -3.2895784   -1.8942857   0.17254679   -3.2895784    1.3952928   520603 
    9000    1.1768349   -3.3002053   -3.3002053   -1.9063692   0.16435852   -3.3002053    1.3938361   520603 
   10000     1.173217   -3.3073318   -3.3073318   -1.9177808   0.17681994   -3.3073318    1.3895511   520603 
   11000    1.1700196   -3.3126343   -3.3126343   -1.9268703   0.16878768   -3.3126343     1.385764   520603 
   12000    1.1706052   -3.3208875   -3.3208875   -1.9344298   0.16931417   -3.3208875    1.3864577   520603 
   13000    1.1691604   -3.3248694   -3.3248694   -1.9401229   0.18621934   -3.3248694    1.3847465   520603 
   14000    1.1729933   -3.3356775   -3.3356775   -1.9463914   0.19729241   -3.3356775     1.389286   520603 
   15000    1.1743082   -3.3435689   -3.3435689   -1.9527254   0.19945013   -3.3435689    1.3908434   520603 
   16000    1.1790936   -3.3544456   -3.3544456   -1.9579343   0.20039646   -3.3544456    1.3965112   520603 
   17000    1.1824152   -3.3621967   -3.3621967   -1.9617513   0.21012178   -3.3621967    1.4004453   520603 
   18000    1.1873555   -3.3714697   -3.3714697   -1.9651731   0.21594494   -3.3714697    1.4062965   520603 
   19000    1.1871567   -3.3756534   -3.3756534   -1.9695922   0.22086698   -3.3756534    1.4060612   520603 
   20000    1.1870061    -3.378937    -3.378937   -1.9730544   0.23384852    -3.378937    1.4058827   520603 
   21000    1.1846284   -3.3791171   -3.3791171   -1.9760505    0.2172689   -3.3791171    1.4030666   520603 
   22000    1.1793349   -3.3751023   -3.3751023   -1.9783052   0.22516171   -3.3751023    1.3967971   520603 
   23000    1.1801905   -3.3790226   -3.3790226   -1.9812123   0.20362992   -3.3790226    1.3978103   520603 
   24000    1.1736955   -3.3747295   -3.3747295   -1.9846118   0.19829498   -3.3747295    1.3901178   520603 
   25000    1.1691393   -3.3720875   -3.3720875   -1.9873661   0.18854884   -3.3720875    1.3847214   520603 
   26000     1.163685   -3.3689603   -3.3689603   -1.9906989   0.17579233   -3.3689603    1.3782613   520603 
   27000    1.1591788   -3.3662824   -3.3662824   -1.9933582   0.18792982   -3.3662824    1.3729242   520603 
   28000    1.1560322   -3.3658592   -3.3658592   -1.9966618   0.18057938   -3.3658592    1.3691974   520603 
   29000    1.1528695   -3.3662672   -3.3662672   -2.0008156   0.17128335   -3.3662672    1.3654516   520603 
   30000    1.1483002   -3.3650443   -3.3650443   -2.0050046   0.16208012   -3.3650443    1.3600397   520603 
   31000    1.1458516   -3.3658078   -3.3658078   -2.0086682   0.16496428   -3.3658078    1.3571396   520603 
   32000    1.1437111   -3.3674108   -3.3674108   -2.0128064   0.15363073   -3.3674108    1.3546044   520603 
   33000    1.1425759   -3.3702775   -3.3702775   -2.0170176   0.16182278   -3.3702775    1.3532599   520603 
   34000    1.1385982   -3.3710666   -3.3710666   -2.0225179   0.15429914   -3.3710666    1.3485487   520603 
   35000    1.1379766   -3.3726848   -3.3726848   -2.0248722   0.17057439   -3.3726848    1.3478126   520603 
   36000    1.1329635   -3.3708523   -3.3708523   -2.0289773     0.151058   -3.3708523     1.341875   520603 
   37000    1.1339496   -3.3742703   -3.3742703   -2.0312273   0.16530493   -3.3742703     1.343043   520603 
   38000    1.1317172   -3.3750105   -3.3750105   -2.0346117   0.15170222   -3.3750105    1.3403989   520603 
   39000    1.1314119   -3.3774243   -3.3774243    -2.037387   0.15092901   -3.3774243    1.3400373   520603 
   40000    1.1314895   -3.3807153   -3.3807153   -2.0405861   0.15583799   -3.3807153    1.3401293   520603 
   41000    1.1281129   -3.3795515   -3.3795515   -2.0434215   0.15180838   -3.3795515      1.33613   520603 
   42000    1.1289194   -3.3828644   -3.3828644   -2.0457792   0.13427753   -3.3828644    1.3370852   520603 
   43000    1.1297716   -3.3851207   -3.3851207   -2.0470262   0.15500451   -3.3851207    1.3380945   520603 
   44000    1.1304156   -3.3880375   -3.3880375   -2.0491802   0.14765264   -3.3880375    1.3388573   520603 
   45000    1.1280514   -3.3877197   -3.3877197   -2.0516625   0.15333041   -3.3877197    1.3360572   520603 
   46000     1.127334   -3.3887306   -3.3887306   -2.0535232   0.15168375   -3.3887306    1.3352075   520603 
   47000    1.1273483   -3.3903231   -3.3903231   -2.0550987   0.14033236   -3.3903231    1.3352244   520603 
   48000    1.1285897   -3.3945957   -3.3945957   -2.0579009   0.14977399   -3.3945957    1.3366947   520603 
   49000    1.1298258    -3.398286    -3.398286   -2.0601273   0.13779023    -3.398286    1.3381588   520603 
   50000    1.1301486   -3.3998172   -3.3998172   -2.0612761    0.1499653   -3.3998172    1.3385411   520603 
   51000    1.1289926   -3.4006746   -3.4006746   -2.0635027   0.17383163   -3.4006746    1.3371719   520603 
   52000    1.1290927   -3.4017155   -3.4017155    -2.064425   0.14695873   -3.4017155    1.3372905   520603 
   53000    1.1292991   -3.4042529   -3.4042529    -2.066718   0.15112967   -3.4042529    1.3375349   520603 
   54000    1.1302818   -3.4074475   -3.4074475   -2.0687486    0.1496939   -3.4074475    1.3386989   520603 
   55000    1.1285065   -3.4069712   -3.4069712    -2.070375   0.14665286   -3.4069712    1.3365962   520603 
   56000    1.1286134   -3.4076146   -3.4076146   -2.0708919   0.14256398   -3.4076146    1.3367227   520603 
   57000    1.1295176   -3.4106997   -3.4106997   -2.0729059   0.15158747   -3.4106997    1.3377937   520603 
   58000     1.128594   -3.4105483   -3.4105483   -2.0738485   0.15236571   -3.4105483    1.3366999   520603 
   59000     1.128477   -3.4122996   -3.4122996   -2.0757383   0.15379673   -3.4122996    1.3365613   520603 
   60000    1.1252657   -3.4100363   -3.4100363   -2.0772785    0.1520061   -3.4100363    1.3327579   520603 
   61000    1.1238504   -3.4102518   -3.4102518   -2.0791702   0.13236644   -3.4102518    1.3310815   520603 
   62000    1.1217934   -3.4095389   -3.4095389   -2.0808937   0.14729466   -3.4095389    1.3286452   520603 
   63000    1.1188347   -3.4086205   -3.4086205   -2.0834796   0.13522375   -3.4086205    1.3251409   520603 
   64000    1.1170615   -3.4089205   -3.4089205   -2.0858798   0.13409357   -3.4089205    1.3230407   520603 
   65000    1.1173974   -3.4116767   -3.4116767    -2.088238   0.13809186   -3.4116767    1.3234387   520603 
   66000    1.1155983   -3.4108166   -3.4108166   -2.0895089   0.13295881   -3.4108166    1.3213078   520603 
   67000    1.1160857   -3.4135076   -3.4135076   -2.0916225   0.13274712   -3.4135076    1.3218851   520603 
   68000    1.1138095   -3.4136777   -3.4136777   -2.0944885   0.13948298   -3.4136777    1.3191892   520603 
   69000    1.1146761   -3.4179381   -3.4179381   -2.0977225   0.13484571   -3.4179381    1.3202156   520603 
   70000    1.1119121   -3.4154713   -3.4154713   -2.0985294   0.13074707   -3.4154713    1.3169419   520603 
   71000    1.1137158   -3.4198441   -3.4198441   -2.1007659   0.13203454   -3.4198441    1.3190782   520603 
   72000    1.1109856   -3.4172251   -3.4172251   -2.1013805   0.12915056   -3.4172251    1.3158446   520603 
   73000     1.110147   -3.4183538   -3.4183538   -2.1035025   0.13931959   -3.4183538    1.3148513   520603 
   74000     1.110082   -3.4207116   -3.4207116   -2.1059373   0.14100861   -3.4207116    1.3147743   520603 
   75000    1.1093241   -3.4216365   -3.4216365   -2.1077599    0.1224698   -3.4216365    1.3138766   520603 
   76000    1.1072857   -3.4210717   -3.4210717   -2.1096093   0.12426067   -3.4210717    1.3114624   520603 
   77000    1.1073741   -3.4218655   -3.4218655   -2.1102985   0.11969653   -3.4218655    1.3115671   520603 
   78000    1.1078425   -3.4234161   -3.4234161   -2.1112942   0.12588069   -3.4234161    1.3121219   520603 
   79000    1.1075811   -3.4243491   -3.4243491   -2.1125368   0.13424553   -3.4243491    1.3118122   520603 
   80000    1.1064609   -3.4258951   -3.4258951   -2.1154095   0.11295117   -3.4258951    1.3104855   520603 
   81000    1.1052882   -3.4255098   -3.4255098   -2.1164132   0.12105996   -3.4255098    1.3090966   520603 
   82000     1.104478   -3.4256533   -3.4256533   -2.1175162   0.12554171   -3.4256533     1.308137   520603 
   83000    1.1059189   -3.4286425   -3.4286425   -2.1187989   0.11336109   -3.4286425    1.3098436   520603 
   84000    1.1067205   -3.4300478   -3.4300478   -2.1192549   0.12081461   -3.4300478    1.3107929   520603 
   85000    1.1072964   -3.4324862   -3.4324862   -2.1210111   0.12633572   -3.4324862    1.3114751   520603 
   86000    1.1060502   -3.4330098   -3.4330098   -2.1230107   0.12623405   -3.4330098    1.3099991   520603 
   87000    1.1058144   -3.4332201   -3.4332201   -2.1235003   0.12911146   -3.4332201    1.3097198   520603 
   88000     1.107011   -3.4355411   -3.4355411    -2.124404   0.11957564   -3.4355411     1.311137   520603 
   89000    1.1050603   -3.4364231   -3.4364231   -2.1275965   0.12957601   -3.4364231    1.3088266   520603 
   90000    1.1042515   -3.4370147   -3.4370147    -2.129146   0.12772968   -3.4370147    1.3078687   520603 
   91000    1.1036489   -3.4368289   -3.4368289    -2.129674   0.12302118   -3.4368289    1.3071549   520603 
   92000    1.1022883   -3.4372134   -3.4372134     -2.13167   0.11578561   -3.4372134    1.3055435   520603 
   93000    1.1042075   -3.4411356   -3.4411356    -2.133319   0.12819105   -3.4411356    1.3078166   520603 
   94000    1.1046784   -3.4418198   -3.4418198   -2.1334454   0.12039716   -3.4418198    1.3083744   520603 
   95000      1.10433   -3.4431571   -3.4431571   -2.1351954   0.13467789   -3.4431571    1.3079616   520603 
   96000    1.1015732   -3.4421962   -3.4421962   -2.1374996   0.12619571   -3.4421962    1.3046966   520603 
   97000     1.101964   -3.4439014   -3.4439014   -2.1387419   0.13281861   -3.4439014    1.3051595   520603 
   98000     1.099537   -3.4424574   -3.4424574   -2.1401725   0.12404788   -3.4424574    1.3022849   520603 
   99000     1.099097   -3.4428024   -3.4428024   -2.1410386   0.11902898   -3.4428024    1.3017637   520603 
  100000    1.0979747   -3.4427401   -3.4427401   -2.1423056   0.11919427   -3.4427401    1.3004346   520603 
  101000    1.0979276   -3.4430987   -3.4430987     -2.14272   0.12826258   -3.4430987    1.3003788   520603 
  102000    1.0976793    -3.444005    -3.444005   -2.1439204   0.13052388    -3.444005    1.3000846   520603 
  103000    1.0957742   -3.4423844   -3.4423844   -2.1445561   0.13247331   -3.4423844    1.2978283   520603 
  104000    1.0968165   -3.4453522   -3.4453522   -2.1462895   0.11479736   -3.4453522    1.2990627   520603 
  105000    1.0970108   -3.4465815   -3.4465815   -2.1472886   0.12806354   -3.4465815    1.2992928   520603 
  106000    1.0976806   -3.4483082   -3.4483082    -2.148222   0.12235586   -3.4483082    1.3000862   520603 
  107000    1.0929634   -3.4443672   -3.4443672    -2.149868   0.11938918   -3.4443672    1.2944991   520603 
  108000    1.0956255   -3.4495442   -3.4495442   -2.1518921   0.11062775   -3.4495442    1.2976521   520603 
  109000    1.0948529   -3.4492016   -3.4492016   -2.1524645   0.12428801   -3.4492016    1.2967371   520603 
  110000    1.0921936   -3.4479259   -3.4479259   -2.1543385   0.11563251   -3.4479259    1.2935874   520603 
  111000    1.0921633   -3.4491489   -3.4491489   -2.1555974   0.10476105   -3.4491489    1.2935515   520603 
  112000    1.0942198   -3.4521778   -3.4521778   -2.1561906   0.10581329   -3.4521778    1.2959872   520603 
  113000    1.0914878   -3.4511544   -3.4511544    -2.158403   0.11880692   -3.4511544    1.2927514   520603 
  114000    1.0926417   -3.4533845   -3.4533845   -2.1592664  0.090162699   -3.4533845    1.2941182   520603 
  115000    1.0924753   -3.4548435   -3.4548435   -2.1609224   0.11929109   -3.4548435    1.2939211   520603 
  116000    1.0921931   -3.4549637   -3.4549637   -2.1613769   0.13350497   -3.4549637    1.2935868   520603 
  117000    1.0917238   -3.4556301   -3.4556301   -2.1625991   0.12065419   -3.4556301     1.293031   520603 
  118000     1.090596   -3.4553696   -3.4553696   -2.1636744   0.12116741   -3.4553696    1.2916952   520603 
  119000    1.0905171   -3.4563881   -3.4563881   -2.1647864   0.12525953   -3.4563881    1.2916018   520603 
  120000    1.0894458   -3.4565108   -3.4565108   -2.1661778   0.11432365   -3.4565108    1.2903329   520603 
  121000     1.090171   -3.4583353   -3.4583353   -2.1671435   0.11347058   -3.4583353    1.2911919   520603 
  122000    1.0889195    -3.456977    -3.456977   -2.1672674    0.1133757    -3.456977    1.2897096   520603 
  123000    1.0894691   -3.4582383   -3.4582383   -2.1678779   0.11494308   -3.4582383    1.2903605   520603 
  124000    1.0891611   -3.4594485   -3.4594485   -2.1694528   0.10180203   -3.4594485    1.2899957   520603 
  125000    1.0892823   -3.4609833   -3.4609833   -2.1708441   0.10910267   -3.4609833    1.2901392   520603 
  126000    1.0886462   -3.4611758   -3.4611758   -2.1717899   0.11467053   -3.4611758    1.2893859   520603 
  127000    1.0888785   -3.4626707   -3.4626707   -2.1730096   0.11090589   -3.4626707     1.289661   520603 
  128000    1.0872858   -3.4624952   -3.4624952   -2.1747206   0.11268565   -3.4624952    1.2877746   520603 
  129000    1.0879356   -3.4642381   -3.4642381   -2.1756939   0.10742183   -3.4642381    1.2885442   520603 
  130000     1.087855   -3.4640966   -3.4640966   -2.1756478   0.11375487   -3.4640966    1.2884488   520603 
  131000    1.0862739    -3.463603    -3.463603   -2.1770268   0.11667291    -3.463603    1.2865762   520603 
  132000    1.0869716     -3.46619     -3.46619   -2.1787876   0.10544558     -3.46619    1.2874025   520603 
  133000     1.083779   -3.4630951   -3.4630951   -2.1794739   0.10949446   -3.4630951    1.2836212   520603 
  134000    1.0860939   -3.4663039   -3.4663039   -2.1799409    0.1217301   -3.4663039     1.286363   520603 
  135000    1.0856594   -3.4663597   -3.4663597   -2.1805113   0.10752978   -3.4663597    1.2858483   520603 
  136000    1.0855395   -3.4665505   -3.4665505   -2.1808442   0.11942015   -3.4665505    1.2857063   520603 
  137000    1.0839875    -3.465298    -3.465298   -2.1814299    0.1045325    -3.465298    1.2838681   520603 
  138000    1.0848331   -3.4680102   -3.4680102   -2.1831405   0.10813245   -3.4680102    1.2848697   520603 
  139000    1.0831015    -3.466635    -3.466635   -2.1838163   0.11496229    -3.466635    1.2828187   520603 
  140000     1.083704   -3.4683887   -3.4683887   -2.1848564   0.11535752   -3.4683887    1.2835324   520603 
  141000    1.0824818   -3.4674467   -3.4674467    -2.185362    0.1093264   -3.4674467    1.2820848   520603 
  142000    1.0838083   -3.4694378   -3.4694378   -2.1857819     0.116384   -3.4694378    1.2836559   520603 
  143000    1.0839825   -3.4709209   -3.4709209   -2.1870586   0.10686628   -3.4709209    1.2838623   520603 
  144000    1.0828586   -3.4703955   -3.4703955   -2.1878644   0.10779231   -3.4703955    1.2825311   520603 
  145000    1.0840622   -3.4722607   -3.4722607   -2.1883041   0.10388035   -3.4722607    1.2839566   520603 
  146000    1.0802885   -3.4692485   -3.4692485   -2.1897615    0.1151561   -3.4692485     1.279487   520603 
  147000     1.079103   -3.4677445   -3.4677445   -2.1896615    0.1019881   -3.4677445     1.278083   520603 
  148000    1.0786139   -3.4677233   -3.4677233   -2.1902196   0.11099786   -3.4677233    1.2775037   520603 
  149000    1.0812658   -3.4719995   -3.4719995   -2.1913549   0.11316944   -3.4719995    1.2806446   520603 
  150000     1.079584   -3.4703209   -3.4703209   -2.1916683    0.1077156   -3.4703209    1.2786526   520603 
  151000    1.0816748   -3.4732317   -3.4732317   -2.1921027   0.10244082   -3.4732317     1.281129   520603 
  152000    1.0792395    -3.472017    -3.472017   -2.1937723  0.093901514    -3.472017    1.2782446   520603 
  153000    1.0790912   -3.4727238   -3.4727238   -2.1946548  0.099828499   -3.4727238    1.2780689   520603 
  154000    1.0789071   -3.4736497   -3.4736497   -2.1957988   0.10488996   -3.4736497    1.2778509   520603 
  155000    1.0785413   -3.4735051   -3.4735051   -2.1960874  0.099618911   -3.4735051    1.2774178   520603 
  156000    1.0789569   -3.4746859   -3.4746859    -2.196776   0.10150113   -3.4746859    1.2779099   520603 
  157000    1.0787516   -3.4749243   -3.4749243   -2.1972575  0.090156989   -3.4749243    1.2776668   520603 
  158000    1.0790295   -3.4765361   -3.4765361   -2.1985402  0.099945255   -3.4765361    1.2779959   520603 
  159000    1.0777703   -3.4761829   -3.4761829   -2.1996784  0.095376128   -3.4761829    1.2765045   520603 
  160000    1.0770213   -3.4764992   -3.4764992   -2.2008819  0.099533618   -3.4764992    1.2756174   520603 
  161000    1.0783109    -3.478622    -3.478622   -2.2014772   0.10129041    -3.478622    1.2771448   520603 
  162000    1.0756837   -3.4770935   -3.4770935   -2.2030604  0.094671421   -3.4770935    1.2740331   520603 
  163000    1.0768103   -3.4803191   -3.4803191   -2.2049516   0.10943541   -3.4803191    1.2753675   520603 
  164000    1.0773111   -3.4814425   -3.4814425   -2.2054819   0.09562603   -3.4814425    1.2759606   520603 
  165000    1.0776447   -3.4838232   -3.4838232   -2.2074675   0.11449369   -3.4838232    1.2763558   520603 
  166000    1.0783581   -3.4853903   -3.4853903   -2.2081896   0.10304543   -3.4853903    1.2772007   520603 
  167000    1.0772812   -3.4850593   -3.4850593   -2.2091341   0.10495985   -3.4850593    1.2759253   520603 
  168000    1.0764702   -3.4851674   -3.4851674   -2.2102027    0.0936511   -3.4851674    1.2749647   520603 
  169000     1.077052   -3.4854421   -3.4854421   -2.2097884   0.10290183   -3.4854421    1.2756538   520603 
  170000    1.0770021   -3.4861764   -3.4861764   -2.2105818  0.087021698   -3.4861764    1.2755946   520603 
  171000    1.0767459   -3.4862493   -3.4862493   -2.2109581   0.10412193   -3.4862493    1.2752912   520603 
  172000    1.0748527   -3.4851472   -3.4851472   -2.2120982  0.098664225   -3.4851472     1.273049   520603 
  173000    1.0743093   -3.4862143   -3.4862143   -2.2138089   0.10301175   -3.4862143    1.2724054   520603 
  174000    1.0739304   -3.4862806   -3.4862806   -2.2143241  0.098901493   -3.4862806    1.2719565   520603 
  175000    1.0751029   -3.4881132   -3.4881132   -2.2147679   0.10741894   -3.4881132    1.2733453   520603 
  176000    1.0753434   -3.4887737   -3.4887737   -2.2151436  0.094885985   -3.4887737    1.2736301   520603 
  177000    1.0718454     -3.48682     -3.48682   -2.2173329   0.10458578     -3.48682    1.2694871   520603 
  178000     1.074172   -3.4897076   -3.4897076   -2.2174649   0.11125454   -3.4897076    1.2722427   520603 
  179000    1.0722671   -3.4879168   -3.4879168   -2.2179303  0.090172565   -3.4879168    1.2699866   520603 
  180000    1.0698208   -3.4865461   -3.4865461   -2.2194569  0.080497059   -3.4865461    1.2670892   520603 
  181000    1.0721911   -3.4893311   -3.4893311   -2.2194346   0.10636902   -3.4893311    1.2698965   520603 
  182000    1.0726786   -3.4903652   -3.4903652   -2.2198912   0.10247149   -3.4903652     1.270474   520603 
  183000    1.0716049   -3.4899777   -3.4899777   -2.2207755   0.10558128   -3.4899777    1.2692023   520603 
  184000    1.0721417   -3.4912364   -3.4912364   -2.2213984   0.10228067   -3.4912364     1.269838   520603 
  185000    1.0703898   -3.4903959   -3.4903959   -2.2226328  0.090563115   -3.4903959    1.2677631   520603 
  186000    1.0721173   -3.4925711   -3.4925711   -2.2227619  0.081930936   -3.4925711    1.2698092   520603 
  187000    1.0710365   -3.4919331   -3.4919331    -2.223404  0.086472116   -3.4919331     1.268529   520603 
  188000    1.0707716   -3.4908023   -3.4908023    -2.222587   0.10252417   -3.4908023    1.2682153   520603 
  189000    1.0682985   -3.4893689   -3.4893689   -2.2240827  0.091948569   -3.4893689    1.2652862   520603 
  190000    1.0703554   -3.4930652   -3.4930652   -2.2253428  0.095432317   -3.4930652    1.2677224   520603 
  191000    1.0716412   -3.4955504   -3.4955504   -2.2263052  0.095106375   -3.4955504    1.2692453   520603 
  192000    1.0721644   -3.4965931   -3.4965931   -2.2267282   0.10180746   -3.4965931    1.2698649   520603 
  193000    1.0703339   -3.4955447   -3.4955447   -2.2278477  0.097698066   -3.4955447     1.267697   520603 
  194000    1.0696135   -3.4945806   -3.4945806   -2.2277369  0.099471065   -3.4945806    1.2668436   520603 
  195000    1.0682758   -3.4937741   -3.4937741   -2.2285147  0.096534166   -3.4937741    1.2652593   520603 
  196000    1.0704264   -3.4968889   -3.4968889   -2.2290825  0.095277833   -3.4968889    1.2678065   520603 
  197000    1.0691656   -3.4954932   -3.4954932     -2.22918  0.077813121   -3.4954932    1.2663132   520603 
  198000    1.0700973   -3.4986321   -3.4986321   -2.2312154   0.10329538   -3.4986321    1.2674166   520603 
  199000    1.0682398   -3.4974451   -3.4974451   -2.2322285  0.093201017   -3.4974451    1.2652166   520603 
  200000    1.0684504   -3.4984282   -3.4984282   -2.2329621  0.090904982   -3.4984282    1.2654661   520603 
  201000    1.0665309   -3.4971894   -3.4971894   -2.2339968  0.092353679   -3.4971894    1.2631926   520603 
  202000    1.0690785   -3.5003502   -3.5003502   -2.2341402   0.11540814   -3.5003502      1.26621   520603 
  203000    1.0697472   -3.5011991   -3.5011991    -2.234197  0.080081546   -3.5011991    1.2670021   520603 
  204000    1.0659301   -3.4979857   -3.4979857   -2.2355046  0.095120545   -3.4979857     1.262481   520603 
  205000    1.0682021   -3.5019899   -3.5019899   -2.2368179  0.095024349   -3.5019899     1.265172   520603 
  206000    1.0678263   -3.5021687   -3.5021687   -2.2374417  0.083853825   -3.5021687    1.2647269   520603 
  207000    1.0700753   -3.5045112   -3.5045112   -2.2371206  0.097056372   -3.5045112    1.2673907   520603 
  208000    1.0664399   -3.5014158   -3.5014158   -2.2383309  0.099403664   -3.5014158    1.2630849   520603 
  209000    1.0672751    -3.502433    -3.502433   -2.2383589  0.095367022    -3.502433    1.2640741   520603 
  210000    1.0671063   -3.5030588   -3.5030588   -2.2391846  0.090057191   -3.5030588    1.2638742   520603 
  211000    1.0676474   -3.5036692   -3.5036692   -2.2391542  0.082059913   -3.5036692     1.264515   520603 
  212000    1.0666913   -3.5035315   -3.5035315   -2.2401489  0.088641275   -3.5035315    1.2633826   520603 
  213000    1.0662826    -3.503484    -3.503484   -2.2405853   0.11142912    -3.503484    1.2628986   520603 
  214000    1.0633973   -3.5011182   -3.5011182    -2.241637  0.079063614   -3.5011182    1.2594812   520603 
  215000     1.066984   -3.5056204   -3.5056204   -2.2418911  0.097656889   -3.5056204    1.2637293   520603 
  216000    1.0660096   -3.5043183   -3.5043183   -2.2417431   0.10252259   -3.5043183    1.2625752   520603 
  217000    1.0662444   -3.5052325   -3.5052325   -2.2423791  0.090388063   -3.5052325    1.2628533   520603 
  218000    1.0670672   -3.5077521   -3.5077521   -2.2439243  0.083839785   -3.5077521    1.2638279   520603 
  219000    1.0634844   -3.5042572   -3.5042572   -2.2446728  0.086993296   -3.5042572    1.2595844   520603 
  220000    1.0660201   -3.5076994   -3.5076994   -2.2451117   0.09755027   -3.5076994    1.2625877   520603 
  221000    1.0641415   -3.5064102   -3.5064102   -2.2460475  0.098835382   -3.5064102    1.2603627   520603 
  222000    1.0651003   -3.5075568   -3.5075568   -2.2460585  0.081817316   -3.5075568    1.2614983   520603 
  223000     1.065545   -3.5092304   -3.5092304   -2.2472054  0.088180075   -3.5092304    1.2620249   520603 
  224000     1.064366   -3.5077354   -3.5077354   -2.2471068   0.10437665   -3.5077354    1.2606286   520603 
  225000     1.063624   -3.5072344   -3.5072344   -2.2474846  0.085639682   -3.5072344    1.2597498   520603 
  226000    1.0642847   -3.5090955   -3.5090955   -2.2485633   0.10778222   -3.5090955    1.2605322   520603 
  227000    1.0642873   -3.5107384   -3.5107384    -2.250203  0.073814009   -3.5107384    1.2605354   520603 
  228000    1.0644272   -3.5113517   -3.5113517   -2.2506506   0.10065171   -3.5113517    1.2607011   520603 
  229000    1.0631544   -3.5102586   -3.5102586   -2.2510651   0.10015451   -3.5102586    1.2591935   520603 
  230000    1.0619923   -3.5090588   -3.5090588   -2.2512417  0.078688869   -3.5090588    1.2578172   520603 
  231000    1.0628046   -3.5108105   -3.5108105   -2.2520312  0.096688153   -3.5108105    1.2587792   520603 
  232000    1.0607117   -3.5089339   -3.5089339   -2.2526334  0.088749439   -3.5089339    1.2563005   520603 
  233000    1.0624282   -3.5108406   -3.5108406   -2.2525072  0.091142428   -3.5108406    1.2583334   520603 
  234000    1.0630737   -3.5116523   -3.5116523   -2.2525543   0.08302637   -3.5116523     1.259098   520603 
  235000    1.0608971   -3.5101559   -3.5101559   -2.2536359   0.10055059   -3.5101559      1.25652   520603 
  236000    1.0624273   -3.5126348   -3.5126348   -2.2543024  0.091583426   -3.5126348    1.2583324   520603 
  237000    1.0623997   -3.5140403   -3.5140403   -2.2557407  0.095522539   -3.5140403    1.2582997   520603 
  238000    1.0623997   -3.5144708   -3.5144708   -2.2561711   0.10411611   -3.5144708    1.2582997   520603 
  239000    1.0604808   -3.5129483   -3.5129483   -2.2569213   0.10145431   -3.5129483     1.256027   520603 
  240000    1.0607533   -3.5135895   -3.5135895   -2.2572398   0.08632468   -3.5135895    1.2563497   520603 
  241000    1.0611008   -3.5146929   -3.5146929   -2.2579316  0.073847052   -3.5146929    1.2567613   520603 
  242000    1.0626325   -3.5165499   -3.5165499   -2.2579744  0.088859851   -3.5165499    1.2585755   520603 
  243000    1.0609397   -3.5143022   -3.5143022   -2.2577318  0.097245937   -3.5143022    1.2565704   520603 
  244000    1.0608881   -3.5154552   -3.5154552   -2.2589459  0.092362709   -3.5154552    1.2565093   520603 
  245000    1.0618991   -3.5172216   -3.5172216   -2.2595148  0.087839826   -3.5172216    1.2577068   520603 
  246000    1.0609292   -3.5156588   -3.5156588   -2.2591008  0.067318315   -3.5156588     1.256558   520603 
  247000     1.059711   -3.5154908   -3.5154908   -2.2603756  0.099613257   -3.5154908    1.2551152   520603 
  248000    1.0598229   -3.5163968   -3.5163968    -2.261149  0.087817486   -3.5163968    1.2552478   520603 
  249000    1.0601194   -3.5170125   -3.5170125   -2.2614136  0.081051729   -3.5170125    1.2555989   520603 
  250000    1.0588361   -3.5159767   -3.5159767   -2.2618977  0.093909886   -3.5159767     1.254079   520603 
  251000    1.0591386   -3.5164618   -3.5164618   -2.2620245  0.091695486   -3.5164618    1.2544373   520603 
  252000    1.0599633   -3.5181496   -3.5181496   -2.2627356   0.09982529   -3.5181496     1.255414   520603 
  253000    1.0610876   -3.5193857   -3.5193857     -2.26264  0.094253913   -3.5193857    1.2567457   520603 
  254000    1.0609618   -3.5196193   -3.5196193   -2.2630227   0.08513961   -3.5196193    1.2565966   520603 
  255000    1.0594155   -3.5177946   -3.5177946   -2.2630293  0.081591925   -3.5177946    1.2547652   520603 
  256000     1.059232   -3.5185752   -3.5185752   -2.2640273  0.083187306   -3.5185752    1.2545479   520603 
  257000    1.0578081   -3.5172524   -3.5172524    -2.264391  0.088309728   -3.5172524    1.2528614   520603 
  258000    1.0588598   -3.5181495   -3.5181495   -2.2640425  0.075875893   -3.5181495     1.254107   520603 
  259000    1.0600702   -3.5195244   -3.5195244   -2.2639837  0.088550171   -3.5195244    1.2555407   520603 
  260000    1.0573807   -3.5172828   -3.5172828   -2.2649276  0.084810755   -3.5172828    1.2523552   520603 
  261000    1.0593918   -3.5210613   -3.5210613   -2.2663242  0.081459577   -3.5210613    1.2547371   520603 
  262000    1.0575266   -3.5196614   -3.5196614   -2.2671334  0.081493009   -3.5196614     1.252528   520603 
  263000    1.0575927   -3.5209983   -3.5209983    -2.268392  0.085554739   -3.5209983    1.2526063   520603 
  264000    1.0571953   -3.5206592   -3.5206592   -2.2685236  0.073739383   -3.5206592    1.2521356   520603 
  265000    1.0575582   -3.5215432   -3.5215432   -2.2689778  0.097518253   -3.5215432    1.2525654   520603 
  266000     1.056989    -3.521596    -3.521596   -2.2697047  0.082023533    -3.521596    1.2518913   520603 
  267000     1.057637   -3.5215449   -3.5215449   -2.2688861  0.089832411   -3.5215449    1.2526588   520603 
  268000     1.055486    -3.520611    -3.520611   -2.2704998  0.093228508    -3.520611    1.2501111   520603 
  269000    1.0562547   -3.5221383   -3.5221383   -2.2711167  0.097640372   -3.5221383    1.2510216   520603 
  270000    1.0562169    -3.522794    -3.522794   -2.2718172  0.086184825    -3.522794    1.2509768   520603 
  271000    1.0564967   -3.5253657   -3.5253657   -2.2740575  0.071614623   -3.5253657    1.2513082   520603 
  272000    1.0561937   -3.5261183   -3.5261183    -2.275169  0.085805997   -3.5261183    1.2509493   520603 
  273000    1.0567163   -3.5273561   -3.5273561   -2.2757878  0.073785538   -3.5273561    1.2515683   520603 
  274000    1.0576719   -3.5278208   -3.5278208   -2.2751208  0.078681449   -3.5278208    1.2527001   520603 
  275000    1.0563834   -3.5270497   -3.5270497   -2.2758757  0.076937778   -3.5270497     1.251174   520603 
  276000    1.0566194   -3.5271329   -3.5271329   -2.2756794  0.089760103   -3.5271329    1.2514535   520603 
  277000     1.055058   -3.5262283   -3.5262283    -2.276624  0.070906473   -3.5262283    1.2496042   520603 
  278000    1.0560304   -3.5278408   -3.5278408   -2.2770848  0.075263189   -3.5278408     1.250756   520603 
  279000    1.0553138   -3.5266744   -3.5266744   -2.2767672  0.083794718   -3.5266744    1.2499071   520603 
  280000    1.0538292   -3.5252513   -3.5252513   -2.2771025  0.088713388   -3.5252513    1.2481488   520603 
  281000    1.0551472    -3.527799    -3.527799   -2.2780892  0.087083527    -3.527799    1.2497098   520603 
  282000    1.0551165   -3.5282699   -3.5282699   -2.2785964  0.089779454   -3.5282699    1.2496736   520603 
  283000    1.0558787    -3.530236    -3.530236   -2.2796598  0.090180164    -3.530236    1.2505762   520603 
  284000    1.0557197   -3.5304469   -3.5304469    -2.280059  0.092831455   -3.5304469    1.2503879   520603 
  285000    1.0552554   -3.5302416   -3.5302416   -2.2804035  0.087500478   -3.5302416    1.2498381   520603 
  286000    1.0566214   -3.5323474   -3.5323474   -2.2808915   0.08256296   -3.5323474    1.2514559   520603 
  287000    1.0555078   -3.5317661   -3.5317661   -2.2816291  0.069074331   -3.5317661     1.250137   520603 
  288000    1.0565907   -3.5343718   -3.5343718   -2.2829522  0.084370454   -3.5343718    1.2514195   520603 
  289000    1.0560316   -3.5338822   -3.5338822   -2.2831248  0.098451803   -3.5338822    1.2507574   520603 
  290000    1.0564258   -3.5338017   -3.5338017   -2.2825775  0.087721821   -3.5338017    1.2512243   520603 
  291000    1.0546377   -3.5316954   -3.5316954   -2.2825889  0.080603225   -3.5316954    1.2491064   520603 
  292000    1.0556241   -3.5339745   -3.5339745   -2.2836997  0.073838256   -3.5339745    1.2502748   520603 
  293000    1.0562971   -3.5352577   -3.5352577    -2.284186   0.07649966   -3.5352577    1.2510718   520603 
  294000    1.0581377   -3.5373283   -3.5373283   -2.2840765   0.07996049   -3.5373283    1.2532518   520603 
  295000    1.0543854   -3.5340218   -3.5340218   -2.2852141  0.078432084   -3.5340218    1.2488076   520603 
  296000    1.0550101   -3.5351925   -3.5351925    -2.285645  0.085390746   -3.5351925    1.2495475   520603 
  297000    1.0556801   -3.5356417   -3.5356417   -2.2853007  0.084053187   -3.5356417     1.250341   520603 
  298000    1.0537636   -3.5338913   -3.5338913   -2.2858201  0.077661152   -3.5338913    1.2480712   520603 
  299000    1.0566124   -3.5384128   -3.5384128   -2.2869676  0.081070903   -3.5384128    1.2514453   520603 
  300000    1.0559337   -3.5377946   -3.5377946   -2.2871533  0.075514166   -3.5377946    1.2506413   520603 
  301000    1.0563487    -3.538466    -3.538466    -2.287333  0.081799988    -3.538466     1.251133   520603 
  302000    1.0548248   -3.5383531   -3.5383531   -2.2890251   0.07025773   -3.5383531     1.249328   520603 
  303000    1.0534596   -3.5368437   -3.5368437   -2.2891326  0.081051717   -3.5368437    1.2477111   520603 
  304000    1.0533831   -3.5366902   -3.5366902   -2.2890697  0.081804276   -3.5366902    1.2476205   520603 
  305000    1.0544315   -3.5381664   -3.5381664   -2.2893042  0.077177838   -3.5381664    1.2488622   520603 
  306000    1.0521036   -3.5366549   -3.5366549   -2.2905498  0.084914016   -3.5366549    1.2461051   520603 
  307000    1.0521296   -3.5376116   -3.5376116   -2.2914757  0.090779358   -3.5376116    1.2461359   520603 
  308000    1.0540027   -3.5412519   -3.5412519   -2.2928976  0.091932968   -3.5412519    1.2483543   520603 
  309000    1.0513091   -3.5386959   -3.5386959   -2.2935318  0.078286228   -3.5386959    1.2451641   520603 
  310000    1.0522899   -3.5395861   -3.5395861   -2.2932604  0.094109414   -3.5395861    1.2463257   520603 
  311000    1.0532144   -3.5420286   -3.5420286   -2.2946079  0.085104926   -3.5420286    1.2474207   520603 
  312000    1.0517144   -3.5395196   -3.5395196   -2.2938756  0.092868669   -3.5395196    1.2456441   520603 
  313000    1.0536122   -3.5412853   -3.5412853   -2.2933936  0.097567323   -3.5412853    1.2478918   520603 
  314000    1.0525259   -3.5397108   -3.5397108   -2.2931056  0.086073364   -3.5397108    1.2466052   520603 
  315000    1.0531861   -3.5406953   -3.5406953   -2.2933082  0.076020022   -3.5406953    1.2473871   520603 
  316000    1.0510852   -3.5387854   -3.5387854   -2.2938866  0.078688558   -3.5387854    1.2448988   520603 
  317000    1.0521608   -3.5395359   -3.5395359   -2.2933631  0.085696633   -3.5395359    1.2461728   520603 
  318000    1.0516896   -3.5390996   -3.5390996   -2.2934849   0.10004471   -3.5390996    1.2456147   520603 
  319000    1.0515055   -3.5409956   -3.5409956   -2.2955989  0.078120585   -3.5409956    1.2453967   520603 
  320000    1.0501589   -3.5395041   -3.5395041   -2.2957024  0.083668038   -3.5395041    1.2438017   520603 
  321000     1.050485   -3.5402988   -3.5402988   -2.2961109  0.090534602   -3.5402988     1.244188   520603 
  322000    1.0491055   -3.5394381   -3.5394381    -2.296884  0.074166375   -3.5394381    1.2425541   520603 
  323000    1.0505146   -3.5411262   -3.5411262   -2.2969032  0.072505227   -3.5411262     1.244223   520603 
  324000    1.0490477   -3.5401196   -3.5401196   -2.2976339  0.086984491   -3.5401196    1.2424857   520603 
  325000     1.050636   -3.5426972   -3.5426972   -2.2983304  0.065875382   -3.5426972    1.2443668   520603 
  326000    1.0501599   -3.5427347   -3.5427347   -2.2989318  0.068276557   -3.5427347    1.2438029   520603 
  327000    1.0509072   -3.5445952   -3.5445952   -2.2999071  0.088601552   -3.5445952    1.2446881   520603 
  328000    1.0513904   -3.5458174   -3.5458174    -2.300557  0.078012888   -3.5458174    1.2452604   520603 
  329000    1.0523332   -3.5468045   -3.5468045   -2.3004275  0.084583153   -3.5468045     1.246377   520603 
  330000    1.0528536   -3.5482531   -3.5482531   -2.3012598  0.091295121   -3.5482531    1.2469933   520603 
  331000    1.0494852   -3.5438005   -3.5438005   -2.3007966   0.07476621   -3.5438005    1.2430039   520603 
  332000    1.0503633   -3.5455164   -3.5455164   -2.3014726  0.094137884   -3.5455164    1.2440439   520603 
  333000    1.0501433    -3.546165    -3.546165   -2.3023817  0.084130833    -3.546165    1.2437833   520603 
  334000    1.0506609   -3.5474581   -3.5474581   -2.3030617  0.078908991   -3.5474581    1.2443963   520603 
  335000    1.0502651   -3.5468136   -3.5468136   -2.3028861  0.077305781   -3.5468136    1.2439275   520603 
  336000    1.0493814   -3.5446116   -3.5446116   -2.3017307  0.077752472   -3.5446116    1.2428809   520603 
  337000    1.0467117   -3.5425466   -3.5425466   -2.3028276  0.074588789   -3.5425466     1.239719   520603 
  338000     1.045523   -3.5420783   -3.5420783   -2.3037673  0.089781417   -3.5420783     1.238311   520603 
  339000    1.0508783   -3.5479159   -3.5479159    -2.303262  0.084230509   -3.5479159    1.2446539   520603 
  340000    1.0481921   -3.5452534   -3.5452534    -2.303781  0.086177957   -3.5452534    1.2414723   520603 
  341000    1.0476511    -3.545613    -3.545613   -2.3047814  0.089564679    -3.545613    1.2408316   520603 
  342000    1.0503334   -3.5478988   -3.5478988   -2.3038903  0.076327708   -3.5478988    1.2440084   520603 
  343000    1.0492101   -3.5465836   -3.5465836   -2.3039055  0.083824834   -3.5465836     1.242678   520603 
  344000    1.0494003    -3.547416    -3.547416   -2.3045127  0.071008812    -3.547416    1.2429033   520603 
  345000    1.0490899   -3.5489827   -3.5489827   -2.3064471  0.060948509   -3.5489827    1.2425356   520603 
  346000    1.0480458   -3.5476602   -3.5476602   -2.3063611  0.086470012   -3.5476602     1.241299   520603 
  347000    1.0484142   -3.5480322   -3.5480322   -2.3062969  0.072542598   -3.5480322    1.2417353   520603 
  348000    1.0500873   -3.5515473   -3.5515473   -2.3078303  0.076017306   -3.5515473     1.243717   520603 
  349000      1.04683    -3.547155    -3.547155    -2.307296  0.075831611    -3.547155     1.239859   520603 
  350000    1.0464369   -3.5473049   -3.5473049   -2.3079114  0.080802944   -3.5473049    1.2393934   520603 
  351000    1.0506786   -3.5524517   -3.5524517   -2.3080344  0.081496466   -3.5524517    1.2444173   520603 
  352000    1.0492335   -3.5516317   -3.5516317   -2.3089259  0.088747238   -3.5516317    1.2427057   520603 
  353000    1.0484536   -3.5507655   -3.5507655   -2.3089835  0.091735166   -3.5507655     1.241782   520603 
  354000     1.045422   -3.5483257   -3.5483257   -2.3101342  0.084457416   -3.5483257    1.2381915   520603 
  355000    1.0499764   -3.5528257   -3.5528257   -2.3092401  0.082247003   -3.5528257    1.2435856   520603 
  356000    1.0500599   -3.5536102   -3.5536102   -2.3099257  0.087451481   -3.5536102    1.2436845   520603 
  357000    1.0487466   -3.5531041   -3.5531041   -2.3109751  0.074417492   -3.5531041     1.242129   520603 
  358000    1.0464945   -3.5507002   -3.5507002   -2.3112386  0.067308465   -3.5507002    1.2394617   520603 
  359000    1.0482794   -3.5533149   -3.5533149   -2.3117392  0.089489738   -3.5533149    1.2415757   520603 
  360000    1.0493181   -3.5548195   -3.5548195   -2.3120136  0.081942824   -3.5548195    1.2428059   520603 
  361000    1.0491664   -3.5547183   -3.5547183    -2.312092  0.073686611   -3.5547183    1.2426262   520603 
  362000    1.0473732   -3.5534734   -3.5534734    -2.312971  0.060207717   -3.5534734    1.2405024   520603 
  363000     1.049282   -3.5562613   -3.5562613   -2.3134982  0.088097141   -3.5562613    1.2427631   520603 
  364000    1.0503256   -3.5560633   -3.5560633   -2.3120641  0.086955984   -3.5560633    1.2439992   520603 
  365000    1.0473609   -3.5538878   -3.5538878      -2.3134  0.076763339   -3.5538878    1.2404878   520603 
  366000    1.0481582   -3.5544634   -3.5544634   -2.3130313  0.088921731   -3.5544634    1.2414321   520603 
  367000    1.0467973   -3.5532974   -3.5532974   -2.3134771  0.083669735   -3.5532974    1.2398203   520603 
  368000    1.0461105   -3.5533009   -3.5533009    -2.314294  0.085689089   -3.5533009    1.2390069   520603 
  369000    1.0488084   -3.5564164   -3.5564164   -2.3142141  0.074330422   -3.5564164    1.2422023   520603 
  370000    1.0487105   -3.5563835   -3.5563835   -2.3142972  0.085817953   -3.5563835    1.2420862   520603 
  371000    1.0460945   -3.5541787   -3.5541787   -2.3151908  0.087563316   -3.5541787    1.2389879   520603 
  372000    1.0460736   -3.5548487   -3.5548487   -2.3158855   0.06666357   -3.5548487    1.2389632   520603 
  373000    1.0470473   -3.5573121   -3.5573121   -2.3171958  0.061913941   -3.5573121    1.2401164   520603 
  374000    1.0469922   -3.5577504   -3.5577504   -2.3176992  0.076281427   -3.5577504    1.2400511   520603 
  375000    1.0464423   -3.5568232   -3.5568232   -2.3174234  0.078955067   -3.5568232    1.2393998   520603 
  376000    1.0458947    -3.556187    -3.556187   -2.3174358  0.087304564    -3.556187    1.2387512   520603 
  377000    1.0457423   -3.5554982   -3.5554982   -2.3169274  0.079709274   -3.5554982    1.2385708   520603 
  378000    1.0463555   -3.5573472   -3.5573472   -2.3180502  0.072983121   -3.5573472     1.239297   520603 
  379000    1.0468503   -3.5577649   -3.5577649   -2.3178818   0.08144744   -3.5577649    1.2398831   520603 
  380000    1.0457685   -3.5568636   -3.5568636   -2.3182618  0.085442849   -3.5568636    1.2386018   520603 
  381000    1.0452735   -3.5561213   -3.5561213   -2.3181058   0.09434625   -3.5561213    1.2380155   520603 
  382000    1.0450243   -3.5566626   -3.5566626   -2.3189423  0.087696299   -3.5566626    1.2377203   520603 
  383000    1.0455969   -3.5573219   -3.5573219   -2.3189234  0.071805689   -3.5573219    1.2383985   520603 
  384000    1.0476223   -3.5591492   -3.5591492   -2.3183517   0.07604234   -3.5591492    1.2407975   520603 
  385000     1.048385   -3.5601488   -3.5601488    -2.318448  0.074758764   -3.5601488    1.2417008   520603 
  386000    1.0482993   -3.5607948   -3.5607948   -2.3191955  0.069571543   -3.5607948    1.2415993   520603 
  387000    1.0462865   -3.5591346   -3.5591346   -2.3199193  0.077164256   -3.5591346    1.2392153   520603 
  388000    1.0472434   -3.5609159   -3.5609159   -2.3205672   0.06756216   -3.5609159    1.2403487   520603 
  389000    1.0465938   -3.5592939   -3.5592939   -2.3197146  0.082438721   -3.5592939    1.2395793   520603 
  390000    1.0471877   -3.5614072   -3.5614072   -2.3211245  0.080895333   -3.5614072    1.2402827   520603 
  391000    1.0459547   -3.5593874   -3.5593874   -2.3205651  0.084600812   -3.5593874    1.2388224   520603 
  392000    1.0475241   -3.5618473   -3.5618473   -2.3211661  0.094772243   -3.5618473    1.2406811   520603 
  393000    1.0454063   -3.5601069   -3.5601069    -2.321934  0.073640325   -3.5601069    1.2381728   520603 
  394000    1.0474007   -3.5629801   -3.5629801   -2.3224452  0.078362224   -3.5629801    1.2405349   520603 
  395000    1.0444582     -3.55988     -3.55988   -2.3228301  0.074784323     -3.55988    1.2370499   520603 
  396000    1.0471174   -3.5629371   -3.5629371   -2.3227377  0.083162096   -3.5629371    1.2401994   520603 
  397000    1.0472113   -3.5633591   -3.5633591   -2.3230485   0.09087503   -3.5633591    1.2403107   520603 
  398000    1.0477841   -3.5640297   -3.5640297   -2.3230406  0.070006896   -3.5640297    1.2409891   520603 
  399000    1.0466213   -3.5629212   -3.5629212   -2.3233094  0.070114554   -3.5629212    1.2396119   520603 
  400000    1.0436646   -3.5614462   -3.5614462   -2.3253362  0.080632659   -3.5614462      1.23611   520603 
  401000    1.0450693   -3.5637883   -3.5637883   -2.3260146   0.09538346   -3.5637883    1.2377737   520603 
  402000    1.0440538   -3.5617353   -3.5617353   -2.3251644  0.085691733   -3.5617353    1.2365709   520603 
  403000    1.0449549   -3.5634906   -3.5634906   -2.3258524  0.073565468   -3.5634906    1.2376382   520603 
  404000    1.0436436    -3.562731    -3.562731   -2.3266459  0.075546737    -3.562731     1.236085   520603 
  405000    1.0431981   -3.5614901   -3.5614901   -2.3259327  0.063552201   -3.5614901    1.2355574   520603 
  406000    1.0424045   -3.5602357   -3.5602357   -2.3256182  0.083205047   -3.5602357    1.2346175   520603 
  407000    1.0434697   -3.5624743   -3.5624743   -2.3265952  0.098397067   -3.5624743    1.2358791   520603 
  408000    1.0437142   -3.5625523   -3.5625523   -2.3263836  0.085339415   -3.5625523    1.2361687   520603 
  409000    1.0459309   -3.5650553   -3.5650553   -2.3262611  0.072120117   -3.5650553    1.2387942   520603 
  410000    1.0444576   -3.5641006   -3.5641006   -2.3270514  0.070850052   -3.5641006    1.2370492   520603 
  411000    1.0445142   -3.5645864   -3.5645864   -2.3274702  0.084032997   -3.5645864    1.2371163   520603 
  412000    1.0438893   -3.5637873   -3.5637873   -2.3274112   0.07181383   -3.5637873    1.2363761   520603 
  413000    1.0438686   -3.5640283   -3.5640283   -2.3276767  0.083172775   -3.5640283    1.2363516   520603 
  414000    1.0433483   -3.5648294   -3.5648294    -2.329094  0.078993201   -3.5648294    1.2357354   520603 
  415000    1.0432691   -3.5637357   -3.5637357   -2.3280942  0.070698622   -3.5637357    1.2356415   520603 
  416000    1.0432105   -3.5649027   -3.5649027   -2.3293306  0.066124138   -3.5649027    1.2355721   520603 
  417000    1.0421856   -3.5638694   -3.5638694   -2.3295112  0.079803409   -3.5638694    1.2343582   520603 
  418000     1.043427   -3.5663267   -3.5663267   -2.3304982  0.077032566   -3.5663267    1.2358285   520603 
  419000    1.0428305   -3.5660694   -3.5660694   -2.3309473  0.078507978   -3.5660694    1.2351221   520603 
  420000    1.0430767   -3.5659924   -3.5659924   -2.3305787  0.097634084   -3.5659924    1.2354137   520603 
  421000    1.0441146   -3.5674781   -3.5674781   -2.3308352  0.080905534   -3.5674781    1.2366429   520603 
  422000    1.0435094   -3.5672401   -3.5672401   -2.3313139  0.065060258   -3.5672401    1.2359262   520603 
  423000    1.0443106   -3.5683463   -3.5683463   -2.3314713  0.076277363   -3.5683463     1.236875   520603 
  424000    1.0424019   -3.5669293   -3.5669293   -2.3323149  0.071058536   -3.5669293    1.2346144   520603 
  425000    1.0435453   -3.5679681   -3.5679681   -2.3319994  0.079370112   -3.5679681    1.2359687   520603 
  426000    1.0423019   -3.5679331   -3.5679331   -2.3334371   0.08475664   -3.5679331     1.234496   520603 
  427000    1.0423209   -3.5681098   -3.5681098   -2.3335913  0.076392157   -3.5681098    1.2345185   520603 
  428000     1.041977   -3.5669557   -3.5669557   -2.3328444  0.077371272   -3.5669557    1.2341112   520603 
  429000    1.0435821   -3.5693299   -3.5693299   -2.3333177  0.098683939   -3.5693299    1.2360122   520603 
  430000    1.0428919   -3.5692336   -3.5692336   -2.3340388  0.080174522   -3.5692336    1.2351948   520603 
  431000    1.0431101   -3.5697925   -3.5697925   -2.3343393  0.081889729   -3.5697925    1.2354532   520603 
  432000    1.0434597   -3.5696191   -3.5696191   -2.3337518  0.081688166   -3.5696191    1.2358673   520603 
  433000    1.0430917   -3.5704175   -3.5704175    -2.334986  0.086500463   -3.5704175    1.2354315   520603 
  434000    1.0412544   -3.5684343   -3.5684343   -2.3351789  0.070736034   -3.5684343    1.2332554   520603 
  435000    1.0418615    -3.568893    -3.568893   -2.3349186  0.083907559    -3.568893    1.2339744   520603 
  436000    1.0416033   -3.5689244   -3.5689244   -2.3352559  0.078768728   -3.5689244    1.2336685   520603 
  437000    1.0404517   -3.5679126   -3.5679126   -2.3356081  0.081932992   -3.5679126    1.2323046   520603 
  438000    1.0428775   -3.5711664   -3.5711664   -2.3359888   0.07892779   -3.5711664    1.2351777   520603 
  439000    1.0429299   -3.5702822   -3.5702822   -2.3350424  0.085311838   -3.5702822    1.2352398   520603 
  440000    1.0417498   -3.5693676   -3.5693676   -2.3355255  0.074374878   -3.5693676    1.2338421   520603 
  441000    1.0437341   -3.5724824   -3.5724824     -2.33629  0.083487917   -3.5724824    1.2361923   520603 
  442000     1.042502    -3.571611    -3.571611   -2.3368781  0.085906713    -3.571611     1.234733   520603 
  443000    1.0417081   -3.5706709   -3.5706709   -2.3368782  0.072002588   -3.5706709    1.2337927   520603 
  444000    1.0414467    -3.570193    -3.570193   -2.3367099  0.087069346    -3.570193    1.2334831   520603 
  445000    1.0430342   -3.5723048   -3.5723048   -2.3369415  0.083383533   -3.5723048    1.2353633   520603 
  446000    1.0417796   -3.5706858   -3.5706858   -2.3368084  0.070484474   -3.5706858    1.2338774   520603 
  447000    1.0428383   -3.5732504   -3.5732504    -2.338119  0.085855729   -3.5732504    1.2351313   520603 
  448000    1.0420924   -3.5737425   -3.5737425   -2.3394946   0.05611665   -3.5737425    1.2342479   520603 
  449000    1.0429782   -3.5745379   -3.5745379    -2.339241  0.087614955   -3.5745379    1.2352969   520603 
  450000    1.0413482   -3.5732056   -3.5732056   -2.3398392  0.082149152   -3.5732056    1.2333664   520603 
  451000     1.040663   -3.5717855   -3.5717855   -2.3392306  0.079065608   -3.5717855    1.2325549   520603 
  452000    1.0415833   -3.5724514   -3.5724514   -2.3388065  0.089807096   -3.5724514    1.2336449   520603 
  453000    1.0417454   -3.5740987   -3.5740987   -2.3402618   0.08155373   -3.5740987    1.2338369   520603 
  454000    1.0394823   -3.5715531   -3.5715531   -2.3403967  0.065556181   -3.5715531    1.2311564   520603 
  455000    1.0396279    -3.571587    -3.571587   -2.3402581  0.077659884    -3.571587    1.2313289   520603 
  456000    1.0410693   -3.5734689   -3.5734689   -2.3404329  0.072329322   -3.5734689     1.233036   520603 
  457000      1.04108   -3.5737318   -3.5737318    -2.340683  0.088333655   -3.5737318    1.2330488   520603 
  458000     1.044137   -3.5781187   -3.5781187   -2.3414493  0.079651192   -3.5781187    1.2366694   520603 
  459000    1.0425218   -3.5755604   -3.5755604    -2.340804  0.081375049   -3.5755604    1.2347564   520603 
  460000    1.0442619   -3.5784295   -3.5784295   -2.3416121  0.071176217   -3.5784295    1.2368174   520603 
  461000    1.0429434   -3.5764442   -3.5764442   -2.3411885  0.070568142   -3.5764442    1.2352558   520603 
  462000     1.042908   -3.5766971   -3.5766971   -2.3414832  0.083400355   -3.5766971    1.2352138   520603 
  463000    1.0415286   -3.5766191   -3.5766191   -2.3430391   0.08077472   -3.5766191      1.23358   520603 
  464000    1.0432541   -3.5785225   -3.5785225   -2.3428988  0.089369696   -3.5785225    1.2356238   520603 
  465000    1.0411998    -3.576411    -3.576411   -2.3432203  0.077617871    -3.576411    1.2331906   520603 
  466000    1.0422258   -3.5773672   -3.5773672   -2.3429614  0.067487038   -3.5773672    1.2344058   520603 
  467000    1.0414364   -3.5761767   -3.5761767   -2.3427059  0.083407931   -3.5761767    1.2334708   520603 
  468000    1.0412981   -3.5765452   -3.5765452   -2.3432382  0.079907858   -3.5765452     1.233307   520603 
  469000    1.0409718   -3.5767392   -3.5767392   -2.3438185  0.084261149   -3.5767392    1.2329206   520603 
  470000    1.0412378   -3.5765679   -3.5765679   -2.3433322  0.084497051   -3.5765679    1.2332357   520603 
  471000    1.0423138   -3.5776181   -3.5776181    -2.343108  0.082118375   -3.5776181    1.2345101   520603 
  472000    1.0401399   -3.5762409   -3.5762409   -2.3443056  0.079905574   -3.5762409    1.2319353   520603 
  473000     1.041445   -3.5775119   -3.5775119   -2.3440309  0.079585862   -3.5775119     1.233481   520603 
  474000    1.0409405   -3.5775355   -3.5775355    -2.344652  0.090062467   -3.5775355    1.2328835   520603 
  475000    1.0421662   -3.5791528   -3.5791528   -2.3448175  0.080733417   -3.5791528    1.2343353   520603 
  476000    1.0402216   -3.5777417   -3.5777417   -2.3457095  0.082679313   -3.5777417    1.2320321   520603 
  477000    1.0407314   -3.5792829   -3.5792829    -2.346647  0.087604536   -3.5792829    1.2326359   520603 
  478000    1.0429105   -3.5815744   -3.5815744   -2.3463576  0.065711867   -3.5815744    1.2352168   520603 
  479000    1.0401635   -3.5792664   -3.5792664   -2.3473031  0.076632188   -3.5792664    1.2319633   520603 
  480000    1.0400954   -3.5795236   -3.5795236    -2.347641  0.072455619   -3.5795236    1.2318826   520603 
  481000    1.0384111   -3.5785495   -3.5785495   -2.3486618  0.077077609   -3.5785495    1.2298877   520603 
  482000    1.0388073    -3.578546    -3.578546    -2.348189  0.078009743    -3.578546     1.230357   520603 
  483000    1.0390354   -3.5787664   -3.5787664   -2.3481393  0.078144886   -3.5787664    1.2306271   520603 
  484000    1.0390504   -3.5787688   -3.5787688    -2.348124  0.075161341   -3.5787688    1.2306449   520603 
  485000    1.0400981   -3.5800082   -3.5800082   -2.3481224  0.092113245   -3.5800082    1.2318858   520603 
  486000    1.0392569   -3.5783572   -3.5783572   -2.3474677  0.065091935   -3.5783572    1.2308895   520603 
  487000    1.0398532   -3.5799839   -3.5799839   -2.3483882  0.062099316   -3.5799839    1.2315957   520603 
  488000    1.0403635   -3.5814972   -3.5814972   -2.3492971  0.072452074   -3.5814972    1.2322002   520603 
  489000    1.0405935    -3.581333    -3.581333   -2.3488605  0.072457471    -3.581333    1.2324725   520603 
  490000    1.0395985   -3.5804785   -3.5804785   -2.3491844  0.090626324   -3.5804785    1.2312941   520603 
  491000    1.0383257   -3.5786719   -3.5786719   -2.3488853  0.079188351   -3.5786719    1.2297866   520603 
  492000    1.0391246   -3.5804977   -3.5804977   -2.3497649  0.065685187   -3.5804977    1.2307328   520603 
  493000    1.0382369   -3.5801427   -3.5801427   -2.3504612  0.073245217   -3.5801427    1.2296814   520603 
  494000    1.0393152    -3.580591    -3.580591   -2.3496325  0.072112616    -3.580591    1.2309586   520603 
  495000    1.0378794   -3.5791455   -3.5791455   -2.3498875  0.072839542   -3.5791455     1.229258   520603 
  496000    1.0398959   -3.5817528   -3.5817528   -2.3501065  0.080329671   -3.5817528    1.2316463   520603 
  497000    1.0377163   -3.5791089   -3.5791089   -2.3500441  0.080475103   -3.5791089    1.2290648   520603 
  498000    1.0385209   -3.5790957   -3.5790957   -2.3490779   0.08289881   -3.5790957    1.2300178   520603 
  499000    1.0386322   -3.5803527   -3.5803527   -2.3502031  0.083969997   -3.5803527    1.2301496   520603 
  500000     1.038336   -3.5802528   -3.5802528   -2.3504541  0.081178406   -3.5802528    1.2297988   520603 
  501000    1.0380232   -3.5805076   -3.5805076   -2.3510794   0.06198801   -3.5805076    1.2294283   520603 
  502000    1.0391888    -3.582281    -3.582281   -2.3514722  0.083265412    -3.582281    1.2308088   520603 
  503000    1.0403361   -3.5831768   -3.5831768   -2.3510091  0.081911273   -3.5831768    1.2321676   520603 
  504000    1.0385773   -3.5815235   -3.5815235   -2.3514389  0.074879802   -3.5815235    1.2300846   520603 
  505000    1.0394954   -3.5833572   -3.5833572   -2.3521853  0.072441356   -3.5833572    1.2311719   520603 
  506000     1.039431   -3.5842338   -3.5842338   -2.3531381  0.071540899   -3.5842338    1.2310958   520603 
  507000    1.0387765   -3.5832993   -3.5832993   -2.3529788  0.077666116   -3.5832993    1.2303206   520603 
  508000    1.0379416   -3.5829203   -3.5829203   -2.3535887  0.082001016   -3.5829203    1.2293316   520603 
  509000    1.0388861      -3.5839      -3.5839   -2.3534497  0.076660388      -3.5839    1.2304503   520603 
  510000    1.0387784   -3.5849417   -3.5849417   -2.3546189  0.066912365   -3.5849417    1.2303227   520603 
  511000    1.0400123   -3.5859236   -3.5859236   -2.3541395  0.091202062   -3.5859236    1.2317841   520603 
  512000    1.0392839   -3.5853641   -3.5853641   -2.3544426  0.063727791   -3.5853641    1.2309215   520603 
  513000    1.0398129   -3.5860385   -3.5860385   -2.3544905  0.069474525   -3.5860385    1.2315481   520603 
  514000    1.0397028   -3.5878473   -3.5878473   -2.3564297  0.070534529   -3.5878473    1.2314176   520603 
  515000    1.0379533    -3.585317    -3.585317   -2.3559714  0.069842798    -3.585317    1.2293456   520603 
  516000    1.0391664   -3.5864544   -3.5864544   -2.3556721  0.074585427   -3.5864544    1.2307823   520603 
  517000    1.0394354   -3.5863472   -3.5863472   -2.3552463  0.073383593   -3.5863472    1.2311009   520603 
  518000    1.0362187   -3.5835709   -3.5835709   -2.3562798  0.081078115   -3.5835709    1.2272911   520603 
  519000    1.0373705   -3.5847188   -3.5847188   -2.3560636  0.072869748   -3.5847188    1.2286552   520603 
  520000    1.0393649   -3.5866993   -3.5866993   -2.3556819  0.081399704   -3.5866993    1.2310174   520603 
  521000    1.0368547   -3.5842453   -3.5842453   -2.3562009  0.070233059   -3.5842453    1.2280444   520603 
  522000    1.0402965   -3.5875495   -3.5875495   -2.3554288   0.08551166   -3.5875495    1.2321207   520603 
  523000     1.039327    -3.586944    -3.586944   -2.3559715  0.086143698    -3.586944    1.2309725   520603 
  524000    1.0398673   -3.5879854   -3.5879854   -2.3563729  0.056265654   -3.5879854    1.2316125   520603 
  525000    1.0395028   -3.5880498   -3.5880498   -2.3568691  0.075575742   -3.5880498    1.2311807   520603 
  526000    1.0374645   -3.5861665   -3.5861665      -2.3574  0.057933725   -3.5861665    1.2287666   520603 
  527000    1.0369476   -3.5859692   -3.5859692   -2.3578148  0.078998838   -3.5859692    1.2281544   520603 
  528000    1.0397756   -3.5889894   -3.5889894   -2.3574856  0.092268345   -3.5889894    1.2315039   520603 
  529000    1.0386314   -3.5881805   -3.5881805   -2.3580319  0.078220632   -3.5881805    1.2301486   520603 
  530000    1.0397901   -3.5904739   -3.5904739   -2.3589529  0.083650003   -3.5904739     1.231521   520603 
  531000    1.0379687   -3.5872785   -3.5872785   -2.3579147  0.083238143   -3.5872785    1.2293638   520603 
  532000    1.0376354   -3.5872859   -3.5872859   -2.3583169  0.084205538   -3.5872859    1.2289689   520603 
  533000    1.0388816   -3.5892926   -3.5892926   -2.3588476  0.074733182   -3.5892926     1.230445   520603 
  534000    1.0382183   -3.5886461   -3.5886461   -2.3589867  0.080064111   -3.5886461    1.2296594   520603 
  535000    1.0381798   -3.5879817   -3.5879817   -2.3583679  0.078988701   -3.5879817    1.2296138   520603 
  536000    1.0379464   -3.5881852   -3.5881852   -2.3588478  0.063654123   -3.5881852    1.2293374   520603 
  537000    1.0378897   -3.5880472   -3.5880472    -2.358777  0.070039772   -3.5880472    1.2292701   520603 
  538000    1.0390852     -3.58978     -3.58978   -2.3590939  0.068362676     -3.58978    1.2306861   520603 
  539000    1.0388933   -3.5896698   -3.5896698    -2.359211  0.072418398   -3.5896698    1.2304588   520603 
  540000    1.0372422   -3.5884996   -3.5884996   -2.3599963  0.067940754   -3.5884996    1.2285033   520603 
  541000    1.0372189   -3.5882506   -3.5882506   -2.3597749  0.062108881   -3.5882506    1.2284757   520603 
  542000    1.0383031   -3.5899087   -3.5899087   -2.3601489  0.071479349   -3.5899087    1.2297598   520603 
  543000     1.037334   -3.5884288   -3.5884288   -2.3598167  0.084506341   -3.5884288     1.228612   520603 
  544000    1.0375137   -3.5887881   -3.5887881   -2.3599633  0.076099135   -3.5887881    1.2288248   520603 
  545000    1.0374738   -3.5891994   -3.5891994   -2.3604219  0.067779984   -3.5891994    1.2287776   520603 
  546000    1.0367195    -3.588717    -3.588717   -2.3608329  0.067313772    -3.588717    1.2278842   520603 
  547000    1.0393762   -3.5924625   -3.5924625   -2.3614317  0.072891653   -3.5924625    1.2310308   520603 
  548000    1.0367105    -3.589115    -3.589115   -2.3612414   0.06967255    -3.589115    1.2278736   520603 
  549000    1.0394933    -3.592408    -3.592408   -2.3612385   0.09311971    -3.592408    1.2311695   520603 
  550000    1.0380898   -3.5910483   -3.5910483   -2.3615412  0.077786209   -3.5910483    1.2295072   520603 
  551000     1.036582   -3.5894883   -3.5894883   -2.3617669   0.06564877   -3.5894883    1.2277214   520603 
  552000    1.0390568   -3.5920743   -3.5920743   -2.3614218  0.074570437   -3.5920743    1.2306525   520603 
  553000    1.0386086   -3.5913979   -3.5913979   -2.3612762  0.056684325   -3.5913979    1.2301217   520603 
  554000    1.0376961   -3.5900112   -3.5900112   -2.3609703  0.068859232   -3.5900112    1.2290409   520603 
  555000    1.0384924    -3.590257    -3.590257   -2.3602729   0.07603842    -3.590257     1.229984   520603 
  556000    1.0365573   -3.5890702   -3.5890702    -2.361378  0.077889897   -3.5890702    1.2276921   520603 
  557000    1.0376541   -3.5910872   -3.5910872   -2.3620961  0.074295052   -3.5910872    1.2289912   520603 
  558000    1.0374102   -3.5910488   -3.5910488   -2.3623466  0.068832276   -3.5910488    1.2287022   520603 
  559000    1.0365263   -3.5895983   -3.5895983   -2.3619429  0.078774417   -3.5895983    1.2276554   520603 
  560000    1.0357802   -3.5893466   -3.5893466   -2.3625748  0.064378565   -3.5893466    1.2267717   520603 
  561000    1.0352487   -3.5900464   -3.5900464   -2.3639041  0.064723464   -3.5900464    1.2261423   520603 
  562000     1.036895   -3.5922595   -3.5922595   -2.3641675  0.064367687   -3.5922595     1.228092   520603 
  563000    1.0362084   -3.5907645   -3.5907645   -2.3634856  0.091146397   -3.5907645    1.2272788   520603 
  564000    1.0352056   -3.5900249   -3.5900249   -2.3639337  0.090898511   -3.5900249    1.2260912   520603 
  565000    1.0379653   -3.5940948   -3.5940948   -2.3647351  0.068498852   -3.5940948    1.2293597   520603 
  566000    1.0367687   -3.5924109   -3.5924109   -2.3644684  0.079644108   -3.5924109    1.2279425   520603 
  567000     1.036296   -3.5928525   -3.5928525     -2.36547  0.075218264   -3.5928525    1.2273826   520603 
  568000     1.037607   -3.5948307   -3.5948307   -2.3658954  0.075456893   -3.5948307    1.2289353   520603 
  569000    1.0372341   -3.5931811   -3.5931811   -2.3646874  0.069424508   -3.5931811    1.2284937   520603 
  570000    1.0376376    -3.594246    -3.594246   -2.3652744  0.064942111    -3.594246    1.2289716   520603 
  571000    1.0374703   -3.5951062   -3.5951062   -2.3663327  0.071914106   -3.5951062    1.2287735   520603 
  572000    1.0364042   -3.5942625   -3.5942625   -2.3667517   0.08005145   -3.5942625    1.2275107   520603 
  573000    1.0359772   -3.5938048   -3.5938048   -2.3667998  0.072532557   -3.5938048     1.227005   520603 
  574000    1.0358247   -3.5941564   -3.5941564   -2.3673321  0.068777779   -3.5941564    1.2268244   520603 
  575000    1.0361783   -3.5950609   -3.5950609   -2.3678177  0.062989255   -3.5950609    1.2272432   520603 
  576000    1.0353107   -3.5939315   -3.5939315   -2.3677159  0.073217379   -3.5939315    1.2262156   520603 
  577000    1.0370132   -3.5957675   -3.5957675   -2.3675354  0.079108441   -3.5957675    1.2282321   520603 
  578000    1.0353863   -3.5946147   -3.5946147   -2.3683095   0.07748454   -3.5946147    1.2263052   520603 
  579000    1.0396979   -3.5992939   -3.5992939   -2.3678822  0.071429258   -3.5992939    1.2314118   520603 
  580000    1.0371297   -3.5963258   -3.5963258   -2.3679558  0.083886986   -3.5963258      1.22837   520603 
  581000    1.0367174    -3.595653    -3.595653   -2.3677713  0.067436887    -3.595653    1.2278817   520603 
  582000    1.0374545   -3.5969535   -3.5969535   -2.3681987  0.081693183   -3.5969535    1.2287548   520603 
  583000    1.0368571   -3.5961393   -3.5961393   -2.3680921  0.083692157   -3.5961393    1.2280472   520603 
  584000    1.0357189   -3.5952663   -3.5952663   -2.3685671  0.068392469   -3.5952663    1.2266992   520603 
  585000     1.034777   -3.5943278   -3.5943278   -2.3687442  0.070021318   -3.5943278    1.2255835   520603 
  586000    1.0352003   -3.5952458   -3.5952458   -2.3691609  0.075517371   -3.5952458    1.2260849   520603 
  587000    1.0359228   -3.5960437   -3.5960437    -2.369103  0.071089992   -3.5960437    1.2269407   520603 
  588000    1.0357786   -3.5967196   -3.5967196   -2.3699498  0.083446831   -3.5967196    1.2267698   520603 
  589000     1.036787   -3.5974787   -3.5974787   -2.3695146  0.076700996   -3.5974787    1.2279641   520603 
  590000    1.0348652   -3.5963531   -3.5963531    -2.370665   0.07884472   -3.5963531     1.225688   520603 
  591000     1.035847   -3.5978928   -3.5978928   -2.3710419  0.073556639   -3.5978928    1.2268508   520603 
  592000    1.0364189   -3.5983703   -3.5983703   -2.3708421  0.075367817   -3.5983703    1.2275282   520603 
  593000    1.0356976   -3.5980455   -3.5980455   -2.3713715   0.05778046   -3.5980455    1.2266739   520603 
  594000    1.0362744   -3.5991026   -3.5991026   -2.3717455  0.061357363   -3.5991026     1.227357   520603 
  595000    1.0354275   -3.5973559   -3.5973559   -2.3710019  0.071791799   -3.5973559     1.226354   520603 
  596000    1.0360815   -3.5982557   -3.5982557   -2.3711271    0.0732399   -3.5982557    1.2271286   520603 
  597000    1.0339146   -3.5961728   -3.5961728   -2.3716108  0.074098217   -3.5961728    1.2245621   520603 
  598000    1.0338688   -3.5971381   -3.5971381   -2.3726302   0.07193745   -3.5971381    1.2245079   520603 
  599000    1.0364387   -3.5997541   -3.5997541   -2.3722026  0.074161098   -3.5997541    1.2275516   520603 
  600000    1.0346577   -3.5982952   -3.5982952    -2.372853  0.067244901   -3.5982952    1.2254422   520603 
  601000    1.0353957   -3.5991426   -3.5991426   -2.3728263  0.078112489   -3.5991426    1.2263163   520603 
  602000    1.0374265   -3.6009058   -3.6009058   -2.3721843  0.061580875   -3.6009058    1.2287215   520603 
  603000    1.0349059   -3.5991279   -3.5991279   -2.3733917  0.065409676   -3.5991279    1.2257362   520603 
  604000    1.0345772   -3.5985705   -3.5985705   -2.3732236  0.076493273   -3.5985705    1.2253469   520603 
  605000    1.0352615   -3.5994042   -3.5994042   -2.3732468  0.070193922   -3.5994042    1.2261574   520603 
  606000    1.0349724    -3.599518    -3.599518    -2.373703  0.070325796    -3.599518     1.225815   520603 
  607000    1.0355193   -3.6009337   -3.6009337    -2.374471  0.072788331   -3.6009337    1.2264627   520603 
  608000     1.036409   -3.6022131   -3.6022131   -2.3746966  0.060401822   -3.6022131    1.2275164   520603 
  609000    1.0356767   -3.6015998   -3.6015998   -2.3749507  0.075081444   -3.6015998    1.2266491   520603 
  610000    1.0378399   -3.6044551   -3.6044551   -2.3752438  0.071142051   -3.6044551    1.2292113   520603 
  611000    1.0351118   -3.6002628   -3.6002628   -2.3742828  0.069696339   -3.6002628      1.22598   520603 
  612000    1.0354568   -3.6010769   -3.6010769   -2.3746882   0.06981002   -3.6010769    1.2263887   520603 
  613000    1.0355855   -3.6026804   -3.6026804   -2.3761393   0.07182626   -3.6026804    1.2265411   520603 
  614000    1.0327216   -3.6001983   -3.6001983   -2.3770492   0.06945032   -3.6001983    1.2231491   520603 
  615000    1.0335203   -3.6013502   -3.6013502   -2.3772551  0.070447439   -3.6013502    1.2240951   520603 
  616000    1.0334644    -3.600301    -3.600301   -2.3762721  0.061911677    -3.600301    1.2240289   520603 
  617000    1.0313237   -3.5975496   -3.5975496   -2.3760562  0.062023294   -3.5975496    1.2214934   520603 
  618000     1.033097   -3.6002134   -3.6002134   -2.3766196  0.069252863   -3.6002134    1.2235938   520603 
  619000    1.0334781   -3.5999934   -3.5999934   -2.3759483  0.075757693   -3.5999934    1.2240452   520603 
  620000    1.0338104   -3.6009524   -3.6009524   -2.3765137   0.08388697   -3.6009524    1.2244387   520603 
  621000    1.0349103   -3.6015497   -3.6015497   -2.3758083  0.067334782   -3.6015497    1.2257414   520603 
  622000    1.0375768   -3.6055272   -3.6055272   -2.3766277  0.072104629   -3.6055272    1.2288995   520603 
  623000    1.0342271   -3.6015985   -3.6015985   -2.3766663  0.077828406   -3.6015985    1.2249323   520603 
  624000    1.0354929   -3.6029747   -3.6029747   -2.3765432  0.065941261   -3.6029747    1.2264315   520603 
  625000    1.0351569    -3.602486    -3.602486   -2.3764525  0.061749524    -3.602486    1.2260335   520603 
  626000    1.0317718   -3.5995924   -3.5995924   -2.3775682  0.059400091   -3.5995924    1.2220242   520603 
  627000     1.032525   -3.6003853   -3.6003853    -2.377469  0.071177055   -3.6003853    1.2229163   520603 
  628000    1.0325799   -3.6008291   -3.6008291   -2.3778478  0.081594476   -3.6008291    1.2229813   520603 
  629000     1.033823   -3.6026272   -3.6026272   -2.3781736  0.067366517   -3.6026272    1.2244536   520603 
  630000    1.0351709   -3.6037335   -3.6037335   -2.3776834   0.07942224   -3.6037335    1.2260501   520603 
  631000    1.0358051   -3.6043023   -3.6043023    -2.377501  0.065388681   -3.6043023    1.2268013   520603 
  632000    1.0351092   -3.6042549   -3.6042549   -2.3782779  0.079483607   -3.6042549    1.2259769   520603 
  633000    1.0360265   -3.6056193   -3.6056193   -2.3785559  0.075784989   -3.6056193    1.2270634   520603 
  634000    1.0370065   -3.6062029   -3.6062029   -2.3779788  0.073657532   -3.6062029    1.2282241   520603 
  635000    1.0353786   -3.6049872   -3.6049872   -2.3786912  0.078242153   -3.6049872    1.2262961   520603 
  636000     1.033107   -3.6040451   -3.6040451   -2.3804396   0.06273518   -3.6040451    1.2236056   520603 
  637000    1.0338281   -3.6032933   -3.6032933   -2.3788337  0.070056119   -3.6032933    1.2244596   520603 
  638000    1.0342428   -3.6041733   -3.6041733   -2.3792225  0.074817944   -3.6041733    1.2249508   520603 
  639000    1.0342544   -3.6055509   -3.6055509   -2.3805863  0.070279785   -3.6055509    1.2249646   520603 
  640000    1.0339678   -3.6048992   -3.6048992   -2.3802741  0.053882445   -3.6048992    1.2246251   520603 
  641000    1.0336091   -3.6054563   -3.6054563    -2.381256  0.074196609   -3.6054563    1.2242003   520603 
  642000    1.0341911   -3.6062686   -3.6062686    -2.381379  0.072800527   -3.6062686    1.2248896   520603 
  643000     1.033343   -3.6054728   -3.6054728   -2.3815877  0.077826373   -3.6054728    1.2238851   520603 
  644000    1.0355987   -3.6077834   -3.6077834   -2.3812266  0.068893828   -3.6077834    1.2265568   520603 
  645000     1.033227   -3.6050378   -3.6050378   -2.3812901  0.073454379   -3.6050378    1.2237477   520603 
  646000    1.0340241   -3.6062603   -3.6062603   -2.3815684  0.072182727   -3.6062603    1.2246918   520603 
  647000     1.035064   -3.6072503   -3.6072503   -2.3813269  0.069874845   -3.6072503    1.2259234   520603 
  648000    1.0339162   -3.6061034   -3.6061034   -2.3815395  0.084215688   -3.6061034     1.224564   520603 
  649000    1.0319223   -3.6050591   -3.6050591   -2.3828567  0.081550307   -3.6050591    1.2222024   520603 
  650000    1.0353327   -3.6082776   -3.6082776   -2.3820359  0.078447492   -3.6082776    1.2262417   520603 
  651000    1.0346051   -3.6080104   -3.6080104   -2.3826305  0.075992265   -3.6080104    1.2253799   520603 
  652000    1.0353898   -3.6095711   -3.6095711   -2.3832618  0.067475633   -3.6095711    1.2263093   520603 
  653000    1.0353084   -3.6094503   -3.6094503   -2.3832373  0.059789854   -3.6094503     1.226213   520603 
  654000    1.0353048   -3.6092848   -3.6092848   -2.3830762  0.064533889   -3.6092848    1.2262086   520603 
  655000      1.03478   -3.6091017   -3.6091017   -2.3835146  0.086871399   -3.6091017    1.2255871   520603 
  656000    1.0336131   -3.6079468   -3.6079468   -2.3837417  0.066676138   -3.6079468     1.224205   520603 
  657000    1.0345955   -3.6096048   -3.6096048   -2.3842363  0.079922657   -3.6096048    1.2253686   520603 
  658000    1.0324571   -3.6076964   -3.6076964   -2.3848605  0.067248338   -3.6076964    1.2228359   520603 
  659000    1.0319589   -3.6077716   -3.6077716   -2.3855259  0.063497702   -3.6077716    1.2222457   520603 
  660000    1.0337994   -3.6093359   -3.6093359   -2.3849102  0.061840735   -3.6093359    1.2244257   520603 
  661000    1.0331161   -3.6091025   -3.6091025   -2.3854861  0.072176743   -3.6091025    1.2236164   520603 
  662000    1.0317353   -3.6083361   -3.6083361   -2.3863551  0.068850431   -3.6083361     1.221981   520603 
  663000    1.0336326   -3.6105788   -3.6105788   -2.3863506  0.066014685   -3.6105788    1.2242281   520603 
  664000    1.0320845   -3.6081187   -3.6081187   -2.3857242  0.071355395   -3.6081187    1.2223945   520603 
  665000    1.0333106   -3.6090066   -3.6090066   -2.3851599  0.071318852   -3.6090066    1.2238467   520603 
  666000    1.0329582   -3.6090275   -3.6090275   -2.3855981  0.080381098   -3.6090275    1.2234294   520603 
  667000     1.031712   -3.6080139   -3.6080139   -2.3860605  0.066879983   -3.6080139    1.2219533   520603 
  668000     1.031819   -3.6079133   -3.6079133   -2.3858331  0.069686095   -3.6079133    1.2220801   520603 
  669000    1.0335483   -3.6103192   -3.6103192    -2.386191  0.069803579   -3.6103192    1.2241282   520603 
  670000     1.035695   -3.6128626   -3.6128626   -2.3861918  0.067933957   -3.6128626    1.2266708   520603 
  671000    1.0339071   -3.6107446   -3.6107446   -2.3861914  0.070582576   -3.6107446    1.2245533   520603 
  672000    1.0336776   -3.6112224   -3.6112224    -2.386941  0.066124806   -3.6112224    1.2242814   520603 
  673000    1.0307325   -3.6093378   -3.6093378   -2.3885446  0.074569204   -3.6093378    1.2207932   520603 
  674000    1.0340448   -3.6136497   -3.6136497   -2.3889333  0.066292568   -3.6136497    1.2247163   520603 
  675000    1.0328007   -3.6111202   -3.6111202   -2.3878774  0.066058147   -3.6111202    1.2232428   520603 
  676000    1.0334205   -3.6120273   -3.6120273   -2.3880504  0.064773703   -3.6120273    1.2239769   520603 
  677000    1.0329754    -3.612354    -3.612354   -2.3889043  0.085921108    -3.612354    1.2234497   520603 
  678000    1.0341834   -3.6141973   -3.6141973   -2.3893168  0.074042483   -3.6141973    1.2248805   520603 
  679000    1.0329232   -3.6135521   -3.6135521   -2.3901641   0.07562327   -3.6135521    1.2233879   520603 
  680000    1.0329649   -3.6142259   -3.6142259   -2.3907885  0.071733367   -3.6142259    1.2234373   520603 
  681000    1.0340511   -3.6150092   -3.6150092   -2.3902855  0.068836837   -3.6150092    1.2247238   520603 
  682000    1.0329865   -3.6126178   -3.6126178   -2.3891549  0.083084337   -3.6126178    1.2234629   520603 
  683000    1.0346772   -3.6152421   -3.6152421   -2.3897767  0.056725419   -3.6152421    1.2254654   520603 
  684000    1.0326058   -3.6125117   -3.6125117   -2.3894997   0.08780798   -3.6125117     1.223012   520603 
  685000    1.0340184    -3.615298    -3.615298    -2.390613  0.070520771    -3.615298    1.2246851   520603 
  686000    1.0346491   -3.6157935   -3.6157935   -2.3903614  0.062733194   -3.6157935    1.2254321   520603 
  687000    1.0333617    -3.613845    -3.613845   -2.3899377  0.061002202    -3.613845    1.2239073   520603 
  688000    1.0339824   -3.6145554   -3.6145554    -2.389913  0.081205128   -3.6145554    1.2246424   520603 
  689000    1.0323342    -3.612765    -3.612765   -2.3900747  0.085979352    -3.612765    1.2226903   520603 
  690000    1.0310637   -3.6115727   -3.6115727   -2.3903872  0.059658027   -3.6115727    1.2211855   520603 
  691000     1.031876   -3.6119727   -3.6119727   -2.3898252  0.077641426   -3.6119727    1.2221476   520603 
  692000    1.0318786   -3.6120446   -3.6120446   -2.3898939  0.072535056   -3.6120446    1.2221507   520603 
  693000    1.0319428   -3.6127518   -3.6127518    -2.390525  0.069753016   -3.6127518    1.2222268   520603 
  694000    1.0339971   -3.6155088   -3.6155088   -2.3908489  0.056962429   -3.6155088    1.2246599   520603 
  695000    1.0338528   -3.6152435   -3.6152435   -2.3907546  0.079891186   -3.6152435    1.2244889   520603 
  696000    1.0327977   -3.6147866   -3.6147866   -2.3915474  0.074383078   -3.6147866    1.2232392   520603 
  697000    1.0331749    -3.615673    -3.615673   -2.3919869  0.069556511    -3.615673    1.2236861   520603 
  698000    1.0339853   -3.6164236   -3.6164236   -2.3917777  0.061369758   -3.6164236    1.2246459   520603 
  699000    1.0335975   -3.6168528   -3.6168528   -2.3926662  0.084509877   -3.6168528    1.2241866   520603 
  700000    1.0320324    -3.615639    -3.615639   -2.3933061  0.072558787    -3.615639    1.2223329   520603 
  701000    1.0325018   -3.6166931   -3.6166931   -2.3938043  0.064803827   -3.6166931    1.2228888   520603 
  702000    1.0328454   -3.6176468   -3.6176468   -2.3943511  0.071785811   -3.6176468    1.2232958   520603 
  703000    1.0323355   -3.6171921   -3.6171921   -2.3945003  0.057860965   -3.6171921    1.2226918   520603 
  704000    1.0312879   -3.6153495   -3.6153495   -2.3938984  0.058986638   -3.6153495    1.2214511   520603 
  705000    1.0311303   -3.6154088   -3.6154088   -2.3941444  0.061613799   -3.6154088    1.2212644   520603 
  706000    1.0318298   -3.6165068   -3.6165068   -2.3944139   0.06866581   -3.6165068    1.2220929   520603 
  707000    1.0306102   -3.6159637   -3.6159637   -2.3953153  0.064076065   -3.6159637    1.2206484   520603 
  708000    1.0305524   -3.6160415   -3.6160415   -2.3954616  0.066361797   -3.6160415      1.22058   520603 
  709000    1.0295942   -3.6145853   -3.6145853   -2.3951402  0.066285728   -3.6145853    1.2194451   520603 
  710000    1.0292288   -3.6143947   -3.6143947   -2.3953824   0.06467706   -3.6143947    1.2190123   520603 
  711000    1.0322879    -3.617604    -3.617604   -2.3949685  0.070805366    -3.617604    1.2226354   520603 
  712000     1.032012   -3.6176375   -3.6176375   -2.3953289  0.078245072   -3.6176375    1.2223086   520603 
  713000    1.0322178   -3.6192324   -3.6192324     -2.39668  0.059037175   -3.6192324    1.2225524   520603 
  714000    1.0315943   -3.6173525   -3.6173525   -2.3955385  0.081541424   -3.6173525     1.221814   520603 
  715000    1.0335165   -3.6197287   -3.6197287   -2.3956381  0.062195549   -3.6197287    1.2240906   520603 
  716000    1.0319315   -3.6180845   -3.6180845   -2.3958711  0.062183496   -3.6180845    1.2222133   520603 
  717000    1.0327969   -3.6191288   -3.6191288   -2.3958905  0.078175947   -3.6191288    1.2232383   520603 
  718000    1.0328177   -3.6203789   -3.6203789    -2.397116  0.069538334   -3.6203789    1.2232629   520603 
  719000    1.0325509   -3.6195987   -3.6195987   -2.3966517  0.068109661   -3.6195987    1.2229469   520603 
  720000     1.033293   -3.6206871   -3.6206871   -2.3968613  0.070315076   -3.6206871    1.2238258   520603 
  721000    1.0346968   -3.6210066   -3.6210066    -2.395518  0.071713819   -3.6210066    1.2254886   520603 
  722000    1.0343896   -3.6216107   -3.6216107   -2.3964859  0.066147621   -3.6216107    1.2251247   520603 
  723000    1.0347934   -3.6223374   -3.6223374   -2.3967345  0.066875376   -3.6223374     1.225603   520603 
  724000    1.0340034   -3.6213694   -3.6213694    -2.396702  0.058824979   -3.6213694    1.2246673   520603 
  725000    1.0338098   -3.6213893   -3.6213893   -2.3969513  0.069327652   -3.6213893    1.2244379   520603 
  726000    1.0338048   -3.6211087   -3.6211087   -2.3966766  0.068929109   -3.6211087    1.2244321   520603 
  727000    1.0322169    -3.619867    -3.619867   -2.3973155  0.090555954    -3.619867    1.2225514   520603 
  728000    1.0324313   -3.6201978   -3.6201978   -2.3973925  0.069739121   -3.6201978    1.2228054   520603 
  729000    1.0331212   -3.6212616   -3.6212616   -2.3976392  0.064494004   -3.6212616    1.2236224   520603 
  730000    1.0337884   -3.6227989   -3.6227989   -2.3983863  0.081255947   -3.6227989    1.2244126   520603 
  731000    1.0328867   -3.6224419   -3.6224419   -2.3990972  0.065778929   -3.6224419    1.2233447   520603 
  732000    1.0301508   -3.6194835   -3.6194835   -2.3993792  0.078541247   -3.6194835    1.2201043   520603 
  733000     1.031657    -3.621046    -3.621046   -2.3991577  0.070178809    -3.621046    1.2218883   520603 
  734000    1.0319492   -3.6218636   -3.6218636   -2.3996293  0.069509982   -3.6218636    1.2222343   520603 
  735000    1.0315243   -3.6219603   -3.6219603   -2.4002293  0.069966123   -3.6219603     1.221731   520603 
  736000    1.0311228   -3.6223782   -3.6223782   -2.4011226  0.089313171   -3.6223782    1.2212556   520603 
  737000    1.0320435   -3.6243883   -3.6243883   -2.4020424  0.072475963   -3.6243883     1.222346   520603 
  738000    1.0319018   -3.6238029   -3.6238029   -2.4016248  0.073314768   -3.6238029    1.2221781   520603 
  739000    1.0309984   -3.6229117   -3.6229117   -2.4018035   0.06921603   -3.6229117    1.2211082   520603 
  740000    1.0317052   -3.6239159   -3.6239159   -2.4019706  0.088293385   -3.6239159    1.2219453   520603 
  741000    1.0315493   -3.6234525   -3.6234525   -2.4016918  0.073379402   -3.6234525    1.2217607   520603 
  742000    1.0313495   -3.6239328   -3.6239328   -2.4024087  0.065690486   -3.6239328    1.2215241   520603 
  743000    1.0308616   -3.6228101   -3.6228101    -2.401864  0.065248899   -3.6228101    1.2209462   520603 
  744000    1.0333193   -3.6252309   -3.6252309   -2.4013739   0.06010426   -3.6252309     1.223857   520603 
  745000    1.0311558   -3.6234802   -3.6234802   -2.4021856  0.069135319   -3.6234802    1.2212946   520603 
  746000    1.0331015   -3.6250323   -3.6250323   -2.4014333  0.065841132   -3.6250323     1.223599   520603 
  747000    1.0327875    -3.624734    -3.624734   -2.4015068  0.069532052    -3.624734    1.2232272   520603 
  748000    1.0327321   -3.6254011   -3.6254011   -2.4022395  0.066769752   -3.6254011    1.2231616   520603 
  749000    1.0320687    -3.624634    -3.624634   -2.4022581  0.076701768    -3.624634    1.2223758   520603 
  750000    1.0314265   -3.6246582   -3.6246582   -2.4030429  0.070235744   -3.6246582    1.2216153   520603 
  751000    1.0309618   -3.6229809   -3.6229809   -2.4019161  0.064823924   -3.6229809    1.2210648   520603 
  752000    1.0318395   -3.6242506   -3.6242506   -2.4021463  0.072168873   -3.6242506    1.2221044   520603 
  753000    1.0299764    -3.623102    -3.623102   -2.4032043  0.074449582    -3.623102    1.2198977   520603 
  754000    1.0312309   -3.6247619   -3.6247619   -2.4033783  0.065200153   -3.6247619    1.2213836   520603 
  755000    1.0315377   -3.6264184   -3.6264184   -2.4046714   0.06604624   -3.6264184     1.221747   520603 
  756000     1.032574   -3.6264263   -3.6264263    -2.403452  0.072041091   -3.6264263    1.2229743   520603 
  757000    1.0317365   -3.6244836   -3.6244836   -2.4025012  0.069680294   -3.6244836    1.2219824   520603 
  758000    1.0332466   -3.6266603   -3.6266603   -2.4028894  0.068086085   -3.6266603    1.2237709   520603 
  759000    1.0329588   -3.6272798   -3.6272798   -2.4038497  0.071739398   -3.6272798    1.2234301   520603 
  760000    1.0329172   -3.6285178   -3.6285178   -2.4051369  0.075128301   -3.6285178    1.2233808   520603 
  761000    1.0310693   -3.6256464   -3.6256464   -2.4044542  0.080251577   -3.6256464    1.2211922   520603 
  762000    1.0321751   -3.6265318   -3.6265318   -2.4040299  0.066299649   -3.6265318    1.2225019   520603 
  763000    1.0318367   -3.6274457   -3.6274457   -2.4053447  0.079104349   -3.6274457     1.222101   520603 
  764000    1.0311933   -3.6261391   -3.6261391      -2.4048  0.076586685   -3.6261391    1.2213391   520603 
  765000    1.0326415   -3.6276863   -3.6276863    -2.404632  0.075725497   -3.6276863    1.2230543   520603 
  766000    1.0330812   -3.6282083   -3.6282083   -2.4046333  0.077374136   -3.6282083     1.223575   520603 
  767000    1.0303104   -3.6261743   -3.6261743   -2.4058809  0.077797914   -3.6261743    1.2202934   520603 
  768000    1.0327816   -3.6284592   -3.6284592    -2.405239  0.081381784   -3.6284592    1.2232202   520603 
  769000      1.03223   -3.6295205   -3.6295205   -2.4069535  0.062355769   -3.6295205    1.2225669   520603 
  770000    1.0324564    -3.629573    -3.629573    -2.406738    0.0649942    -3.629573     1.222835   520603 
  771000    1.0316261   -3.6301365   -3.6301365   -2.4082848  0.069968136   -3.6301365    1.2218517   520603 
  772000    1.0323675   -3.6312416   -3.6312416    -2.408512  0.072242166   -3.6312416    1.2227297   520603 
  773000     1.032651   -3.6318323   -3.6318323   -2.4087668  0.080792845   -3.6318323    1.2230655   520603 
  774000    1.0308057    -3.629771    -3.629771   -2.4088911  0.075094877    -3.629771    1.2208799   520603 
  775000    1.0326506    -3.630837    -3.630837    -2.407772  0.068556963    -3.630837     1.223065   520603 
  776000    1.0333387   -3.6314987   -3.6314987   -2.4076187  0.070282285   -3.6314987      1.22388   520603 
  777000    1.0332919   -3.6313563   -3.6313563   -2.4075317  0.074243204   -3.6313563    1.2238246   520603 
  778000    1.0337034   -3.6320287   -3.6320287   -2.4077167  0.070152303   -3.6320287     1.224312   520603 
  779000     1.033045   -3.6324702   -3.6324702    -2.408938  0.075884571   -3.6324702    1.2235321   520603 
  780000    1.0327789   -3.6325273   -3.6325273   -2.4093104  0.078238202   -3.6325273     1.223217   520603 
  781000    1.0327449   -3.6325132   -3.6325132   -2.4093364  0.070959955   -3.6325132    1.2231767   520603 
  782000    1.0327163   -3.6315701   -3.6315701   -2.4084272  0.080700968   -3.6315701    1.2231429   520603 
  783000    1.0315954   -3.6309724   -3.6309724   -2.4091572  0.068828166   -3.6309724    1.2218153   520603 
  784000    1.0319595   -3.6320481   -3.6320481   -2.4098016  0.069836987   -3.6320481    1.2222465   520603 
  785000    1.0299495   -3.6304262   -3.6304262   -2.4105603  0.076643802   -3.6304262    1.2198658   520603 
  786000    1.0318562   -3.6323897   -3.6323897   -2.4102655  0.076994009   -3.6323897    1.2221242   520603 
  787000    1.0320449   -3.6330179   -3.6330179   -2.4106702  0.066004899   -3.6330179    1.2223477   520603 
  788000    1.0316531   -3.6322782   -3.6322782   -2.4103946  0.068488042   -3.6322782    1.2218836   520603 
  789000    1.0325003   -3.6333542   -3.6333542   -2.4104673  0.078200444   -3.6333542     1.222887   520603 
  790000    1.0317291   -3.6320406   -3.6320406    -2.410067  0.082136118   -3.6320406    1.2219736   520603 
  791000    1.0330513   -3.6335215   -3.6335215   -2.4099818  0.067171554   -3.6335215    1.2235397   520603 
  792000    1.0338756    -3.633983    -3.633983    -2.409467  0.078524937    -3.633983    1.2245159   520603 
  793000    1.0328486   -3.6338821   -3.6338821   -2.4105826  0.073088519   -3.6338821    1.2232995   520603 
  794000    1.0331519   -3.6347355   -3.6347355   -2.4110767  0.075317963   -3.6347355    1.2236587   520603 
  795000    1.0316492    -3.632846    -3.632846    -2.410967  0.068416789    -3.632846    1.2218789   520603 
  796000    1.0345495   -3.6367545   -3.6367545   -2.4114404  0.067755617   -3.6367545    1.2253141   520603 
  797000    1.0310152   -3.6330495   -3.6330495   -2.4119215  0.089279387   -3.6330495    1.2211281   520603 
  798000     1.030038   -3.6329125   -3.6329125   -2.4129418   0.06561885   -3.6329125    1.2199706   520603 
  799000     1.029035   -3.6322253   -3.6322253   -2.4134426  0.076874785   -3.6322253    1.2187827   520603 
  800000    1.0287643   -3.6314715   -3.6314715   -2.4130094  0.077500635   -3.6314715    1.2184621   520603 
  801000    1.0327692   -3.6356298   -3.6356298   -2.4124243  0.069524268   -3.6356298    1.2232055   520603 
  802000    1.0308148   -3.6327203   -3.6327203   -2.4118296  0.088016523   -3.6327203    1.2208908   520603 
  803000    1.0311809    -3.634185    -3.634185   -2.4128606  0.074832233    -3.634185    1.2213243   520603 
  804000    1.0329637   -3.6353903   -3.6353903   -2.4119545  0.072522829   -3.6353903    1.2234358   520603 
  805000    1.0320141   -3.6344506   -3.6344506   -2.4121393  0.079735479   -3.6344506    1.2223112   520603 
  806000    1.0315081    -3.633356    -3.633356   -2.4116442  0.063981429    -3.633356    1.2217118   520603 
  807000    1.0329019   -3.6348559   -3.6348559   -2.4114932  0.079859331   -3.6348559    1.2233627   520603 
  808000    1.0316435   -3.6340937   -3.6340937   -2.4122214  0.077831846   -3.6340937    1.2218723   520603 
  809000    1.0325375   -3.6344827   -3.6344827   -2.4115516  0.065475837   -3.6344827    1.2229311   520603 
  810000    1.0320381   -3.6343406   -3.6343406   -2.4120009  0.072919455   -3.6343406    1.2223396   520603 
  811000    1.0305649   -3.6323188   -3.6323188    -2.411724  0.067778503   -3.6323188    1.2205947   520603 
  812000    1.0320723    -3.633667    -3.633667   -2.4112869  0.065936608    -3.633667    1.2223802   520603 
  813000     1.031539   -3.6327105   -3.6327105   -2.4109621   0.07959296   -3.6327105    1.2217484   520603 
  814000    1.0310426   -3.6332761   -3.6332761   -2.4121156  0.078716933   -3.6332761    1.2211605   520603 
  815000    1.0315789   -3.6339154   -3.6339154   -2.4121198   0.06791135   -3.6339154    1.2217957   520603 
  816000    1.0304088   -3.6328105   -3.6328105   -2.4124006  0.075461574   -3.6328105    1.2204099   520603 
  817000    1.0305349   -3.6335202   -3.6335202    -2.412961  0.074934427   -3.6335202    1.2205593   520603 
  818000    1.0300724   -3.6344166   -3.6344166   -2.4144051  0.080550259   -3.6344166    1.2200115   520603 
  819000    1.0285491   -3.6335443   -3.6335443   -2.4153371  0.074384738   -3.6335443    1.2182072   520603 
  820000      1.02934   -3.6338555   -3.6338555   -2.4147116  0.069829526   -3.6338555     1.219144   520603 
  821000    1.0296245    -3.634545    -3.634545   -2.4150641  0.059135204    -3.634545    1.2194809   520603 
  822000    1.0310279   -3.6362291   -3.6362291    -2.415086  0.075351347   -3.6362291    1.2211431   520603 
  823000    1.0315554   -3.6357241   -3.6357241   -2.4139563  0.065052572   -3.6357241    1.2217678   520603 
  824000    1.0303551   -3.6337257   -3.6337257   -2.4133795  0.071766707   -3.6337257    1.2203463   520603 
  825000    1.0296655   -3.6333699   -3.6333699   -2.4138403  0.073434357   -3.6333699    1.2195295   520603 
  826000    1.0290171   -3.6331065   -3.6331065   -2.4143449  0.084882489   -3.6331065    1.2187616   520603 
  827000    1.0303393   -3.6347189   -3.6347189   -2.4143914  0.079507459   -3.6347189    1.2203276   520603 
  828000    1.0305119   -3.6344696   -3.6344696   -2.4139377  0.069469529   -3.6344696    1.2205319   520603 
  829000    1.0324534   -3.6373193   -3.6373193   -2.4144879  0.076800296   -3.6373193    1.2228314   520603 
  830000    1.0321622   -3.6381087   -3.6381087   -2.4156221  0.075443733   -3.6381087    1.2224866   520603 
  831000     1.031223   -3.6365157   -3.6365157   -2.4151415  0.076682416   -3.6365157    1.2213742   520603 
  832000    1.0320617   -3.6377439   -3.6377439   -2.4153763  0.073261775   -3.6377439    1.2223676   520603 
  833000    1.0301373   -3.6356838   -3.6356838   -2.4155955  0.064253507   -3.6356838    1.2200883   520603 
  834000    1.0302707   -3.6359359   -3.6359359   -2.4156896  0.058606663   -3.6359359    1.2202463   520603 
  835000     1.030676   -3.6364489   -3.6364489   -2.4157225  0.076242024   -3.6364489    1.2207264   520603 
  836000    1.0304764   -3.6361339   -3.6361339    -2.415644   0.06703332   -3.6361339    1.2204899   520603 
  837000    1.0306927   -3.6364614   -3.6364614   -2.4157153  0.072918309   -3.6364614    1.2207461   520603 
  838000    1.0302824   -3.6370845   -3.6370845   -2.4168243  0.069412907   -3.6370845    1.2202601   520603 
  839000    1.0291898   -3.6364707   -3.6364707   -2.4175047  0.057084845   -3.6364707     1.218966   520603 
  840000    1.0296099   -3.6371962   -3.6371962   -2.4177325  0.073343981   -3.6371962    1.2194636   520603 
  841000    1.0307086   -3.6382486   -3.6382486   -2.4174836  0.074593744   -3.6382486     1.220765   520603 
  842000    1.0313114   -3.6383835   -3.6383835   -2.4169046  0.071326709   -3.6383835    1.2214789   520603 
  843000    1.0318179   -3.6388827   -3.6388827   -2.4168039  0.069395114   -3.6388827    1.2220788   520603 
  844000    1.0299738   -3.6377975   -3.6377975   -2.4179028  0.075281983   -3.6377975    1.2198947   520603 
  845000    1.0276927   -3.6346187   -3.6346187   -2.4174258   0.07422737   -3.6346187    1.2171929   520603 
  846000    1.0298816   -3.6367411   -3.6367411   -2.4169557  0.052191307   -3.6367411    1.2197854   520603 
  847000    1.0302862   -3.6377397   -3.6377397   -2.4174751  0.062683994   -3.6377397    1.2202646   520603 
  848000    1.0286064   -3.6369021   -3.6369021    -2.418627  0.069935378   -3.6369021    1.2182751   520603 
  849000    1.0291397   -3.6379357   -3.6379357   -2.4190289  0.071815792   -3.6379357    1.2189068   520603 
  850000    1.0291413   -3.6389785   -3.6389785   -2.4200698  0.064359277   -3.6389785    1.2189087   520603 
  851000    1.0292734   -3.6384623   -3.6384623   -2.4193972  0.067566227   -3.6384623    1.2190651   520603 
  852000    1.0293922   -3.6390578   -3.6390578    -2.419852  0.078581363   -3.6390578    1.2192058   520603 
  853000     1.029652   -3.6395166   -3.6395166    -2.420003  0.063198929   -3.6395166    1.2195135   520603 
  854000    1.0302949   -3.6404031   -3.6404031   -2.4201281  0.047791546   -3.6404031     1.220275   520603 
  855000     1.030279   -3.6406294   -3.6406294   -2.4203733  0.088515194   -3.6406294    1.2202561   520603 
  856000    1.0292555   -3.6395458   -3.6395458   -2.4205019  0.062885866   -3.6395458    1.2190439   520603 
  857000    1.0298973   -3.6401503   -3.6401503   -2.4203462  0.061934913   -3.6401503    1.2198041   520603 
  858000    1.0285173   -3.6390891   -3.6390891   -2.4209195  0.067642851   -3.6390891    1.2181696   520603 
  859000    1.0282686   -3.6390421   -3.6390421    -2.421167  0.066949825   -3.6390421     1.217875   520603 
  860000    1.0280437   -3.6388981   -3.6388981   -2.4212895  0.063410589   -3.6388981    1.2176086   520603 
  861000     1.029619   -3.6404474   -3.6404474   -2.4209729  0.063182932   -3.6404474    1.2194744   520603 
  862000    1.0296203   -3.6404938   -3.6404938   -2.4210178  0.072799879   -3.6404938     1.219476   520603 
  863000    1.0295802   -3.6412333   -3.6412333   -2.4218049  0.078977246   -3.6412333    1.2194285   520603 
  864000    1.0276342   -3.6388948   -3.6388948   -2.4217712  0.061730317   -3.6388948    1.2171236   520603 
  865000    1.0287798   -3.6404145   -3.6404145    -2.421934   0.06994606   -3.6404145    1.2184805   520603 
  866000    1.0300341   -3.6422171   -3.6422171   -2.4222511  0.066487586   -3.6422171     1.219966   520603 
  867000    1.0310111   -3.6435567   -3.6435567   -2.4224334  0.071066156   -3.6435567    1.2211232   520603 
  868000    1.0274805   -3.6393872   -3.6393872   -2.4224455  0.057743599   -3.6393872    1.2169416   520603 
  869000    1.0283383    -3.639426    -3.639426   -2.4214684   0.06920335    -3.639426    1.2179576   520603 
  870000    1.0287952   -3.6401004   -3.6401004   -2.4216017  0.071896624   -3.6401004    1.2184987   520603 
  871000    1.0296799   -3.6423062   -3.6423062   -2.4227596  0.073524098   -3.6423062    1.2195466   520603 
  872000    1.0272471   -3.6391969   -3.6391969   -2.4225317  0.074899203   -3.6391969    1.2166652   520603 
  873000     1.027265   -3.6401199   -3.6401199   -2.4234335  0.061033042   -3.6401199    1.2166864   520603 
  874000    1.0289626   -3.6425464   -3.6425464   -2.4238494  0.067431443   -3.6425464     1.218697   520603 
  875000    1.0301386   -3.6432343   -3.6432343   -2.4231445   0.05965523   -3.6432343    1.2200898   520603 
  876000    1.0274125   -3.6406559   -3.6406559   -2.4237949   0.06660492   -3.6406559     1.216861   520603 
  877000    1.0310023   -3.6442093   -3.6442093   -2.4230965  0.074748432   -3.6442093    1.2211128   520603 
  878000    1.0303342   -3.6446333   -3.6446333   -2.4243118  0.068418751   -3.6446333    1.2203215   520603 
  879000    1.0293853   -3.6422341   -3.6422341   -2.4230365  0.062657689   -3.6422341    1.2191976   520603 
  880000     1.027639   -3.6411238   -3.6411238   -2.4239945  0.076293634   -3.6411238    1.2171293   520603 
  881000    1.0311899   -3.6447432   -3.6447432   -2.4234082  0.075168299   -3.6447432     1.221335   520603 
  882000    1.0301801   -3.6436063   -3.6436063   -2.4234673   0.06560087   -3.6436063     1.220139   520603 
  883000    1.0302683   -3.6441874   -3.6441874   -2.4239439  0.077619535   -3.6441874    1.2202435   520603 
  884000    1.0300298   -3.6423566   -3.6423566   -2.4223957  0.081451994   -3.6423566    1.2199609   520603 
  885000    1.0291387   -3.6416653   -3.6416653   -2.4227598  0.064624868   -3.6416653    1.2189055   520603 
  886000    1.0278879    -3.640038    -3.640038   -2.4226139   0.06742204    -3.640038    1.2174241   520603 
  887000     1.028361   -3.6417256   -3.6417256    -2.423741  0.089287205   -3.6417256    1.2179845   520603 
  888000    1.0270946    -3.640728    -3.640728   -2.4242435  0.067145981    -3.640728    1.2164845   520603 
  889000    1.0273046   -3.6414829   -3.6414829   -2.4247497  0.070553653   -3.6414829    1.2167333   520603 
  890000    1.0286635   -3.6426678   -3.6426678   -2.4243251  0.058559128   -3.6426678    1.2183427   520603 
  891000    1.0258539   -3.6401146   -3.6401146   -2.4250994  0.062688788   -3.6401146    1.2150151   520603 
  892000    1.0281307   -3.6420617   -3.6420617     -2.42435  0.081816866   -3.6420617    1.2177117   520603 
  893000    1.0281927   -3.6421719   -3.6421719   -2.4243867  0.070514743   -3.6421719    1.2177852   520603 
  894000    1.0300767   -3.6442109   -3.6442109   -2.4241944  0.070112565   -3.6442109    1.2200165   520603 
  895000    1.0284354   -3.6432802   -3.6432802   -2.4252076   0.07046136   -3.6432802    1.2180726   520603 
  896000      1.02744   -3.6422248   -3.6422248   -2.4253311  0.066187337   -3.6422248    1.2168937   520603 
  897000     1.031102   -3.6457929   -3.6457929   -2.4245621  0.088248351   -3.6457929    1.2212309   520603 
  898000    1.0303956   -3.6448434   -3.6448434   -2.4244492  0.077596002   -3.6448434    1.2203942   520603 
  899000    1.0308252   -3.6452276   -3.6452276   -2.4243246  0.061632868   -3.6452276     1.220903   520603 
  900000    1.0300178   -3.6455936   -3.6455936   -2.4256469  0.079679355   -3.6455936    1.2199467   520603 
  901000    1.0296609    -3.645694    -3.645694     -2.42617  0.059652022    -3.645694     1.219524   520603 
  902000    1.0299404    -3.646518    -3.646518   -2.4266629  0.079298029    -3.646518    1.2198551   520603 
  903000    1.0286755   -3.6453227   -3.6453227   -2.4269658  0.077667717   -3.6453227    1.2183569   520603 
  904000    1.0294399   -3.6458838   -3.6458838   -2.4266215    0.0745205   -3.6458838    1.2192623   520603 
  905000    1.0290912   -3.6450353   -3.6450353    -2.426186  0.083265927   -3.6450353    1.2188493   520603 
  906000    1.0304862    -3.647062    -3.647062   -2.4265605  0.065481347    -3.647062    1.2205016   520603 
  907000    1.0298392   -3.6466602   -3.6466602   -2.4269249  0.085861536   -3.6466602    1.2197352   520603 
  908000     1.029556   -3.6462091   -3.6462091   -2.4268094  0.066249191   -3.6462091    1.2193998   520603 
  909000    1.0285838   -3.6450775   -3.6450775   -2.4268291  0.051479306   -3.6450775    1.2182483   520603 
  910000    1.0294927   -3.6473564   -3.6473564   -2.4280316  0.069528468   -3.6473564    1.2193248   520603 
  911000    1.0287949   -3.6463054   -3.6463054    -2.427807  0.071515203   -3.6463054    1.2184984   520603 
  912000    1.0293526   -3.6470859   -3.6470859   -2.4279269  0.076999089   -3.6470859     1.219159   520603 
  913000    1.0306799   -3.6483032   -3.6483032   -2.4275723  0.080861454   -3.6483032    1.2207309   520603 
  914000    1.0292464   -3.6471716   -3.6471716   -2.4281385  0.070779159   -3.6471716    1.2190331   520603 
  915000    1.0299406   -3.6478401   -3.6478401   -2.4279847  0.081540269   -3.6478401    1.2198554   520603 
  916000    1.0297733   -3.6493743   -3.6493743   -2.4297172  0.065414027   -3.6493743    1.2196571   520603 
  917000    1.0300157    -3.648868    -3.648868   -2.4289238   0.07321076    -3.648868    1.2199442   520603 
  918000    1.0284942   -3.6468284   -3.6468284   -2.4286862  0.073692147   -3.6468284    1.2181423   520603 
  919000     1.029311   -3.6494208   -3.6494208   -2.4303112  0.064372993   -3.6494208    1.2191096   520603 
  920000    1.0288701   -3.6481074   -3.6481074   -2.4295199   0.06838746   -3.6481074    1.2185875   520603 
  921000    1.0276356   -3.6466668   -3.6466668   -2.4295415  0.062043847   -3.6466668    1.2171252   520603 
  922000    1.0261694   -3.6462643   -3.6462643   -2.4308755  0.067242498   -3.6462643    1.2153888   520603 
  923000    1.0296651   -3.6510127   -3.6510127   -2.4314837  0.048138792   -3.6510127    1.2195291   520603 
  924000     1.027963   -3.6484705   -3.6484705   -2.4309574  0.067542634   -3.6484705    1.2175131   520603 
  925000    1.0307757   -3.6513289   -3.6513289   -2.4304845   0.06218421   -3.6513289    1.2208444   520603 
  926000    1.0291125   -3.6502291   -3.6502291   -2.4313545   0.07133794   -3.6502291    1.2188745   520603 
  927000    1.0280203   -3.6494605   -3.6494605   -2.4318795  0.071598477   -3.6494605     1.217581   520603 
  928000    1.0295287   -3.6505486   -3.6505486   -2.4311811  0.072665646   -3.6505486    1.2193675   520603 
  929000    1.0271361   -3.6485659   -3.6485659   -2.4320322   0.07039053   -3.6485659    1.2165337   520603 
  930000    1.0288733   -3.6502654   -3.6502654   -2.4316742  0.072694664   -3.6502654    1.2185912   520603 
  931000    1.0272469   -3.6487037   -3.6487037   -2.4320388  0.070111655   -3.6487037    1.2166649   520603 
  932000    1.0278992   -3.6491396   -3.6491396   -2.4317022  0.065279946   -3.6491396    1.2174374   520603 
  933000    1.0287411   -3.6505387   -3.6505387   -2.4321041   0.06914577   -3.6505387    1.2184347   520603 
  934000    1.0290038   -3.6503651   -3.6503651   -2.4316192  0.076310549   -3.6503651    1.2187458   520603 
  935000    1.0267479   -3.6483487   -3.6483487   -2.4322749  0.063717071   -3.6483487    1.2160739   520603 
  936000    1.0282925   -3.6495827   -3.6495827   -2.4316793  0.071403257   -3.6495827    1.2179034   520603 
  937000    1.0299528   -3.6515465   -3.6515465   -2.4316766  0.070514932   -3.6515465    1.2198698   520603 
  938000     1.028827   -3.6496236   -3.6496236   -2.4310873  0.070624204   -3.6496236    1.2185364   520603 
  939000    1.0301774   -3.6514944   -3.6514944   -2.4313586  0.070765467   -3.6514944    1.2201358   520603 
  940000    1.0292674   -3.6514728   -3.6514728   -2.4324147  0.082822474   -3.6514728     1.219058   520603 
  941000     1.027005   -3.6497278   -3.6497278   -2.4333494  0.069764905   -3.6497278    1.2163785   520603 
  942000    1.0287058   -3.6515227   -3.6515227   -2.4331299  0.063034713   -3.6515227    1.2183928   520603 
  943000    1.0286971   -3.6518137   -3.6518137   -2.4334312  0.078940421   -3.6518137    1.2183825   520603 
  944000    1.0267642   -3.6491224   -3.6491224   -2.4330292  0.069538542   -3.6491224    1.2160933   520603 
  945000    1.0271093   -3.6498547   -3.6498547   -2.4333528  0.070775952   -3.6498547     1.216502   520603 
  946000     1.028074   -3.6511563   -3.6511563   -2.4335117  0.062846301   -3.6511563    1.2176446   520603 
  947000    1.0288153   -3.6519614   -3.6519614   -2.4334388   0.07426591   -3.6519614    1.2185226   520603 
  948000    1.0274293   -3.6501375   -3.6501375   -2.4332565  0.079983752   -3.6501375     1.216881   520603 
  949000    1.0293022   -3.6524841   -3.6524841   -2.4333848    0.0661859   -3.6524841    1.2190992   520603 
  950000    1.0270734   -3.6498058   -3.6498058   -2.4333464  0.066827095   -3.6498058    1.2164594   520603 
  951000    1.0291505   -3.6512723   -3.6512723   -2.4323528  0.079048371   -3.6512723    1.2189196   520603 
  952000     1.028848   -3.6511057   -3.6511057   -2.4325444  0.074244663   -3.6511057    1.2185613   520603 
  953000    1.0282942   -3.6512508   -3.6512508   -2.4333454  0.052019723   -3.6512508    1.2179054   520603 
  954000    1.0273337   -3.6509559   -3.6509559   -2.4341882  0.073674164   -3.6509559    1.2167678   520603 
  955000    1.0273747   -3.6522635   -3.6522635   -2.4354471  0.071449496   -3.6522635    1.2168163   520603 
  956000      1.02688   -3.6515323   -3.6515323   -2.4353019  0.081733741   -3.6515323    1.2162304   520603 
  957000    1.0270392   -3.6517876   -3.6517876   -2.4353686  0.088367729   -3.6517876    1.2164189   520603 
  958000    1.0265432   -3.6519049   -3.6519049   -2.4360734  0.071089952   -3.6519049    1.2158315   520603 
  959000    1.0274338   -3.6525361   -3.6525361   -2.4356498  0.067522758   -3.6525361    1.2168862   520603 
  960000    1.0258682   -3.6508809   -3.6508809    -2.435849  0.068270491   -3.6508809     1.215032   520603 
  961000    1.0256461   -3.6514103   -3.6514103   -2.4366413  0.062601584   -3.6514103     1.214769   520603 
  962000    1.0243511   -3.6496687   -3.6496687   -2.4364335  0.072315445   -3.6496687    1.2132352   520603 
  963000    1.0269681   -3.6530077   -3.6530077   -2.4366729  0.066769657   -3.6530077    1.2163348   520603 
  964000    1.0282456   -3.6548459   -3.6548459   -2.4369981  0.060764992   -3.6548459    1.2178478   520603 
  965000    1.0283594   -3.6537424   -3.6537424   -2.4357598   0.06365857   -3.6537424    1.2179825   520603 
  966000    1.0279333    -3.653853    -3.653853   -2.4363751  0.069975726    -3.653853     1.217478   520603 
  967000     1.026852   -3.6520922   -3.6520922    -2.435895  0.067708077   -3.6520922    1.2161973   520603 
  968000    1.0274706   -3.6528641   -3.6528641   -2.4359343  0.068552386   -3.6528641    1.2169298   520603 
  969000    1.0289439   -3.6551549   -3.6551549     -2.43648  0.073831561   -3.6551549    1.2186748   520603 
  970000    1.0265654   -3.6527151   -3.6527151   -2.4368573  0.055966837   -3.6527151    1.2158578   520603 
  971000    1.0267893   -3.6526971   -3.6526971   -2.4365742  0.075120041   -3.6526971    1.2161229   520603 
  972000    1.0285369   -3.6546096   -3.6546096   -2.4364169  0.079136873   -3.6546096    1.2181928   520603 
  973000    1.0296525   -3.6559088   -3.6559088   -2.4363947  0.064290586   -3.6559088    1.2195142   520603 
  974000     1.029267   -3.6555768   -3.6555768   -2.4365193  0.062590971   -3.6555768    1.2190575   520603 
  975000    1.0266921    -3.652993    -3.652993   -2.4369852   0.07355238    -3.652993    1.2160078   520603 
  976000    1.0290013   -3.6563942   -3.6563942   -2.4376513  0.072504689   -3.6563942    1.2187429   520603 
  977000    1.0282475   -3.6570504   -3.6570504   -2.4392004  0.065621159   -3.6570504    1.2178501   520603 
  978000    1.0287288   -3.6580271   -3.6580271   -2.4396071  0.067023736   -3.6580271      1.21842   520603 
  979000    1.0271845   -3.6566426   -3.6566426   -2.4400515  0.077916452   -3.6566426     1.216591   520603 
  980000    1.0274944   -3.6559547   -3.6559547   -2.4389966  0.063940667   -3.6559547    1.2169581   520603 
  981000    1.0264175   -3.6550918   -3.6550918   -2.4394093  0.077905927   -3.6550918    1.2156826   520603 
  982000    1.0300691    -3.659242    -3.659242   -2.4392345  0.072615395    -3.659242    1.2200076   520603 
  983000     1.028123   -3.6569646   -3.6569646    -2.439262  0.074781876   -3.6569646    1.2177026   520603 
  984000    1.0299803   -3.6585518   -3.6585518   -2.4386494  0.080727157   -3.6585518    1.2199024   520603 
  985000    1.0290533   -3.6581332   -3.6581332   -2.4393288  0.072045951   -3.6581332    1.2188044   520603 
  986000    1.0282035   -3.6575606   -3.6575606   -2.4397627  0.070613422   -3.6575606    1.2177979   520603 
  987000    1.0295759   -3.6598665   -3.6598665   -2.4404431   0.06831314   -3.6598665    1.2194234   520603 
  988000    1.0289762   -3.6598977   -3.6598977   -2.4411846  0.074976816   -3.6598977    1.2187131   520603 
  989000    1.0276231   -3.6574732   -3.6574732   -2.4403627  0.094297301   -3.6574732    1.2171105   520603 
  990000    1.0290516   -3.6593943   -3.6593943   -2.4405919  0.066187066   -3.6593943    1.2188024   520603 
  991000    1.0281234   -3.6581752   -3.6581752   -2.4404722  0.079648768   -3.6581752     1.217703   520603 
  992000    1.0294179   -3.6596187   -3.6596187   -2.4403824  0.071361939   -3.6596187    1.2192363   520603 
  993000      1.02677   -3.6570702   -3.6570702   -2.4409702  0.069821215   -3.6570702       1.2161   520603 
  994000    1.0274213   -3.6582679   -3.6582679   -2.4413964  0.079472787   -3.6582679    1.2168715   520603 
  995000    1.0299509   -3.6616409   -3.6616409   -2.4417734  0.077370966   -3.6616409    1.2198675   520603 
  996000    1.0269982   -3.6583632   -3.6583632   -2.4419928  0.076894857   -3.6583632    1.2163703   520603 
  997000    1.0283651   -3.6586921   -3.6586921   -2.4407029  0.073944475   -3.6586921    1.2179893   520603 
  998000    1.0278411   -3.6582171   -3.6582171   -2.4408485  0.073196835   -3.6582171    1.2173687   520603 
  999000    1.0272897    -3.657433    -3.657433   -2.4407174  0.072912684    -3.657433    1.2167156   520603 
 1000000    1.0285905   -3.6584657   -3.6584657   -2.4402095   0.06766722   -3.6584657    1.2182562   520603 
 1001000    1.0264905   -3.6564368   -3.6564368   -2.4406678  0.062310423   -3.6564368     1.215769   520603 
 1002000    1.0276213   -3.6574863   -3.6574863   -2.4403779  0.061674898   -3.6574863    1.2171084   520603 
 1003000    1.0276307   -3.6575935   -3.6575935    -2.440474  0.072970895   -3.6575935    1.2171195   520603 
 1004000    1.0273273   -3.6584549   -3.6584549   -2.4416947  0.058781331   -3.6584549    1.2167602   520603 
 1005000    1.0294766   -3.6610588   -3.6610588   -2.4417531  0.078264493   -3.6610588    1.2193057   520603 
 1006000    1.0286327   -3.6608072   -3.6608072   -2.4425009  0.071439068   -3.6608072    1.2183063   520603 
 1007000    1.0271071   -3.6594898   -3.6594898   -2.4429904  0.071893425   -3.6594898    1.2164994   520603 
 1008000    1.0284025   -3.6601979   -3.6601979   -2.4421642  0.061716855   -3.6601979    1.2180337   520603 
 1009000    1.0289895   -3.6600081   -3.6600081   -2.4412793  0.070813227   -3.6600081    1.2187288   520603 
 1010000    1.0293585   -3.6613218   -3.6613218   -2.4421559  0.075808183   -3.6613218    1.2191659   520603 
 1011000    1.0294092   -3.6612174   -3.6612174   -2.4419915  0.071102983   -3.6612174    1.2192259   520603 
 1012000    1.0279727   -3.6597506   -3.6597506   -2.4422261  0.062815991   -3.6597506    1.2175245   520603 
 1013000    1.0296832   -3.6622438   -3.6622438   -2.4426933   0.07526833   -3.6622438    1.2195505   520603 
 1014000    1.0295009   -3.6623665   -3.6623665   -2.4430319  0.065049902   -3.6623665    1.2193346   520603 
 1015000    1.0276659   -3.6605446   -3.6605446   -2.4433834  0.053027624   -3.6605446    1.2171612   520603 
 1016000    1.0285047   -3.6615997   -3.6615997   -2.4434451  0.073352456   -3.6615997    1.2181546   520603 
 1017000    1.0274044   -3.6603043   -3.6603043   -2.4434528  0.073533636   -3.6603043    1.2168515   520603 
 1018000    1.0270137   -3.6607571   -3.6607571   -2.4443683  0.063860782   -3.6607571    1.2163888   520603 
 1019000    1.0262322   -3.6593531   -3.6593531     -2.44389  0.078117376   -3.6593531    1.2154631   520603 
 1020000    1.0272811   -3.6613043   -3.6613043   -2.4445988  0.063513243   -3.6613043    1.2167055   520603 
 1021000    1.0268448   -3.6604801   -3.6604801   -2.4442914   0.06205377   -3.6604801    1.2161887   520603 
 1022000    1.0257438   -3.6600223   -3.6600223   -2.4451377  0.073290804   -3.6600223    1.2148846   520603 
 1023000    1.0263607   -3.6614599   -3.6614599   -2.4458446  0.078675927   -3.6614599    1.2156153   520603 
 1024000    1.0249906   -3.6593508   -3.6593508   -2.4453582    0.0681251   -3.6593508    1.2139926   520603 
 1025000    1.0267298   -3.6623515   -3.6623515   -2.4462991  0.064592457   -3.6623515    1.2160525   520603 
 1026000    1.0258393   -3.6609971   -3.6609971   -2.4459992  0.069787475   -3.6609971    1.2149978   520603 
 1027000    1.0281096   -3.6638059   -3.6638059   -2.4461191  0.058131539   -3.6638059    1.2176868   520603 
 1028000    1.0272438   -3.6628727   -3.6628727   -2.4462114  0.061801368   -3.6628727    1.2166613   520603 
 1029000    1.0285535   -3.6644869   -3.6644869   -2.4462745  0.085404811   -3.6644869    1.2182124   520603 
 1030000    1.0282129   -3.6645604   -3.6645604   -2.4467514  0.077823177   -3.6645604     1.217809   520603 
 1031000    1.0268239   -3.6630433   -3.6630433   -2.4468793  0.075557456   -3.6630433     1.216164   520603 
 1032000    1.0267116   -3.6639947   -3.6639947   -2.4479638   0.07248858   -3.6639947    1.2160309   520603 
 1033000    1.0274642   -3.6644406   -3.6644406   -2.4475184  0.067685326   -3.6644406    1.2169223   520603 
 1034000    1.0263353   -3.6627862   -3.6627862   -2.4472009   0.06392509   -3.6627862    1.2155853   520603 
 1035000    1.0269557   -3.6634431   -3.6634431    -2.447123  0.064146501   -3.6634431    1.2163201   520603 
 1036000    1.0270857   -3.6646397   -3.6646397   -2.4481658  0.080267489   -3.6646397     1.216474   520603 
 1037000    1.0274905   -3.6653463   -3.6653463   -2.4483928  0.066744473   -3.6653463    1.2169535   520603 
 1038000    1.0256109   -3.6627654   -3.6627654   -2.4480381  0.078717206   -3.6627654    1.2147272   520603 
 1039000    1.0264008   -3.6642459   -3.6642459    -2.448583  0.068776667   -3.6642459    1.2156629   520603 
 1040000    1.0239664   -3.6623595   -3.6623595   -2.4495801   0.06594814   -3.6623595    1.2127795   520603 
 1041000    1.0262386   -3.6645301   -3.6645301   -2.4490594  0.060555114   -3.6645301    1.2154706   520603 
 1042000    1.0259535   -3.6653858   -3.6653858   -2.4502529  0.054389831   -3.6653858     1.215133   520603 
 1043000    1.0260427   -3.6646955   -3.6646955   -2.4494569  0.076024291   -3.6646955    1.2152387   520603 
 1044000    1.0255052    -3.663018    -3.663018   -2.4484159   0.07542907    -3.663018     1.214602   520603 
 1045000    1.0259186   -3.6645505   -3.6645505   -2.4494589  0.063112889   -3.6645505    1.2150916   520603 
 1046000    1.0253076    -3.664331    -3.664331   -2.4499629  0.052808624    -3.664331    1.2143681   520603 
 1047000    1.0251735    -3.664521    -3.664521   -2.4503119  0.058267089    -3.664521    1.2142092   520603 
 1048000     1.027505   -3.6668519   -3.6668519   -2.4498814  0.061932254   -3.6668519    1.2169706   520603 
 1049000    1.0269617   -3.6664077   -3.6664077   -2.4500806  0.061888491   -3.6664077    1.2163271   520603 
 1050000    1.0237405    -3.662896    -3.662896    -2.450384  0.067706173    -3.662896    1.2125119   520603 
 1051000    1.0277652   -3.6669772   -3.6669772   -2.4496984  0.071589985   -3.6669772    1.2172788   520603 
 1052000    1.0268655   -3.6670966   -3.6670966   -2.4508834  0.071525706   -3.6670966    1.2162132   520603 
 1053000    1.0257533    -3.665438    -3.665438   -2.4505421  0.059492398    -3.665438     1.214896   520603 
 1054000    1.0282027   -3.6688322   -3.6688322   -2.4510351  0.074225094   -3.6688322     1.217797   520603 
 1055000    1.0269555   -3.6670818   -3.6670818   -2.4507621  0.064063394   -3.6670818    1.2163198   520603 
 1056000    1.0269373   -3.6668891   -3.6668891   -2.4505908  0.075187658   -3.6668891    1.2162983   520603 
 1057000      1.02762   -3.6688022   -3.6688022   -2.4516953  0.076209812   -3.6688022    1.2171068   520603 
 1058000    1.0253474   -3.6663527   -3.6663527   -2.4519374  0.069329924   -3.6663527    1.2144152   520603 
 1059000    1.0247884    -3.665632    -3.665632   -2.4518789  0.054934873    -3.665632    1.2137531   520603 
 1060000    1.0254721   -3.6663476   -3.6663476   -2.4517848  0.055843491   -3.6663476    1.2145628   520603 
 1061000    1.0262289   -3.6670289   -3.6670289   -2.4515697  0.072658854   -3.6670289    1.2154592   520603 
 1062000    1.0254366   -3.6662105   -3.6662105   -2.4516896  0.061569954   -3.6662105    1.2145208   520603 
 1063000    1.0275228   -3.6685558   -3.6685558   -2.4515641  0.068920341   -3.6685558    1.2169917   520603 
 1064000    1.0254274    -3.666819    -3.666819   -2.4523091  0.073070088    -3.666819      1.21451   520603 
 1065000     1.025401   -3.6666362   -3.6666362   -2.4521575  0.069502852   -3.6666362    1.2144787   520603 
 1066000    1.0276944   -3.6698556   -3.6698556   -2.4526606  0.071287249   -3.6698556     1.217195   520603 
 1067000    1.0261756   -3.6682888   -3.6682888   -2.4528927  0.070091082   -3.6682888    1.2153961   520603 
 1068000     1.026363   -3.6685721   -3.6685721    -2.452954   0.07926388   -3.6685721     1.215618   520603 
 1069000    1.0259272   -3.6681139   -3.6681139   -2.4530121  0.080592998   -3.6681139    1.2151019   520603 
 1070000    1.0264934   -3.6680005   -3.6680005    -2.452228  0.080636005   -3.6680005    1.2157724   520603 
 1071000    1.0277408   -3.6699693   -3.6699693   -2.4527194  0.072568275   -3.6699693    1.2172499   520603 
 1072000    1.0275937   -3.6701964   -3.6701964   -2.4531208  0.087827544   -3.6701964    1.2170757   520603 
 1073000    1.0269079   -3.6703461   -3.6703461   -2.4540827  0.068126692   -3.6703461    1.2162634   520603 
 1074000    1.0277571   -3.6703278   -3.6703278   -2.4530585  0.064760757   -3.6703278    1.2172692   520603 
 1075000     1.026326   -3.6691166   -3.6691166   -2.4535424  0.063457942   -3.6691166    1.2155742   520603 
 1076000    1.0254015   -3.6683315   -3.6683315   -2.4538523  0.072031492   -3.6683315    1.2144792   520603 
 1077000    1.0271273   -3.6712544   -3.6712544   -2.4547311  0.056848173   -3.6712544    1.2165233   520603 
 1078000    1.0254505   -3.6694861   -3.6694861   -2.4549489   0.07351396   -3.6694861    1.2145372   520603 
 1079000     1.026397   -3.6713294   -3.6713294   -2.4556711  0.082733815   -3.6713294    1.2156583   520603 
 1080000    1.0258671    -3.670628    -3.670628   -2.4555973  0.070764217    -3.670628    1.2150307   520603 
 1081000    1.0256558   -3.6704026   -3.6704026   -2.4556222  0.075706646   -3.6704026    1.2147804   520603 
 1082000    1.0266937   -3.6706074   -3.6706074   -2.4545977   0.08029897   -3.6706074    1.2160097   520603 
 1083000    1.0264425   -3.6710653   -3.6710653   -2.4553532  0.062340923   -3.6710653    1.2157121   520603 
 1084000    1.0270532   -3.6712206   -3.6712206   -2.4547851  0.063798773   -3.6712206    1.2164355   520603 
 1085000    1.0267445   -3.6704641   -3.6704641   -2.4543942  0.072320957   -3.6704641    1.2160699   520603 
 1086000    1.0251346   -3.6690153   -3.6690153   -2.4548522  0.065855546   -3.6690153    1.2141631   520603 
 1087000    1.0256134   -3.6709531   -3.6709531    -2.456223  0.059966782   -3.6709531    1.2147302   520603 
 1088000    1.0258594   -3.6721332   -3.6721332   -2.4571116  0.059153647   -3.6721332    1.2150216   520603 
 1089000    1.0259298   -3.6708444   -3.6708444   -2.4557394  0.074945451   -3.6708444     1.215105   520603 
 1090000    1.0278267   -3.6731705   -3.6731705   -2.4558188  0.063793418   -3.6731705    1.2173517   520603 
 1091000    1.0272959   -3.6733033   -3.6733033   -2.4565804  0.062108609   -3.6733033     1.216723   520603 
 1092000    1.0273105   -3.6729535   -3.6729535   -2.4562132  0.061952479   -3.6729535    1.2167402   520603 
 1093000    1.0271245   -3.6721398   -3.6721398   -2.4556198  0.066573621   -3.6721398      1.21652   520603 
 1094000    1.0278115   -3.6723467   -3.6723467   -2.4550131  0.069506253   -3.6723467    1.2173336   520603 
 1095000    1.0285958   -3.6737438   -3.6737438   -2.4554813  0.072978893   -3.6737438    1.2182626   520603 
 1096000    1.0262788   -3.6715337   -3.6715337   -2.4560154  0.072365258   -3.6715337    1.2155183   520603 
 1097000    1.0267848   -3.6724466   -3.6724466    -2.456329  0.073959366   -3.6724466    1.2161176   520603 
 1098000    1.0256012   -3.6720079   -3.6720079    -2.457292   0.08078807   -3.6720079    1.2147158   520603 
 1099000    1.0262195   -3.6731344   -3.6731344   -2.4576863  0.065280038   -3.6731344    1.2154481   520603 
 1100000     1.025801   -3.6731299   -3.6731299   -2.4581775  0.066848638   -3.6731299    1.2149524   520603 
 1101000    1.0281133   -3.6753197   -3.6753197   -2.4576286  0.067158017   -3.6753197     1.217691   520603 
 1102000    1.0281708   -3.6751082   -3.6751082    -2.457349  0.063961979   -3.6751082    1.2177591   520603 
 1103000    1.0261077   -3.6724434   -3.6724434   -2.4571277  0.070453172   -3.6724434    1.2153157   520603 
 1104000    1.0251404   -3.6712429   -3.6712429    -2.457073  0.076380394   -3.6712429      1.21417   520603 
 1105000    1.0276065   -3.6741949   -3.6741949   -2.4571041  0.069857944   -3.6741949    1.2170909   520603 
 1106000    1.0262799   -3.6726541   -3.6726541   -2.4571345  0.065051286   -3.6726541    1.2155196   520603 
 1107000    1.0254696    -3.671933    -3.671933   -2.4573731  0.071957226    -3.671933    1.2145599   520603 
 1108000    1.0265988    -3.673173    -3.673173   -2.4572757  0.051360438    -3.673173    1.2158974   520603 
 1109000    1.0262618   -3.6738305   -3.6738305   -2.4583323  0.076612373   -3.6738305    1.2154982   520603 
 1110000    1.0261125   -3.6740915   -3.6740915   -2.4587701  0.070485682   -3.6740915    1.2153214   520603 
 1111000    1.0254614   -3.6731489   -3.6731489   -2.4585988   0.06335011   -3.6731489    1.2145502   520603 
 1112000    1.0257963   -3.6729536   -3.6729536   -2.4580068  0.073048429   -3.6729536    1.2149468   520603 
 1113000      1.02617   -3.6740928   -3.6740928   -2.4587034  0.057622938   -3.6740928    1.2153894   520603 
 1114000    1.0259911   -3.6738598   -3.6738598   -2.4586823  0.078203304   -3.6738598    1.2151775   520603 
 1115000    1.0253584    -3.673527    -3.673527   -2.4590987  0.067365966    -3.673527    1.2144283   520603 
 1116000    1.0264235   -3.6749925   -3.6749925   -2.4593028  0.076417138   -3.6749925    1.2156897   520603 
 1117000    1.0248242   -3.6731156   -3.6731156   -2.4593201  0.077452862   -3.6731156    1.2137954   520603 
 1118000    1.0273106   -3.6756338   -3.6756338   -2.4588934  0.063904449   -3.6756338    1.2167404   520603 
 1119000    1.0259532   -3.6729601   -3.6729601   -2.4578274  0.082128626   -3.6729601    1.2151327   520603 
 1120000    1.0260388   -3.6730358   -3.6730358   -2.4578018  0.077177885   -3.6730358     1.215234   520603 
 1121000    1.0268877   -3.6737688   -3.6737688   -2.4575293  0.061083728   -3.6737688    1.2162395   520603 
 1122000    1.0278155   -3.6748575   -3.6748575   -2.4575192  0.073780385   -3.6748575    1.2173384   520603 
 1123000    1.0270285   -3.6738696   -3.6738696   -2.4574633  0.076022669   -3.6738696    1.2164063   520603 
 1124000    1.0269549   -3.6730277   -3.6730277   -2.4567085  0.066122192   -3.6730277    1.2163191   520603 
 1125000    1.0259368   -3.6724939   -3.6724939   -2.4573806  0.065624498   -3.6724939    1.2151133   520603 
 1126000    1.0276401     -3.67408     -3.67408   -2.4569494  0.067550543     -3.67408    1.2171306   520603 
 1127000    1.0283898   -3.6749639   -3.6749639   -2.4569454  0.058388287   -3.6749639    1.2180186   520603 
 1128000    1.0267442   -3.6741909   -3.6741909   -2.4581214  0.070544159   -3.6741909    1.2160696   520603 
 1129000    1.0269798   -3.6747563   -3.6747563   -2.4584077  0.085230956   -3.6747563    1.2163486   520603 
 1130000    1.0270127   -3.6744246   -3.6744246   -2.4580371   0.07552293   -3.6744246    1.2163875   520603 
 1131000    1.0266018   -3.6738979   -3.6738979    -2.457997  0.071926465   -3.6738979    1.2159009   520603 
 1132000    1.0265948   -3.6746163   -3.6746163   -2.4587237  0.071146417   -3.6746163    1.2158926   520603 
 1133000     1.028339   -3.6767453   -3.6767453   -2.4587869  0.069483727   -3.6767453    1.2179584   520603 
 1134000    1.0267559   -3.6746583   -3.6746583   -2.4585748  0.081210584   -3.6746583    1.2160834   520603 
 1135000    1.0275007    -3.676221    -3.676221   -2.4592555  0.069007317    -3.676221    1.2169655   520603 
 1136000    1.0277853   -3.6765657   -3.6765657   -2.4592631  0.078307711   -3.6765657    1.2173026   520603 
 1137000    1.0258661   -3.6746647   -3.6746647   -2.4596352  0.048650142   -3.6746647    1.2150296   520603 
 1138000    1.0249451   -3.6747872   -3.6747872   -2.4608485  0.052324474   -3.6747872    1.2139387   520603 
 1139000    1.0261641   -3.6758843   -3.6758843   -2.4605018  0.068789229   -3.6758843    1.2153824   520603 
 1140000    1.0274016    -3.677374    -3.677374   -2.4605258  0.077265474    -3.677374    1.2168482   520603 
 1141000    1.0273827   -3.6777287   -3.6777287   -2.4609029  0.080644935   -3.6777287    1.2168258   520603 
 1142000    1.0263376   -3.6762355   -3.6762355   -2.4606475  0.072532604   -3.6762355     1.215588   520603 
 1143000    1.0287527   -3.6793367   -3.6793367   -2.4608882  0.068854354   -3.6793367    1.2184484   520603 
 1144000    1.0272246   -3.6766109   -3.6766109   -2.4599723   0.06288084   -3.6766109    1.2166386   520603 
 1145000    1.0269852   -3.6765548   -3.6765548   -2.4601998  0.082429283   -3.6765548     1.216355   520603 
 1146000    1.0246828   -3.6742311   -3.6742311    -2.460603   0.06656929   -3.6742311    1.2136281   520603 
 1147000     1.023958   -3.6741016   -3.6741016    -2.461332  0.087780742   -3.6741016    1.2127696   520603 
 1148000    1.0259258   -3.6757733   -3.6757733   -2.4606731  0.081242086   -3.6757733    1.2151002   520603 
 1149000    1.0264238   -3.6769854   -3.6769854   -2.4612954  0.068447799   -3.6769854      1.21569   520603 
 1150000    1.0261965   -3.6764312   -3.6764312   -2.4610103  0.081571493   -3.6764312    1.2154209   520603 
 1151000    1.0279589   -3.6778588   -3.6778588   -2.4603506  0.084344182   -3.6778588    1.2175082   520603 
 1152000    1.0267151   -3.6774934   -3.6774934   -2.4614584  0.075561903   -3.6774934     1.216035   520603 
 1153000    1.0281213   -3.6781061   -3.6781061   -2.4604056  0.076578554   -3.6781061    1.2177006   520603 
 1154000    1.0267575   -3.6752409   -3.6752409   -2.4591555    0.0630967   -3.6752409    1.2160853   520603 
 1155000    1.0278416   -3.6769936   -3.6769936   -2.4596243  0.085804918   -3.6769936    1.2173693   520603 
 1156000    1.0297796   -3.6786821   -3.6786821   -2.4590175  0.066971656   -3.6786821    1.2196646   520603 
 1157000    1.0289845   -3.6782443   -3.6782443   -2.4595214   0.07323093   -3.6782443    1.2187229   520603 
 1158000    1.0276306   -3.6770503   -3.6770503   -2.4599309  0.080366771   -3.6770503    1.2171194   520603 
 1159000    1.0281573   -3.6784799   -3.6784799   -2.4607366  0.065681998   -3.6784799    1.2177432   520603 
 1160000     1.026375   -3.6770607   -3.6770607   -2.4614284  0.065839735   -3.6770607    1.2156323   520603 
 1161000    1.0267809   -3.6783564   -3.6783564   -2.4622434  0.072399004   -3.6783564     1.216113   520603 
 1162000     1.029693   -3.6825056   -3.6825056   -2.4629435  0.075014079   -3.6825056     1.219562   520603 
 1163000    1.0265855   -3.6781697   -3.6781697    -2.462288  0.064119586   -3.6781697    1.2158816   520603 
 1164000    1.0262474   -3.6783367   -3.6783367   -2.4628556  0.071266767   -3.6783367    1.2154811   520603 
 1165000    1.0257488   -3.6770895   -3.6770895   -2.4621989  0.085690607   -3.6770895    1.2148906   520603 
 1166000     1.028846   -3.6807204   -3.6807204   -2.4621615  0.065144977   -3.6807204    1.2185589   520603 
 1167000     1.026444   -3.6786002   -3.6786002   -2.4628862  0.072506117   -3.6786002    1.2157139   520603 
 1168000     1.027213   -3.6791609   -3.6791609    -2.462536  0.072792149   -3.6791609    1.2166248   520603 
 1169000     1.026792   -3.6790548   -3.6790548   -2.4629287  0.063609159   -3.6790548    1.2161262   520603 
 1170000    1.0259831   -3.6781738   -3.6781738   -2.4630057  0.083498915   -3.6781738     1.215168   520603 
 1171000    1.0245171   -3.6761664   -3.6761664   -2.4627346  0.082851908   -3.6761664    1.2134318   520603 
 1172000    1.0245788   -3.6762121   -3.6762121   -2.4627072  0.074612508   -3.6762121    1.2135049   520603 
 1173000      1.02743   -3.6797013   -3.6797013   -2.4628195  0.067867626   -3.6797013    1.2168818   520603 
 1174000     1.027409   -3.6799435   -3.6799435   -2.4630865  0.069270662   -3.6799435    1.2168569   520603 
 1175000    1.0252677   -3.6774641   -3.6774641   -2.4631433  0.068537643   -3.6774641    1.2143208   520603 
 1176000    1.0272773    -3.679629    -3.679629   -2.4629281  0.068382631    -3.679629    1.2167009   520603 
 1177000    1.0263485   -3.6786885   -3.6786885   -2.4630876  0.071956175   -3.6786885    1.2156009   520603 
 1178000    1.0257743   -3.6781541   -3.6781541   -2.4632333  0.061944203   -3.6781541    1.2149208   520603 
 1179000    1.0274538   -3.6804691   -3.6804691   -2.4635591  0.061282249   -3.6804691      1.21691   520603 
 1180000    1.0259354   -3.6789195   -3.6789195    -2.463808  0.057392847   -3.6789195    1.2151115   520603 
 1181000    1.0248076   -3.6774627   -3.6774627   -2.4636868  0.053326963   -3.6774627    1.2137758   520603 
 1182000    1.0252136   -3.6778317   -3.6778317   -2.4635749  0.083305808   -3.6778317    1.2142567   520603 
 1183000    1.0266743   -3.6801321   -3.6801321   -2.4641453  0.069273698   -3.6801321    1.2159867   520603 
 1184000    1.0257668    -3.678224    -3.678224   -2.4633121  0.078471496    -3.678224    1.2149119   520603 
 1185000    1.0266444   -3.6794834   -3.6794834   -2.4635321  0.062455985   -3.6794834    1.2159513   520603 
 1186000    1.0273735   -3.6805348   -3.6805348     -2.46372  0.059670331   -3.6805348    1.2168148   520603 
 1187000    1.0261195   -3.6781507   -3.6781507   -2.4628211  0.058413778   -3.6781507    1.2153296   520603 
 1188000      1.02637   -3.6797461   -3.6797461   -2.4641198  0.070087606   -3.6797461    1.2156263   520603 
 1189000    1.0262543   -3.6806916   -3.6806916   -2.4652023  0.066765479   -3.6806916    1.2154893   520603 
 1190000    1.0251836    -3.678494    -3.678494   -2.4642729  0.082541313    -3.678494    1.2142211   520603 
 1191000    1.0269981   -3.6811704   -3.6811704   -2.4648001  0.085086315   -3.6811704    1.2163703   520603 
 1192000    1.0264953   -3.6808601   -3.6808601   -2.4650854  0.077459461   -3.6808601    1.2157747   520603 
 1193000    1.0262324   -3.6813716   -3.6813716   -2.4659082  0.071244283   -3.6813716    1.2154633   520603 
 1194000    1.0253124   -3.6812263   -3.6812263   -2.4668526  0.070645321   -3.6812263    1.2143737   520603 
 1195000    1.0243981    -3.680417    -3.680417   -2.4671262  0.059966932    -3.680417    1.2132908   520603 
 1196000      1.02463   -3.6807895   -3.6807895    -2.467224  0.068342969   -3.6807895    1.2135655   520603 
 1197000    1.0256968    -3.682372    -3.682372   -2.4675431  0.056808199    -3.682372     1.214829   520603 
 1198000    1.0257191   -3.6819887   -3.6819887   -2.4671334  0.069201498   -3.6819887    1.2148554   520603 
 1199000     1.026228   -3.6827337   -3.6827337   -2.4672756  0.058158827   -3.6827337    1.2154581   520603 
 1200000    1.0243306   -3.6814266   -3.6814266   -2.4682158   0.07024695   -3.6814266    1.2132108   520603 
 1201000    1.0258333   -3.6819923   -3.6819923   -2.4670016  0.077187837   -3.6819923    1.2149906   520603 
 1202000    1.0268484   -3.6830566   -3.6830566   -2.4668636  0.070097056   -3.6830566     1.216193   520603 
 1203000    1.0288524    -3.684815    -3.684815   -2.4662484  0.082669791    -3.684815    1.2185665   520603 
 1204000    1.0268393   -3.6838133   -3.6838133   -2.4676312  0.061297421   -3.6838133    1.2161821   520603 
 1205000    1.0270331   -3.6840773   -3.6840773   -2.4676656   0.06425524   -3.6840773    1.2164117   520603 
 1206000    1.0279842   -3.6855401   -3.6855401   -2.4680019  0.058438964   -3.6855401    1.2175382   520603 
 1207000    1.0277019   -3.6862792   -3.6862792   -2.4690754  0.062884011   -3.6862792    1.2172038   520603 
 1208000    1.0251196   -3.6829632   -3.6829632   -2.4688178  0.062856256   -3.6829632    1.2141454   520603 
 1209000    1.0253312   -3.6835778   -3.6835778   -2.4691817  0.067112248   -3.6835778     1.214396   520603 
 1210000    1.0248981    -3.683011    -3.683011    -2.469128   0.06406321    -3.683011     1.213883   520603 
 1211000     1.025921   -3.6834538   -3.6834538   -2.4683592  0.061375678   -3.6834538    1.2150946   520603 
 1212000    1.0252228   -3.6830447   -3.6830447    -2.468777  0.076577425   -3.6830447    1.2142677   520603 
 1213000     1.026066   -3.6842858   -3.6842858   -2.4690195  0.054378273   -3.6842858    1.2152663   520603 
 1214000    1.0267016   -3.6853997   -3.6853997   -2.4693807   0.07714891   -3.6853997     1.216019   520603 
 1215000    1.0262345   -3.6846447   -3.6846447   -2.4691788  0.075429017   -3.6846447    1.2154659   520603 
 1216000    1.0246809   -3.6828144   -3.6828144   -2.4691887  0.059312669   -3.6828144    1.2136258   520603 
 1217000    1.0260217   -3.6858563   -3.6858563   -2.4706425  0.085226987   -3.6858563    1.2152138   520603 
 1218000    1.0254197    -3.685583    -3.685583   -2.4710822  0.059309946    -3.685583    1.2145008   520603 
 1219000    1.0244798   -3.6845505   -3.6845505   -2.4711628  0.075425069   -3.6845505    1.2133876   520603 
 1220000     1.024161   -3.6834838   -3.6834838   -2.4704737  0.064696436   -3.6834838      1.21301   520603 
 1221000    1.0248097   -3.6843838   -3.6843838   -2.4706055  0.079173864   -3.6843838    1.2137783   520603 
 1222000    1.0254043   -3.6841209   -3.6841209   -2.4696384  0.076427835   -3.6841209    1.2144826   520603 
 1223000    1.0245655   -3.6828399   -3.6828399   -2.4693508   0.06562955   -3.6828399    1.2134891   520603 
 1224000    1.0247438   -3.6840342   -3.6840342   -2.4703339  0.053646776   -3.6840342    1.2137002   520603 
 1225000    1.0235975   -3.6825198   -3.6825198   -2.4701772  0.077299228   -3.6825198    1.2123426   520603 
 1226000     1.024067   -3.6835655   -3.6835655   -2.4706669  0.070883029   -3.6835655    1.2128986   520603 
 1227000    1.0260669   -3.6855469   -3.6855469   -2.4702796  0.071839894   -3.6855469    1.2152673   520603 
 1228000     1.025468   -3.6848383   -3.6848383   -2.4702802  0.071566504   -3.6848383     1.214558   520603 
 1229000    1.0253864   -3.6839929   -3.6839929   -2.4695315  0.063358789   -3.6839929    1.2144613   520603 
 1230000    1.0273764   -3.6860582   -3.6860582   -2.4692399  0.063100661   -3.6860582    1.2168183   520603 
 1231000    1.0266389   -3.6855359   -3.6855359   -2.4695911    0.0583846   -3.6855359    1.2159449   520603 
 1232000    1.0253338   -3.6837999   -3.6837999   -2.4694008  0.073518664   -3.6837999     1.214399   520603 
 1233000    1.0258916   -3.6849272   -3.6849272   -2.4698675  0.068953658   -3.6849272    1.2150597   520603 
 1234000    1.0266931   -3.6868794   -3.6868794   -2.4708704  0.075312767   -3.6868794     1.216009   520603 
 1235000    1.0281136   -3.6877063   -3.6877063   -2.4700149  0.072840494   -3.6877063    1.2176914   520603 
 1236000    1.0275131   -3.6875858   -3.6875858   -2.4706056  0.071212378   -3.6875858    1.2169802   520603 
 1237000    1.0265885   -3.6868339   -3.6868339   -2.4709488  0.077686652   -3.6868339    1.2158851   520603 
 1238000     1.027194   -3.6883564   -3.6883564   -2.4717542  0.066614955   -3.6883564    1.2166023   520603 
 1239000    1.0285791   -3.6893804   -3.6893804   -2.4711376  0.058849736   -3.6893804    1.2182428   520603 
 1240000    1.0258142   -3.6877524   -3.6877524   -2.4727844   0.08767881   -3.6877524     1.214968   520603 
 1241000    1.0268487   -3.6886009   -3.6886009   -2.4724076  0.079607995   -3.6886009    1.2161933   520603 
 1242000    1.0273835   -3.6891158   -3.6891158    -2.472289  0.082313468   -3.6891158    1.2168268   520603 
 1243000    1.0277387   -3.6894515   -3.6894515   -2.4722041  0.072142142   -3.6894515    1.2172474   520603 
 1244000    1.0258881   -3.6876159   -3.6876159   -2.4725604  0.085817086   -3.6876159    1.2150556   520603 
 1245000    1.0274175   -3.6898427   -3.6898427   -2.4729757  0.060729902   -3.6898427     1.216867   520603 
 1246000    1.0281408   -3.6891905   -3.6891905   -2.4714668  0.079476366   -3.6891905    1.2177237   520603 
 1247000    1.0251301   -3.6863834   -3.6863834   -2.4722255  0.069235901   -3.6863834    1.2141578   520603 
 1248000    1.0272562   -3.6886279   -3.6886279    -2.471952  0.092958955   -3.6886279    1.2166759   520603 
 1249000    1.0245521   -3.6861516   -3.6861516   -2.4726783  0.052626456   -3.6861516    1.2134732   520603 
 1250000    1.0262949   -3.6885891   -3.6885891   -2.4730517  0.072376161   -3.6885891    1.2155373   520603 
 1251000    1.0247297   -3.6870035   -3.6870035   -2.4733199  0.061761355   -3.6870035    1.2136836   520603 
 1252000    1.0257286   -3.6882697   -3.6882697   -2.4734031  0.056844879   -3.6882697    1.2148666   520603 
 1253000    1.0264062   -3.6891528   -3.6891528   -2.4734835  0.058656023   -3.6891528    1.2156693   520603 
 1254000    1.0260031   -3.6883261   -3.6883261   -2.4731343  0.078997691   -3.6883261    1.2151918   520603 
 1255000    1.0244373    -3.686156    -3.686156   -2.4728188  0.071992285    -3.686156    1.2133372   520603 
 1256000    1.0233605   -3.6855124   -3.6855124   -2.4734505   0.06980473   -3.6855124    1.2120619   520603 
 1257000    1.0239574   -3.6871352   -3.6871352   -2.4743663  0.088062191   -3.6871352    1.2127689   520603 
 1258000    1.0249276   -3.6881233   -3.6881233   -2.4742053  0.075604809   -3.6881233     1.213918   520603 
 1259000    1.0247142   -3.6874641   -3.6874641   -2.4737989  0.069891712   -3.6874641    1.2136653   520603 
 1260000    1.0259947   -3.6895821   -3.6895821   -2.4744004  0.069020172   -3.6895821    1.2151818   520603 
 1261000    1.0244416   -3.6888766   -3.6888766   -2.4755343  0.064333049   -3.6888766    1.2133423   520603 
 1262000    1.0251593    -3.688931    -3.688931   -2.4747386  0.081277792    -3.688931    1.2141924   520603 
 1263000    1.0249369   -3.6892076   -3.6892076   -2.4752786  0.073075432   -3.6892076     1.213929   520603 
 1264000    1.0275628   -3.6919361   -3.6919361   -2.4748971  0.079235357   -3.6919361     1.217039   520603 
 1265000    1.0267228   -3.6907553   -3.6907553   -2.4747111  0.075010651   -3.6907553    1.2160442   520603 
 1266000    1.0271444   -3.6912913   -3.6912913   -2.4747478   0.08949958   -3.6912913    1.2165435   520603 
 1267000    1.0261998   -3.6910051   -3.6910051   -2.4755804  0.082446698   -3.6910051    1.2154247   520603 
 1268000    1.0275295    -3.692596    -3.692596   -2.4755964  0.070231321    -3.692596    1.2169997   520603 
 1269000    1.0274331   -3.6926297   -3.6926297   -2.4757442  0.073396946   -3.6926297    1.2168855   520603 
 1270000     1.025913    -3.690838    -3.690838   -2.4757529  0.065386314    -3.690838    1.2150851   520603 
 1271000     1.025929   -3.6909349   -3.6909349   -2.4758308  0.083023823   -3.6909349    1.2151041   520603 
 1272000    1.0262674   -3.6916739   -3.6916739   -2.4761691  0.076042895   -3.6916739    1.2155048   520603 
 1273000    1.0286898    -3.695336    -3.695336   -2.4769621  0.068043287    -3.695336    1.2183739   520603 
 1274000    1.0270956   -3.6938813   -3.6938813   -2.4773955  0.072225011   -3.6938813    1.2164858   520603 
 1275000    1.0253176   -3.6920198   -3.6920198   -2.4776399  0.081586335   -3.6920198    1.2143799   520603 
 1276000    1.0258331   -3.6937138   -3.6937138   -2.4787234  0.071249779   -3.6937138    1.2149904   520603 
 1277000    1.0248889   -3.6926571   -3.6926571    -2.478785  0.074369872   -3.6926571    1.2138721   520603 
 1278000    1.0242845   -3.6919159   -3.6919159   -2.4787596  0.060888278   -3.6919159    1.2131563   520603 
 1279000    1.0229287   -3.6898252   -3.6898252   -2.4782747  0.080174456   -3.6898252    1.2115504   520603 
 1280000    1.0236884   -3.6908545   -3.6908545   -2.4784043   0.06402161   -3.6908545    1.2124502   520603 
 1281000    1.0253556    -3.692094    -3.692094   -2.4776691  0.071562637    -3.692094    1.2144249   520603 
 1282000    1.0245614   -3.6919318   -3.6919318   -2.4784476  0.087605252   -3.6919318    1.2134842   520603 
 1283000     1.025633    -3.692392    -3.692392   -2.4776385  0.080053122    -3.692392    1.2147534   520603 
 1284000    1.0261666   -3.6938087   -3.6938087   -2.4784234  0.053227593   -3.6938087    1.2153854   520603 
 1285000     1.025577   -3.6924163   -3.6924163   -2.4777291  0.071439027   -3.6924163    1.2146871   520603 
 1286000     1.027131   -3.6945786   -3.6945786   -2.4780509  0.073756152   -3.6945786    1.2165276   520603 
 1287000    1.0271322   -3.6945395   -3.6945395   -2.4780105  0.078352489   -3.6945395    1.2165291   520603 
 1288000    1.0267419   -3.6935575   -3.6935575   -2.4774907  0.086874663   -3.6935575    1.2160668   520603 
 1289000    1.0258299   -3.6928469   -3.6928469   -2.4778603  0.082608151   -3.6928469    1.2149867   520603 
 1290000    1.0278572   -3.6946769   -3.6946769   -2.4772892  0.068115841   -3.6946769    1.2173877   520603 
 1291000    1.0277464   -3.6950669   -3.6950669   -2.4778104  0.061312218   -3.6950669    1.2172565   520603 
 1292000    1.0286117   -3.6956942   -3.6956942   -2.4774129   0.08099433   -3.6956942    1.2182814   520603 
 1293000    1.0276605     -3.69582     -3.69582   -2.4786652  0.076610314     -3.69582    1.2171548   520603 
 1294000    1.0265108   -3.6946896   -3.6946896   -2.4788964  0.070811554   -3.6946896    1.2157932   520603 
 1295000    1.0259114   -3.6935229   -3.6935229   -2.4784397  0.064391873   -3.6935229    1.2150831   520603 
 1296000    1.0249759   -3.6926174   -3.6926174   -2.4786423  0.077047186   -3.6926174    1.2139752   520603 
 1297000    1.0244252   -3.6931024   -3.6931024   -2.4797795    0.0851701   -3.6931024    1.2133229   520603 
 1298000    1.0255764   -3.6946144   -3.6946144    -2.479928  0.073913157   -3.6946144    1.2146864   520603 
 1299000    1.0248331   -3.6941814   -3.6941814   -2.4803753   0.06335744   -3.6941814    1.2138061   520603 
 1300000    1.0236243   -3.6929833   -3.6929833   -2.4806089  0.072438057   -3.6929833    1.2123744   520603 
 1301000      1.02687   -3.6960735   -3.6960735    -2.479855  0.072755175   -3.6960735    1.2162186   520603 
 1302000    1.0280232   -3.6965319   -3.6965319   -2.4789475  0.079626374   -3.6965319    1.2175844   520603 
 1303000    1.0264619    -3.695782    -3.695782   -2.4800468  0.069008567    -3.695782    1.2157352   520603 
 1304000    1.0253059   -3.6940623   -3.6940623   -2.4796963   0.07673906   -3.6940623     1.214366   520603 
 1305000    1.0248018    -3.693441    -3.693441   -2.4796719  0.070187777    -3.693441     1.213769   520603 
 1306000    1.0245787   -3.6935109   -3.6935109   -2.4800061  0.071486295   -3.6935109    1.2135047   520603 
 1307000     1.023684   -3.6928156   -3.6928156   -2.4803706  0.065106299   -3.6928156     1.212445   520603 
 1308000    1.0241782   -3.6935529   -3.6935529   -2.4805225  0.076998059   -3.6935529    1.2130304   520603 
 1309000     1.026338   -3.6958073   -3.6958073   -2.4802189  0.074429544   -3.6958073    1.2155885   520603 
 1310000    1.0249517   -3.6941127   -3.6941127   -2.4801662  0.072944421   -3.6941127    1.2139465   520603 
 1311000    1.0255627   -3.6945726   -3.6945726   -2.4799024  0.077990064   -3.6945726    1.2146702   520603 
 1312000    1.0254165   -3.6957005   -3.6957005   -2.4812036  0.066307659   -3.6957005     1.214497   520603 
 1313000    1.0239495   -3.6952299   -3.6952299   -2.4824704  0.065825004   -3.6952299    1.2127595   520603 
 1314000    1.0237964   -3.6965418   -3.6965418   -2.4839636  0.061023471   -3.6965418    1.2125782   520603 
 1315000    1.0252063   -3.6977383   -3.6977383   -2.4834904  0.070487377   -3.6977383     1.214248   520603 
 1316000    1.0249222   -3.6968813   -3.6968813   -2.4829697   0.08116343   -3.6968813    1.2139116   520603 
 1317000    1.0251064   -3.6971715   -3.6971715   -2.4830419   0.06937784   -3.6971715    1.2141297   520603 
 1318000    1.0269321   -3.6985079   -3.6985079   -2.4822158  0.075020529   -3.6985079    1.2162921   520603 
 1319000    1.0243913   -3.6960701   -3.6960701   -2.4827874  0.065538223   -3.6960701    1.2132828   520603 
 1320000    1.0264128   -3.6986186   -3.6986186   -2.4829416  0.066282565   -3.6986186     1.215677   520603 
 1321000    1.0237839   -3.6961674   -3.6961674   -2.4836041   0.08190889   -3.6961674    1.2125634   520603 
 1322000    1.0260189   -3.6990871   -3.6990871   -2.4838765  0.080928962   -3.6990871    1.2152105   520603 
 1323000    1.0253878   -3.6982538   -3.6982538   -2.4837908  0.070780693   -3.6982538     1.214463   520603 
 1324000    1.0266006   -3.6999873   -3.6999873   -2.4840878  0.065298485   -3.6999873    1.2158995   520603 
 1325000    1.0270139    -3.701509    -3.701509     -2.48512  0.070404059    -3.701509     1.216389   520603 
 1326000    1.0250365   -3.6989247   -3.6989247   -2.4848778  0.087543229   -3.6989247     1.214047   520603 
 1327000    1.0256687   -3.7002855   -3.7002855   -2.4854898  0.070715934   -3.7002855    1.2147957   520603 
 1328000    1.0272177   -3.7021706   -3.7021706   -2.4855403  0.063453412   -3.7021706    1.2166303   520603 
 1329000    1.0263437   -3.7007069   -3.7007069   -2.4851117  0.065473933   -3.7007069    1.2155952   520603 
 1330000    1.0260691   -3.7004568   -3.7004568   -2.4851869  0.059277101   -3.7004568    1.2152699   520603 
 1331000    1.0253341    -3.699781    -3.699781   -2.4853816  0.070265322    -3.699781    1.2143994   520603 
 1332000    1.0244775   -3.7001334   -3.7001334   -2.4867486  0.069659511   -3.7001334    1.2133848   520603 
 1333000    1.0240292   -3.7001433   -3.7001433   -2.4872895  0.062358043   -3.7001433    1.2128539   520603 
 1334000    1.0259716   -3.7022022   -3.7022022   -2.4870477  0.080215563   -3.7022022    1.2151545   520603 
 1335000    1.0249552   -3.7009352   -3.7009352   -2.4869845  0.077556979   -3.7009352    1.2139506   520603 
 1336000    1.0236016   -3.6996543   -3.6996543   -2.4873069   0.08157119   -3.6996543    1.2123474   520603 
 1337000    1.0241995   -3.7004817   -3.7004817   -2.4874261  0.075048625   -3.7004817    1.2130556   520603 
 1338000    1.0236166   -3.6994496   -3.6994496   -2.4870844  0.071203127   -3.6994496    1.2123652   520603 
 1339000    1.0246251   -3.7010261   -3.7010261   -2.4874663  0.075772322   -3.7010261    1.2135597   520603 
 1340000    1.0243147   -3.7000063   -3.7000063   -2.4868143  0.062258249   -3.7000063     1.213192   520603 
 1341000    1.0250631   -3.7009957   -3.7009957   -2.4869172  0.083161486   -3.7009957    1.2140784   520603 
 1342000    1.0265853   -3.7017576   -3.7017576   -2.4858762  0.077353373   -3.7017576    1.2158813   520603 
 1343000    1.0268847   -3.7015632   -3.7015632   -2.4853273  0.067648796   -3.7015632    1.2162359   520603 
 1344000     1.024268   -3.6989017   -3.6989017   -2.4857649   0.07444214   -3.6989017    1.2131368   520603 
 1345000    1.0261956   -3.7010537   -3.7010537   -2.4856339  0.064185543   -3.7010537    1.2154198   520603 
 1346000    1.0255993   -3.7009565   -3.7009565   -2.4862429  0.083352399   -3.7009565    1.2147136   520603 
 1347000    1.0245228   -3.6990353   -3.6990353   -2.4855968  0.070155873   -3.6990353    1.2134385   520603 
 1348000     1.027156    -3.702041    -3.702041   -2.4854837  0.074208317    -3.702041    1.2165573   520603 
 1349000    1.0235335   -3.6991651   -3.6991651   -2.4868984  0.061985893   -3.6991651    1.2122667   520603 
 1350000    1.0244159   -3.7004992   -3.7004992   -2.4871873  0.066477193   -3.7004992    1.2133119   520603 
 1351000    1.0245895   -3.6997707   -3.6997707   -2.4862532    0.0690269   -3.6997707    1.2135175   520603 
 1352000    1.0250607     -3.70033     -3.70033   -2.4862544   0.07648563     -3.70033    1.2140756   520603 
 1353000    1.0239876   -3.6991037   -3.6991037   -2.4862991  0.079629078   -3.6991037    1.2128046   520603 
 1354000    1.0244188    -3.699043    -3.699043   -2.4857276  0.074983539    -3.699043    1.2133153   520603 
 1355000    1.0248113   -3.6989242   -3.6989242    -2.485144  0.072017407   -3.6989242    1.2137802   520603 
 1356000    1.0245147   -3.6985831   -3.6985831   -2.4851543  0.080036854   -3.6985831    1.2134289   520603 
 1357000    1.0243217   -3.6994655   -3.6994655   -2.4862652  0.056717015   -3.6994655    1.2132003   520603 
 1358000    1.0230405   -3.6978731   -3.6978731   -2.4861902  0.085592518   -3.6978731    1.2116829   520603 
 1359000    1.0246132   -3.6999145   -3.6999145    -2.486369  0.055390079   -3.6999145    1.2135455   520603 
 1360000    1.0245622   -3.7004022   -3.7004022    -2.486917  0.074518317   -3.7004022    1.2134852   520603 
 1361000    1.0237667   -3.6995366   -3.6995366   -2.4869936  0.083172373   -3.6995366     1.212543   520603 
 1362000    1.0245614   -3.7012462   -3.7012462   -2.4877619  0.080632553   -3.7012462    1.2134843   520603 
 1363000    1.0251314   -3.7020177   -3.7020177   -2.4878584   0.06701813   -3.7020177    1.2141593   520603 
 1364000    1.0244649   -3.7012586   -3.7012586   -2.4878887  0.085230293   -3.7012586      1.21337   520603 
 1365000    1.0245264   -3.7016281   -3.7016281   -2.4881853  0.073129858   -3.7016281    1.2134428   520603 
 1366000    1.0261601   -3.7031505   -3.7031505   -2.4877727    0.0596493   -3.7031505    1.2153778   520603 
 1367000    1.0244387   -3.7009588   -3.7009588   -2.4876199  0.068927606   -3.7009588    1.2133389   520603 
 1368000    1.0243892   -3.7005547   -3.7005547   -2.4872744  0.091462915   -3.7005547    1.2132803   520603 
 1369000    1.0262468   -3.7032936   -3.7032936   -2.4878132  0.062778049   -3.7032936    1.2154804   520603 
 1370000    1.0244126   -3.7018202   -3.7018202   -2.4885122  0.067169904   -3.7018202     1.213308   520603 
 1371000    1.0248002    -3.701372    -3.701372   -2.4876049  0.087958767    -3.701372    1.2137671   520603 
 1372000    1.0263553   -3.7027914   -3.7027914   -2.4871825  0.085056211   -3.7027914     1.215609   520603 
 1373000    1.0238982    -3.700485    -3.700485   -2.4877862  0.076726198    -3.700485    1.2126987   520603 
 1374000    1.0281027   -3.7051036   -3.7051036    -2.487425  0.068855731   -3.7051036    1.2176786   520603 
 1375000    1.0264407   -3.7033178   -3.7033178   -2.4876078  0.093247372   -3.7033178      1.21571   520603 
 1376000     1.025936   -3.7027993   -3.7027993    -2.487687  0.081032431   -3.7027993    1.2151123   520603 
 1377000     1.026584   -3.7038431   -3.7038431   -2.4879633  0.074963265   -3.7038431    1.2158798   520603 
 1378000     1.024861   -3.7017087   -3.7017087   -2.4878696    0.0740684   -3.7017087    1.2138391   520603 
 1379000    1.0244881   -3.7013796   -3.7013796   -2.4879821  0.076483156   -3.7013796    1.2133975   520603 
 1380000    1.0253776   -3.7015451   -3.7015451   -2.4870942  0.076566553   -3.7015451    1.2144509   520603 
 1381000    1.0272446   -3.7041743   -3.7041743   -2.4875121  0.078341504   -3.7041743    1.2166622   520603 
 1382000    1.0262784   -3.7031386   -3.7031386   -2.4876208   0.07382592   -3.7031386    1.2155178   520603 
 1383000    1.0264681    -3.702506    -3.702506   -2.4867634  0.068393345    -3.702506    1.2157426   520603 
 1384000    1.0254424    -3.701729    -3.701729   -2.4872013  0.071293645    -3.701729    1.2145276   520603 
 1385000    1.0268065   -3.7020999   -3.7020999   -2.4859565  0.079436623   -3.7020999    1.2161434   520603 
 1386000     1.026001   -3.7010588   -3.7010588   -2.4858695  0.064071919   -3.7010588    1.2151893   520603 
 1387000    1.0252314   -3.7004049   -3.7004049   -2.4861271  0.073418595   -3.7004049    1.2142778   520603 
 1388000     1.025492   -3.7005261   -3.7005261   -2.4859397  0.072261537   -3.7005261    1.2145864   520603 
 1389000     1.024487   -3.6994291   -3.6994291    -2.486033  0.069052039   -3.6994291    1.2133961   520603 
 1390000    1.0263357   -3.7012489   -3.7012489   -2.4856632  0.079160441   -3.7012489    1.2155858   520603 
 1391000    1.0243772   -3.7001593   -3.7001593   -2.4868932  0.073551444   -3.7001593    1.2132661   520603 
 1392000    1.0247946   -3.7009526   -3.7009526   -2.4871921  0.055988552   -3.7009526    1.2137605   520603 
 1393000    1.0235816   -3.6993107   -3.6993107   -2.4869869   0.07900757   -3.6993107    1.2123238   520603 
 1394000    1.0230179   -3.6985721   -3.6985721   -2.4869159  0.072160418   -3.6985721    1.2116562   520603 
 1395000     1.022874   -3.6988946   -3.6988946   -2.4874089  0.070408103   -3.6988946    1.2114857   520603 
 1396000    1.0232441   -3.6998177   -3.6998177   -2.4878936  0.063321472   -3.6998177    1.2119241   520603 
 1397000    1.0250438   -3.7018212   -3.7018212   -2.4877656  0.074392382   -3.7018212    1.2140556   520603 
 1398000    1.0248021    -3.702224    -3.702224   -2.4884546   0.06777164    -3.702224    1.2137693   520603 
 1399000    1.0242607   -3.7019864   -3.7019864   -2.4888584  0.068641197   -3.7019864    1.2131281   520603 
 1400000    1.0243006   -3.7011294   -3.7011294    -2.487954   0.07481862   -3.7011294    1.2131754   520603 
 1401000    1.0235818   -3.7009121   -3.7009121    -2.488588  0.076888166   -3.7009121     1.212324   520603 
 1402000    1.0239144   -3.7020265   -3.7020265   -2.4893086  0.079916237   -3.7020265    1.2127179   520603 
 1403000    1.0239768   -3.7023059   -3.7023059   -2.4895141  0.068314714   -3.7023059    1.2127918   520603 
 1404000    1.0233342   -3.7022317   -3.7022317    -2.490201  0.067824812   -3.7022317    1.2120308   520603 
 1405000     1.025758   -3.7053894   -3.7053894   -2.4904879  0.074626611   -3.7053894    1.2149015   520603 
 1406000    1.0275302   -3.7069878   -3.7069878   -2.4899873  0.060582228   -3.7069878    1.2170005   520603 
 1407000    1.0268604   -3.7062004   -3.7062004   -2.4899933  0.077053219   -3.7062004    1.2162072   520603 
 1408000    1.0266041   -3.7069296   -3.7069296   -2.4910259  0.094654589   -3.7069296    1.2159036   520603 
 1409000     1.025363   -3.7051866   -3.7051866    -2.490753  0.092012374   -3.7051866    1.2144336   520603 
 1410000    1.0263829    -3.706357    -3.706357   -2.4907154  0.067985296    -3.706357    1.2156416   520603 
 1411000    1.0269413   -3.7074306   -3.7074306   -2.4911276  0.081191033   -3.7074306    1.2163029   520603 
 1412000    1.0260204   -3.7070069   -3.7070069   -2.4917947  0.094013467   -3.7070069    1.2152123   520603 
 1413000    1.0272742   -3.7091641   -3.7091641   -2.4924669  0.082898204   -3.7091641    1.2166972   520603 
 1414000    1.0262883   -3.7090744   -3.7090744   -2.4935448  0.079715848   -3.7090744    1.2155296   520603 
 1415000     1.026223   -3.7083506   -3.7083506   -2.4928984  0.073834886   -3.7083506    1.2154522   520603 
 1416000    1.0272017   -3.7089218   -3.7089218   -2.4923105  0.076393017   -3.7089218    1.2166113   520603 
 1417000    1.0247569   -3.7062864   -3.7062864   -2.4925706  0.079982433   -3.7062864    1.2137158   520603 
 1418000    1.0264381   -3.7081798   -3.7081798   -2.4924728  0.080760789   -3.7081798    1.2157069   520603 
 1419000      1.02625   -3.7072298   -3.7072298   -2.4917457  0.071082518   -3.7072298    1.2154842   520603 
 1420000     1.025462   -3.7054609   -3.7054609   -2.4909101  0.075366098   -3.7054609    1.2145509   520603 
 1421000    1.0255806   -3.7070369   -3.7070369   -2.4923455  0.062401394   -3.7070369    1.2146914   520603 
 1422000    1.0238517   -3.7054675   -3.7054675   -2.4928238  0.064056754   -3.7054675    1.2126437   520603 
 1423000     1.024928   -3.7057341   -3.7057341   -2.4918157  0.059941904   -3.7057341    1.2139185   520603 
 1424000    1.0242299   -3.7049982   -3.7049982   -2.4919066  0.086756929   -3.7049982    1.2130916   520603 
 1425000    1.0220103   -3.7024118   -3.7024118   -2.4919491  0.078110262   -3.7024118    1.2104628   520603 
 1426000    1.0216019   -3.7031252   -3.7031252   -2.4931462  0.064038661   -3.7031252     1.209979   520603 
 1427000    1.0214915    -3.702613    -3.702613   -2.4927647  0.058557249    -3.702613    1.2098483   520603 
 1428000    1.0208237     -3.70209     -3.70209   -2.4930327  0.083748112     -3.70209    1.2090573   520603 
 1429000     1.020821   -3.7018173   -3.7018173   -2.4927632  0.067596268   -3.7018173    1.2090541   520603 
 1430000     1.021974   -3.7024302   -3.7024302   -2.4920104  0.074769411   -3.7024302    1.2104197   520603 
 1431000    1.0236254   -3.7038578   -3.7038578   -2.4914822  0.071505236   -3.7038578    1.2123756   520603 
 1432000    1.0236834   -3.7038711   -3.7038711   -2.4914267  0.064335314   -3.7038711    1.2124443   520603 
 1433000    1.0233431   -3.7040804   -3.7040804   -2.4920391  0.072340627   -3.7040804    1.2120413   520603 
 1434000     1.023196   -3.7044852   -3.7044852   -2.4926181  0.067919155   -3.7044852     1.211867   520603 
 1435000     1.022179    -3.704229    -3.704229   -2.4935664  0.072360284    -3.704229    1.2106626   520603 
 1436000    1.0243234   -3.7060416   -3.7060416   -2.4928393  0.090097821   -3.7060416    1.2132023   520603 
 1437000    1.0230027   -3.7046188   -3.7046188   -2.4929806  0.078316259   -3.7046188    1.2116382   520603 
 1438000    1.0232838    -3.705488    -3.705488    -2.493517  0.063591618    -3.705488     1.211971   520603 
 1439000    1.0238881    -3.705573    -3.705573   -2.4928862  0.089243121    -3.705573    1.2126868   520603 
 1440000    1.0233892   -3.7053688   -3.7053688    -2.493273  0.085452107   -3.7053688    1.2120958   520603 
 1441000    1.0259492   -3.7077669   -3.7077669   -2.4926391  0.086985116   -3.7077669    1.2151279   520603 
 1442000     1.025744   -3.7076381   -3.7076381   -2.4927532  0.080145713   -3.7076381     1.214885   520603 
 1443000     1.026979   -3.7092511   -3.7092511   -2.4929036  0.076903092   -3.7092511    1.2163476   520603 
 1444000    1.0248715   -3.7067556   -3.7067556    -2.492904  0.069704737   -3.7067556    1.2138515   520603 
 1445000    1.0257508   -3.7083631   -3.7083631   -2.4934702  0.073756531   -3.7083631    1.2148929   520603 
 1446000    1.0263796   -3.7087899   -3.7087899   -2.4931522  0.075577337   -3.7087899    1.2156377   520603 
 1447000    1.0239179   -3.7062687   -3.7062687   -2.4935467  0.077266883   -3.7062687    1.2127221   520603 
 1448000    1.0231639   -3.7058576   -3.7058576   -2.4940286  0.075302343   -3.7058576     1.211829   520603 
 1449000    1.0237306   -3.7052141   -3.7052141   -2.4927138   0.07740813   -3.7052141    1.2125003   520603 
 1450000    1.0264274   -3.7077139   -3.7077139   -2.4920196  0.074892984   -3.7077139    1.2156943   520603 
 1451000    1.0252758   -3.7080537   -3.7080537   -2.4937233  0.062290722   -3.7080537    1.2143303   520603 
 1452000    1.0248041   -3.7080151   -3.7080151   -2.4942434  0.082952943   -3.7080151    1.2137717   520603 
 1453000    1.0235743   -3.7059277   -3.7059277   -2.4936126  0.064160373   -3.7059277    1.2123151   520603 
 1454000    1.0241391   -3.7075443   -3.7075443   -2.4945602  0.084400202   -3.7075443    1.2129841   520603 
 1455000    1.0234679   -3.7071088   -3.7071088   -2.4949197  0.074178738   -3.7071088    1.2121891   520603 
 1456000    1.0229977    -3.706439    -3.706439   -2.4948068   0.07118813    -3.706439    1.2116322   520603 
 1457000    1.0206205   -3.7039339   -3.7039339   -2.4951172  0.073897785   -3.7039339    1.2088167   520603 
 1458000     1.023498    -3.706636    -3.706636   -2.4944113   0.07524344    -3.706636    1.2122248   520603 
 1459000       1.0226   -3.7057169   -3.7057169   -2.4945557   0.06905159   -3.7057169    1.2111612   520603 
 1460000     1.020861   -3.7039371   -3.7039371   -2.4948355  0.069256647   -3.7039371    1.2091015   520603 
 1461000    1.0211207   -3.7041673   -3.7041673   -2.4947581  0.069796476   -3.7041673    1.2094091   520603 
 1462000    1.0228797   -3.7064434   -3.7064434    -2.494951  0.066855952   -3.7064434    1.2114924   520603 
 1463000    1.0226485   -3.7050128   -3.7050128   -2.4937942  0.067674907   -3.7050128    1.2112186   520603 
 1464000    1.0243614   -3.7069848   -3.7069848   -2.4937375  0.075923135   -3.7069848    1.2132473   520603 
 1465000    1.0231535   -3.7051711   -3.7051711   -2.4933544  0.066468619   -3.7051711    1.2118167   520603 
 1466000    1.0233283    -3.705856    -3.705856   -2.4938323  0.083921286    -3.705856    1.2120237   520603 
 1467000    1.0240361   -3.7071363   -3.7071363   -2.4942743  0.048081528   -3.7071363     1.212862   520603 
 1468000    1.0248736   -3.7083133   -3.7083133   -2.4944593  0.082079474   -3.7083133     1.213854   520603 
 1469000    1.0223696   -3.7052728   -3.7052728   -2.4943846  0.069209999   -3.7052728    1.2108883   520603 
 1470000    1.0220015   -3.7053718   -3.7053718   -2.4949196  0.059126149   -3.7053718    1.2104523   520603 
 1471000    1.0230389   -3.7062146   -3.7062146   -2.4945336  0.069030746   -3.7062146     1.211681   520603 
 1472000    1.0226177   -3.7055151   -3.7055151    -2.494333  0.077439415   -3.7055151    1.2111821   520603 
 1473000    1.0218907   -3.7057508   -3.7057508   -2.4954297  0.081882806   -3.7057508    1.2103211   520603 
 1474000    1.0203961   -3.7038051   -3.7038051   -2.4952541  0.071921881   -3.7038051    1.2085509   520603 
 1475000    1.0231887   -3.7064012   -3.7064012   -2.4945427  0.074029207   -3.7064012    1.2118584   520603 
 1476000    1.0224563   -3.7052603   -3.7052603   -2.4942693  0.069401754   -3.7052603     1.210991   520603 
 1477000    1.0240916   -3.7081575   -3.7081575   -2.4952297  0.077453402   -3.7081575    1.2129278   520603 
 1478000    1.0239638   -3.7082226   -3.7082226   -2.4954462  0.067468413   -3.7082226    1.2127764   520603 
 1479000    1.0227819   -3.7070846   -3.7070846    -2.495708  0.065670133   -3.7070846    1.2113767   520603 
 1480000    1.0225398   -3.7070269   -3.7070269   -2.4959371  0.064789348   -3.7070269    1.2110898   520603 
 1481000    1.0236058   -3.7075591   -3.7075591   -2.4952067   0.07647879   -3.7075591    1.2123524   520603 
 1482000    1.0246315   -3.7094642   -3.7094642   -2.4958969  0.059316805   -3.7094642    1.2135673   520603 
 1483000    1.0232488   -3.7080204   -3.7080204   -2.4960908  0.065326353   -3.7080204    1.2119296   520603 
 1484000    1.0248066   -3.7099067   -3.7099067    -2.496132  0.066294817   -3.7099067    1.2137747   520603 
 1485000     1.024644   -3.7104081   -3.7104081    -2.496826   0.08483822   -3.7104081     1.213582   520603 
 1486000    1.0216028   -3.7073905   -3.7073905   -2.4974105  0.069314079   -3.7073905    1.2099801   520603 
 1487000    1.0241032   -3.7102118   -3.7102118   -2.4972702  0.065030708   -3.7102118    1.2129416   520603 
 1488000    1.0229189    -3.709132    -3.709132   -2.4975931   0.06888488    -3.709132    1.2115389   520603 
 1489000    1.0210414   -3.7075868   -3.7075868   -2.4982716  0.088854254   -3.7075868    1.2093152   520603 
 1490000    1.0206508   -3.7078432   -3.7078432   -2.4989907  0.073460136   -3.7078432    1.2088525   520603 
 1491000    1.0214748    -3.708897    -3.708897   -2.4990685  0.074022109    -3.708897    1.2098284   520603 
 1492000    1.0207227   -3.7078318   -3.7078318   -2.4988941  0.070691673   -3.7078318    1.2089377   520603 
 1493000    1.0221204   -3.7096232   -3.7096232   -2.4990301  0.058301003   -3.7096232    1.2105931   520603 
 1494000    1.0228321   -3.7097924   -3.7097924   -2.4983562  0.066823974   -3.7097924    1.2114361   520603 
 1495000    1.0206745   -3.7075641   -3.7075641   -2.4986835  0.068986184   -3.7075641    1.2088806   520603 
 1496000    1.0228805   -3.7101259   -3.7101259   -2.4986325  0.063466997   -3.7101259    1.2114934   520603 
 1497000    1.0221706   -3.7096559   -3.7096559   -2.4990034  0.067084259   -3.7096559    1.2106525   520603 
 1498000    1.0212662   -3.7083677   -3.7083677   -2.4987862  0.071966596   -3.7083677    1.2095815   520603 
 1499000    1.0213967   -3.7081312   -3.7081312   -2.4983953  0.060852247   -3.7081312    1.2097359   520603 
 1500000     1.020539   -3.7069328   -3.7069328   -2.4982127  0.074830462   -3.7069328    1.2087201   520603 
 1501000     1.021478   -3.7074787   -3.7074787   -2.4976464  0.062773544   -3.7074787    1.2098323   520603 
 1502000    1.0216549   -3.7079028   -3.7079028   -2.4978611  0.065710524   -3.7079028    1.2100417   520603 
 1503000    1.0228459   -3.7094538   -3.7094538   -2.4980014  0.065305838   -3.7094538    1.2114524   520603 
 1504000     1.021474   -3.7069889   -3.7069889   -2.4971614  0.065202158   -3.7069889    1.2098275   520603 
 1505000    1.0212674    -3.708173    -3.708173   -2.4985901  0.086582465    -3.708173    1.2095828   520603 
 1506000    1.0232019   -3.7103649   -3.7103649   -2.4984908  0.076963646   -3.7103649    1.2118741   520603 
 1507000    1.0221866    -3.709231    -3.709231   -2.4985594  0.078116592    -3.709231    1.2106716   520603 
 1508000    1.0236475   -3.7102386   -3.7102386   -2.4978368  0.079253038   -3.7102386    1.2124018   520603 
 1509000    1.0250318   -3.7116178   -3.7116178   -2.4975764  0.070293061   -3.7116178    1.2140414   520603 
 1510000    1.0232034   -3.7090648   -3.7090648   -2.4971891   0.06875119   -3.7090648    1.2118758   520603 
 1511000    1.0229925   -3.7099174   -3.7099174   -2.4982914  0.062357251   -3.7099174     1.211626   520603 
 1512000    1.0247018   -3.7112794   -3.7112794   -2.4976289  0.070279065   -3.7112794    1.2136505   520603 
 1513000     1.023144    -3.709257    -3.709257   -2.4974515  0.071572691    -3.709257    1.2118055   520603 
 1514000    1.0236012     -3.70987     -3.70987   -2.4975229  0.080071394     -3.70987     1.212347   520603 
 1515000    1.0246683   -3.7104875   -3.7104875   -2.4968766  0.063542869   -3.7104875    1.2136109   520603 
 1516000    1.0243709   -3.7105245   -3.7105245   -2.4972659  0.067581923   -3.7105245    1.2132586   520603 
 1517000    1.0241446    -3.710649    -3.710649   -2.4976584   0.07642005    -3.710649    1.2129906   520603 
 1518000    1.0235433   -3.7108058   -3.7108058   -2.4985274  0.076992958   -3.7108058    1.2122784   520603 
 1519000    1.0225808   -3.7105884   -3.7105884   -2.4994499  0.082026515   -3.7105884    1.2111385   520603 
 1520000     1.023334   -3.7107881   -3.7107881   -2.4987576  0.079266029   -3.7107881    1.2120305   520603 
 1521000    1.0245562   -3.7124023   -3.7124023   -2.4989242  0.070219669   -3.7124023    1.2134781   520603 
 1522000    1.0221451    -3.709538    -3.709538   -2.4989156  0.077352381    -3.709538    1.2106224   520603 
 1523000     1.022346   -3.7090118   -3.7090118   -2.4981515  0.071836523   -3.7090118    1.2108603   520603 
 1524000    1.0208166   -3.7075181   -3.7075181   -2.4984692  0.079150344   -3.7075181    1.2090489   520603 
 1525000    1.0215866   -3.7085333   -3.7085333   -2.4985723  0.056279049   -3.7085333    1.2099609   520603 
 1526000    1.0216005   -3.7088024   -3.7088024   -2.4988251  0.072071842   -3.7088024    1.2099774   520603 
 1527000    1.0200002   -3.7069166   -3.7069166   -2.4988346  0.068461766   -3.7069166     1.208082   520603 
 1528000    1.0220657   -3.7091827   -3.7091827   -2.4986543  0.068723006   -3.7091827    1.2105284   520603 
 1529000    1.0194135   -3.7065921   -3.7065921    -2.499205  0.074331785   -3.7065921    1.2073871   520603 
 1530000    1.0206712     -3.70694     -3.70694   -2.4980632    0.0779067     -3.70694    1.2088768   520603 
 1531000    1.0215872   -3.7087431   -3.7087431   -2.4987814  0.086621786   -3.7087431    1.2099617   520603 
 1532000    1.0221067   -3.7088691   -3.7088691   -2.4982922  0.066590076   -3.7088691    1.2105769   520603 
 1533000    1.0213435   -3.7079897   -3.7079897   -2.4983167  0.072890997   -3.7079897     1.209673   520603 
 1534000    1.0209676   -3.7073724   -3.7073724   -2.4981447  0.071956127   -3.7073724    1.2092278   520603 
 1535000    1.0215426   -3.7077006   -3.7077006   -2.4977917   0.07393662   -3.7077006    1.2099088   520603 
 1536000    1.0219693    -3.708069    -3.708069   -2.4976547  0.064857912    -3.708069    1.2104142   520603 
 1537000    1.0221616   -3.7081336   -3.7081336   -2.4974917  0.076866044   -3.7081336    1.2106419   520603 
 1538000    1.0237376   -3.7096378   -3.7096378   -2.4971293  0.074022742   -3.7096378    1.2125085   520603 
 1539000    1.0217826   -3.7080892   -3.7080892   -2.4978961  0.068993524   -3.7080892    1.2101931   520603 
 1540000    1.0224688   -3.7098368   -3.7098368    -2.498831  0.072788598   -3.7098368    1.2110058   520603 
 1541000     1.022929   -3.7109958   -3.7109958    -2.499445  0.076952022   -3.7109958    1.2115508   520603 
 1542000    1.0208702   -3.7083682   -3.7083682   -2.4992558  0.086676275   -3.7083682    1.2091124   520603 
 1543000    1.0224599   -3.7102239   -3.7102239   -2.4992287  0.078686322   -3.7102239    1.2109952   520603 
 1544000    1.0234852    -3.711493    -3.711493   -2.4992834  0.071695398    -3.711493    1.2122095   520603 
 1545000    1.0238397   -3.7111061   -3.7111061   -2.4984766  0.074203521   -3.7111061    1.2126294   520603 
 1546000    1.0230308   -3.7105055   -3.7105055   -2.4988341  0.084968628   -3.7105055    1.2116714   520603 
 1547000    1.0226936   -3.7096897   -3.7096897   -2.4984177  0.080855316   -3.7096897     1.211272   520603 
 1548000    1.0228578   -3.7100657   -3.7100657   -2.4985992  0.079022405   -3.7100657    1.2114665   520603 
 1549000     1.022605   -3.7099796   -3.7099796   -2.4988125  0.081442833   -3.7099796    1.2111671   520603 
 1550000    1.0237907   -3.7115835   -3.7115835   -2.4990121  0.052212687   -3.7115835    1.2125715   520603 
 1551000    1.0238472   -3.7115996   -3.7115996   -2.4989613  0.068028525   -3.7115996    1.2126383   520603 
 1552000    1.0245625   -3.7123501   -3.7123501   -2.4988645  0.067932283   -3.7123501    1.2134856   520603 
 1553000    1.0214795    -3.709979    -3.709979   -2.5001449  0.068778228    -3.709979    1.2098341   520603 
 1554000    1.0222827   -3.7113548   -3.7113548   -2.5005694  0.081635755   -3.7113548    1.2107854   520603 
 1555000    1.0216512   -3.7111056   -3.7111056   -2.5010681  0.063737625   -3.7111056    1.2100374   520603 
 1556000    1.0218789   -3.7109906   -3.7109906   -2.5006835  0.073140166   -3.7109906    1.2103071   520603 
 1557000     1.021912   -3.7125728   -3.7125728   -2.5022265  0.076309925   -3.7125728    1.2103463   520603 
 1558000    1.0209606   -3.7118552   -3.7118552   -2.5026357  0.077168931   -3.7118552    1.2092195   520603 
 1559000    1.0225133   -3.7138069   -3.7138069   -2.5027484  0.073142111   -3.7138069    1.2110585   520603 
 1560000    1.0205483   -3.7112119   -3.7112119   -2.5024807  0.081320744   -3.7112119    1.2087312   520603 
 1561000    1.0221429   -3.7126845   -3.7126845   -2.5020647  0.078778405   -3.7126845    1.2106198   520603 
 1562000    1.0222843   -3.7127668   -3.7127668   -2.5019795   0.06960958   -3.7127668    1.2107873   520603 
 1563000    1.0207551   -3.7122359   -3.7122359   -2.5032598  0.068987212   -3.7122359    1.2089761   520603 
 1564000    1.0220468   -3.7133917   -3.7133917   -2.5028858  0.075539906   -3.7133917    1.2105059   520603 
 1565000    1.0217007    -3.712174    -3.712174    -2.502078  0.075152829    -3.712174     1.210096   520603 
 1566000    1.0227634   -3.7138696   -3.7138696   -2.5025149  0.072739269   -3.7138696    1.2113547   520603 
 1567000    1.0223466   -3.7135771   -3.7135771    -2.502716  0.082532932   -3.7135771    1.2108611   520603 
 1568000    1.0227943   -3.7147125   -3.7147125   -2.5033212  0.061187451   -3.7147125    1.2113913   520603 
 1569000    1.0229467   -3.7148731   -3.7148731   -2.5033013   0.07932025   -3.7148731    1.2115718   520603 
 1570000    1.0222055   -3.7136673   -3.7136673   -2.5029734  0.085385036   -3.7136673    1.2106939   520603 
 1571000    1.0245647   -3.7156484   -3.7156484   -2.5021602  0.070396376   -3.7156484    1.2134881   520603 
 1572000     1.023891   -3.7157256   -3.7157256   -2.5030353  0.073339901   -3.7157256    1.2126902   520603 
 1573000    1.0224455   -3.7129209   -3.7129209   -2.5019428  0.074920778   -3.7129209    1.2109782   520603 
 1574000     1.023464   -3.7154273   -3.7154273   -2.5032429  0.069170696   -3.7154273    1.2121845   520603 
 1575000    1.0215722   -3.7124649   -3.7124649    -2.502521  0.081666703   -3.7124649    1.2099439   520603 
 1576000    1.0201074   -3.7111754   -3.7111754   -2.5029665  0.083289461   -3.7111754    1.2082089   520603 
 1577000    1.0209002   -3.7132073   -3.7132073   -2.5040594  0.071350534   -3.7132073    1.2091479   520603 
 1578000    1.0207195   -3.7134266   -3.7134266   -2.5044927   0.06925238   -3.7134266    1.2089339   520603 
 1579000    1.0216343   -3.7137854   -3.7137854   -2.5037681  0.074632205   -3.7137854    1.2100174   520603 
 1580000    1.0211968   -3.7135894   -3.7135894   -2.5040901  0.067924291   -3.7135894    1.2094993   520603 
 1581000    1.0210071   -3.7138293   -3.7138293   -2.5045547  0.080884911   -3.7138293    1.2092746   520603 
 1582000    1.0218255     -3.71508     -3.71508   -2.5048361  0.064931816     -3.71508    1.2102439   520603 
 1583000    1.0210666   -3.7136131   -3.7136131    -2.504268  0.070732296   -3.7136131    1.2093451   520603 
 1584000    1.0211632   -3.7136458   -3.7136458   -2.5041864  0.076339428   -3.7136458    1.2094595   520603 
 1585000    1.0221154   -3.7141531   -3.7141531   -2.5035659  0.070407567   -3.7141531    1.2105872   520603 
 1586000    1.0217837   -3.7147718   -3.7147718   -2.5045774  0.078037319   -3.7147718    1.2101944   520603 
 1587000    1.0204921   -3.7132084   -3.7132084   -2.5045438  0.074985756   -3.7132084    1.2086646   520603 
 1588000    1.0208731    -3.713366    -3.713366   -2.5042502  0.065760738    -3.713366    1.2091158   520603 
 1589000    1.0206213   -3.7133026   -3.7133026    -2.504485  0.082438671   -3.7133026    1.2088176   520603 
 1590000    1.0216414   -3.7135978   -3.7135978    -2.503572  0.077552222   -3.7135978    1.2100258   520603 
 1591000    1.0210819   -3.7138782   -3.7138782   -2.5045151  0.071510039   -3.7138782    1.2093631   520603 
 1592000    1.0217147   -3.7146845   -3.7146845   -2.5045719  0.062837418   -3.7146845    1.2101126   520603 
 1593000    1.0207639   -3.7139577   -3.7139577   -2.5049712  0.070249456   -3.7139577    1.2089865   520603 
 1594000    1.0195238   -3.7127551   -3.7127551   -2.5052373  0.071046882   -3.7127551    1.2075178   520603 
 1595000    1.0212906   -3.7140738   -3.7140738   -2.5044635  0.070033173   -3.7140738    1.2096103   520603 
 1596000    1.0211407   -3.7141108   -3.7141108    -2.504678  0.070950829   -3.7141108    1.2094328   520603 
 1597000    1.0194887   -3.7114909   -3.7114909   -2.5040147   0.08339529   -3.7114909    1.2074762   520603 
 1598000    1.0229416   -3.7161723   -3.7161723   -2.5046066  0.076758806   -3.7161723    1.2115657   520603 
 1599000    1.0225984   -3.7159896   -3.7159896   -2.5048303  0.068988621   -3.7159896    1.2111593   520603 
 1600000    1.0228977   -3.7169775   -3.7169775   -2.5054638  0.071926122   -3.7169775    1.2115137   520603 
 1601000    1.0214999   -3.7155394   -3.7155394   -2.5056812  0.078057172   -3.7155394    1.2098582   520603 
 1602000    1.0217294   -3.7162745   -3.7162745   -2.5061445  0.079320315   -3.7162745      1.21013   520603 
 1603000    1.0213027   -3.7166493   -3.7166493   -2.5070247  0.070247438   -3.7166493    1.2096246   520603 
 1604000    1.0194922   -3.7137772   -3.7137772   -2.5062969   0.07894984   -3.7137772    1.2074803   520603 
 1605000    1.0216718   -3.7169677   -3.7169677   -2.5069059  0.083680625   -3.7169677    1.2100618   520603 
 1606000    1.0227769   -3.7177311   -3.7177311   -2.5063605  0.082584387   -3.7177311    1.2113707   520603 
 1607000    1.0204021   -3.7153808   -3.7153808   -2.5068229  0.055944517   -3.7153808     1.208558   520603 
 1608000    1.0223013   -3.7171502   -3.7171502   -2.5063428  0.065972178   -3.7171502    1.2108074   520603 
 1609000    1.0230599   -3.7178844   -3.7178844   -2.5061785  0.081994111   -3.7178844    1.2117059   520603 
 1610000    1.0220661    -3.717561    -3.717561   -2.5070322  0.082147915    -3.717561    1.2105289   520603 
 1611000    1.0219151   -3.7174043   -3.7174043   -2.5070543  0.073109837   -3.7174043    1.2103499   520603 
 1612000    1.0224973   -3.7191428   -3.7191428   -2.5081032  0.066126116   -3.7191428    1.2110396   520603 
 1613000    1.0223001     -3.71774     -3.71774   -2.5069341  0.075815253     -3.71774    1.2108059   520603 
 1614000    1.0217954   -3.7179507   -3.7179507   -2.5077424  0.073126127   -3.7179507    1.2102082   520603 
 1615000     1.020776   -3.7172135   -3.7172135   -2.5082126  0.071865299   -3.7172135    1.2090009   520603 
 1616000     1.022263   -3.7186439   -3.7186439   -2.5078819  0.078259809   -3.7186439     1.210762   520603 
 1617000    1.0224499   -3.7182867   -3.7182867   -2.5073033  0.074892375   -3.7182867    1.2109834   520603 
 1618000    1.0233416   -3.7192823   -3.7192823   -2.5072428  0.078142137   -3.7192823    1.2120395   520603 
 1619000    1.0231304   -3.7191241   -3.7191241   -2.5073347  0.075576276   -3.7191241    1.2117893   520603 
 1620000    1.0224669    -3.718324    -3.718324   -2.5073205  0.080080625    -3.718324    1.2110036   520603 
 1621000    1.0215466   -3.7165796   -3.7165796   -2.5066661  0.081937855   -3.7165796    1.2099135   520603 
 1622000     1.021201   -3.7163733   -3.7163733   -2.5068691  0.070693317   -3.7163733    1.2095042   520603 
 1623000    1.0223227   -3.7172692   -3.7172692   -2.5064364   0.07952835   -3.7172692    1.2108327   520603 
 1624000    1.0211413   -3.7158678   -3.7158678   -2.5064343  0.065437381   -3.7158678    1.2094335   520603 
 1625000    1.0196395   -3.7142432   -3.7142432   -2.5065884  0.081386481   -3.7142432    1.2076548   520603 
 1626000    1.0196461   -3.7144581   -3.7144581   -2.5067955  0.060905649   -3.7144581    1.2076625   520603 
 1627000    1.0205066   -3.7151274   -3.7151274   -2.5064457  0.078949051   -3.7151274    1.2086817   520603 
 1628000    1.0195724   -3.7151367   -3.7151367   -2.5075614  0.066537857   -3.7151367    1.2075753   520603 
 1629000    1.0193741   -3.7144988   -3.7144988   -2.5071584  0.063495419   -3.7144988    1.2073404   520603 
 1630000    1.0212567   -3.7167671   -3.7167671    -2.507197  0.060255101   -3.7167671    1.2095702   520603 
 1631000    1.0193118    -3.714323    -3.714323   -2.5070563  0.070168146    -3.714323    1.2072667   520603 
 1632000    1.0212354     -3.71597     -3.71597   -2.5064251  0.066025994     -3.71597    1.2095449   520603 
 1633000    1.0192733   -3.7131162   -3.7131162   -2.5058951  0.066998926   -3.7131162    1.2072211   520603 
 1634000    1.0190891   -3.7134176   -3.7134176   -2.5064147  0.071382217   -3.7134176    1.2070029   520603 
 1635000    1.0198207   -3.7151978   -3.7151978   -2.5073285  0.065927345   -3.7151978    1.2078693   520603 
 1636000    1.0215982   -3.7173575   -3.7173575   -2.5073828  0.070985145   -3.7173575    1.2099747   520603 
 1637000     1.021167   -3.7173991   -3.7173991   -2.5079352  0.080749446   -3.7173991    1.2094639   520603 
 1638000    1.0218881   -3.7173291   -3.7173291   -2.5070111  0.076478731   -3.7173291     1.210318   520603 
 1639000    1.0206522   -3.7150366   -3.7150366   -2.5061825  0.064369238   -3.7150366    1.2088542   520603 
 1640000    1.0200616   -3.7144701   -3.7144701   -2.5063154  0.082373955   -3.7144701    1.2081547   520603 
 1641000    1.0209426   -3.7158759   -3.7158759   -2.5066778  0.075577835   -3.7158759    1.2091981   520603 
 1642000     1.020536   -3.7158823   -3.7158823   -2.5071657  0.072685291   -3.7158823    1.2087166   520603 
 1643000    1.0211006   -3.7170026   -3.7170026   -2.5076174   0.08402615   -3.7170026    1.2093853   520603 
 1644000     1.021175   -3.7174012   -3.7174012   -2.5079278  0.086809829   -3.7174012    1.2094734   520603 
 1645000    1.0198131   -3.7151897   -3.7151897   -2.5073293  0.084456535   -3.7151897    1.2078603   520603 
 1646000     1.019757   -3.7159456   -3.7159456   -2.5081516  0.064523242   -3.7159456     1.207794   520603 
 1647000    1.0213272   -3.7172601   -3.7172601   -2.5076064  0.082439103   -3.7172601    1.2096536   520603 
 1648000    1.0208575   -3.7168737   -3.7168737   -2.5077764  0.078035862   -3.7168737    1.2090973   520603 
 1649000    1.0195046    -3.714232    -3.714232    -2.506737  0.071780645    -3.714232     1.207495   520603 
 1650000    1.0204268   -3.7163753   -3.7163753   -2.5077881  0.080212354   -3.7163753    1.2085872   520603 
 1651000    1.0224364   -3.7193193   -3.7193193   -2.5083519  0.061382554   -3.7193193    1.2109674   520603 
 1652000    1.0209363    -3.717464    -3.717464   -2.5082733  0.080122928    -3.717464    1.2091907   520603 
 1653000    1.0199659   -3.7169342   -3.7169342   -2.5088929   0.07978357   -3.7169342    1.2080414   520603 
 1654000    1.0210179   -3.7200111   -3.7200111   -2.5107238   0.07844259   -3.7200111    1.2092873   520603 
 1655000     1.021513   -3.7207759   -3.7207759   -2.5109022  0.071416554   -3.7207759    1.2098737   520603 
 1656000    1.0201298   -3.7181424   -3.7181424    -2.509907  0.059030012   -3.7181424    1.2082354   520603 
 1657000    1.0212845   -3.7189534   -3.7189534   -2.5093503  0.079340623   -3.7189534    1.2096031   520603 
 1658000    1.0191776   -3.7175923   -3.7175923   -2.5104846  0.068638921   -3.7175923    1.2071077   520603 
 1659000    1.0197455   -3.7177827   -3.7177827   -2.5100024  0.083688533   -3.7177827    1.2077803   520603 
 1660000    1.0211143   -3.7182871   -3.7182871   -2.5088856  0.066742734   -3.7182871    1.2094015   520603 
 1661000    1.0208212   -3.7189513   -3.7189513   -2.5098969  0.060415912   -3.7189513    1.2090543   520603 
 1662000    1.0208397   -3.7195841   -3.7195841   -2.5105078  0.083474091   -3.7195841    1.2090763   520603 
 1663000    1.0217188   -3.7195139   -3.7195139   -2.5093964   0.07383148   -3.7195139    1.2101175   520603 
 1664000      1.01929   -3.7179142   -3.7179142   -2.5106734  0.074297083   -3.7179142    1.2072409   520603 
 1665000     1.021553   -3.7209492   -3.7209492   -2.5110282  0.066922894   -3.7209492    1.2099211   520603 
 1666000    1.0206953   -3.7199499   -3.7199499   -2.5110447  0.073056364   -3.7199499    1.2089052   520603 
 1667000    1.0207968   -3.7207433   -3.7207433   -2.5117178  0.087183351   -3.7207433    1.2090254   520603 
 1668000    1.0204257   -3.7209577   -3.7209577   -2.5123717  0.054156785   -3.7209577     1.208586   520603 
 1669000    1.0205486   -3.7211743   -3.7211743   -2.5124428   0.06853333   -3.7211743    1.2087315   520603 
 1670000    1.0184952   -3.7179795   -3.7179795     -2.51168  0.066289761   -3.7179795    1.2062995   520603 
 1671000    1.0192242   -3.7192113   -3.7192113   -2.5120484  0.078735499   -3.7192113    1.2071629   520603 
 1672000    1.0186826   -3.7188937   -3.7188937   -2.5123723    0.0718215   -3.7188937    1.2065215   520603 
 1673000    1.0198783   -3.7202712   -3.7202712   -2.5123337  0.072409212   -3.7202712    1.2079376   520603 
 1674000    1.0194265   -3.7200512   -3.7200512   -2.5126487  0.078308644   -3.7200512    1.2074025   520603 
 1675000    1.0192289   -3.7191668   -3.7191668   -2.5119983  0.066409436   -3.7191668    1.2071685   520603 
 1676000    1.0207879    -3.721581    -3.721581   -2.5125661  0.078982873    -3.721581     1.209015   520603 
 1677000    1.0216154   -3.7223989   -3.7223989   -2.5124039  0.064356259   -3.7223989     1.209995   520603 
 1678000    1.0208716   -3.7216039   -3.7216039   -2.5124898  0.075912996   -3.7216039    1.2091141   520603 
 1679000     1.019785   -3.7211368   -3.7211368   -2.5133096  0.081952786   -3.7211368    1.2078271   520603 
 1680000    1.0206689   -3.7208533   -3.7208533   -2.5119793  0.083371309   -3.7208533     1.208874   520603 
 1681000    1.0220638   -3.7231147   -3.7231147   -2.5125887  0.072666849   -3.7231147     1.210526   520603 
 1682000    1.0199715   -3.7206028   -3.7206028   -2.5125548  0.073396277   -3.7206028     1.208048   520603 
 1683000    1.0208669   -3.7215576   -3.7215576   -2.5124491   0.08271727   -3.7215576    1.2091084   520603 
 1684000    1.0216551   -3.7218892   -3.7218892   -2.5118472  0.073790592   -3.7218892     1.210042   520603 
 1685000    1.0213416   -3.7214344   -3.7214344   -2.5117637  0.071290304   -3.7214344    1.2096707   520603 
 1686000    1.0224544   -3.7227191   -3.7227191   -2.5117304  0.082538445   -3.7227191    1.2109887   520603 
 1687000    1.0220715   -3.7219561   -3.7219561   -2.5114209  0.067043749   -3.7219561    1.2105352   520603 
 1688000    1.0213562   -3.7217668   -3.7217668   -2.5120787  0.068979584   -3.7217668    1.2096881   520603 
 1689000    1.0212839   -3.7216897   -3.7216897   -2.5120873  0.064107445   -3.7216897    1.2096024   520603 
 1690000    1.0212462   -3.7208978   -3.7208978   -2.5113401  0.067337011   -3.7208978    1.2095577   520603 
 1691000     1.022029   -3.7221085   -3.7221085   -2.5116237  0.072050279   -3.7221085    1.2104848   520603 
 1692000    1.0220159   -3.7226527   -3.7226527   -2.5121833  0.063059977   -3.7226527    1.2104694   520603 
 1693000    1.0215726   -3.7216822   -3.7216822   -2.5117378  0.079579609   -3.7216822    1.2099444   520603 
 1694000    1.0199374   -3.7203343   -3.7203343   -2.5123267  0.086209853   -3.7203343    1.2080076   520603 
 1695000    1.0199657   -3.7202775   -3.7202775   -2.5122364  0.079061835   -3.7202775    1.2080411   520603 
 1696000     1.019044   -3.7185244   -3.7185244    -2.511575   0.07546758   -3.7185244    1.2069494   520603 
 1697000    1.0204537   -3.7199902   -3.7199902    -2.511371  0.079524695   -3.7199902    1.2086191   520603 
 1698000    1.0212117   -3.7206678   -3.7206678    -2.511151  0.068359891   -3.7206678    1.2095169   520603 
 1699000    1.0210738   -3.7205927   -3.7205927   -2.5112391  0.075783923   -3.7205927    1.2093535   520603 
 1700000     1.020956   -3.7205284   -3.7205284   -2.5113144  0.065313994   -3.7205284     1.209214   520603 
 1701000    1.0200084    -3.719895    -3.719895   -2.5118032  0.081548212    -3.719895    1.2080917   520603 
 1702000    1.0199572   -3.7203322   -3.7203322   -2.5123012  0.070067126   -3.7203322    1.2080311   520603 
 1703000     1.020628   -3.7202851   -3.7202851   -2.5114596  0.075924339   -3.7202851    1.2088255   520603 
 1704000    1.0209083   -3.7205527   -3.7205527   -2.5113952  0.064588805   -3.7205527    1.2091575   520603 
 1705000    1.0212512   -3.7210381   -3.7210381   -2.5114744  0.084726768   -3.7210381    1.2095637   520603 
 1706000    1.0211257   -3.7213754   -3.7213754   -2.5119603  0.084593813   -3.7213754     1.209415   520603 
 1707000    1.0209337   -3.7212346   -3.7212346    -2.512047  0.073426225   -3.7212346    1.2091876   520603 
 1708000    1.0210503    -3.721307    -3.721307   -2.5119812  0.077934574    -3.721307    1.2093258   520603 
 1709000    1.0207906   -3.7216363   -3.7216363   -2.5126182  0.076531642   -3.7216363    1.2090181   520603 
 1710000    1.0213476   -3.7218481   -3.7218481   -2.5121703  0.079103981   -3.7218481    1.2096779   520603 
 1711000    1.0212985    -3.721556    -3.721556   -2.5119363   0.07408467    -3.721556    1.2096197   520603 
 1712000    1.0217379   -3.7230612   -3.7230612   -2.5129212  0.086472762   -3.7230612    1.2101401   520603 
 1713000    1.0217398   -3.7227618   -3.7227618   -2.5126195  0.071613693   -3.7227618    1.2101423   520603 
 1714000    1.0209276   -3.7226471   -3.7226471   -2.5134668  0.070977425   -3.7226471    1.2091804   520603 
 1715000    1.0226212   -3.7249358   -3.7249358   -2.5137495  0.072468026   -3.7249358    1.2111862   520603 
 1716000     1.020721   -3.7223016   -3.7223016   -2.5133659  0.087027217   -3.7223016    1.2089357   520603 
 1717000     1.022571   -3.7242512   -3.7242512   -2.5131245  0.088912638   -3.7242512    1.2111268   520603 
 1718000    1.0210942   -3.7233377   -3.7233377     -2.51396  0.087579454   -3.7233377    1.2093777   520603 
 1719000    1.0210758   -3.7233786   -3.7233786   -2.5140227  0.078305154   -3.7233786    1.2093559   520603 
 1720000    1.0205984   -3.7234414   -3.7234414   -2.5146508  0.071965243   -3.7234414    1.2087905   520603 
 1721000    1.0194402   -3.7222073   -3.7222073   -2.5147886  0.077991056   -3.7222073    1.2074187   520603 
 1722000    1.0196906   -3.7217801   -3.7217801   -2.5140648  0.087237028   -3.7217801    1.2077153   520603 
 1723000    1.0199452   -3.7229398   -3.7229398    -2.514923  0.076034963   -3.7229398    1.2080168   520603 
 1724000    1.0216547   -3.7249481   -3.7249481   -2.5149066  0.078088822   -3.7249481    1.2100415   520603 
 1725000    1.0201268   -3.7235714   -3.7235714   -2.5153394  0.067512978   -3.7235714    1.2082319   520603 
 1726000    1.0193928   -3.7224273   -3.7224273   -2.5150647  0.078602954   -3.7224273    1.2073625   520603 
 1727000    1.0206761   -3.7231225   -3.7231225   -2.5142399  0.080433301   -3.7231225    1.2088826   520603 
 1728000    1.0206239   -3.7234291   -3.7234291   -2.5146084  0.082908071   -3.7234291    1.2088207   520603 
 1729000    1.0190409   -3.7216203   -3.7216203   -2.5146745  0.073281653   -3.7216203    1.2069458   520603 
 1730000    1.0195175   -3.7214959   -3.7214959   -2.5139857  0.065672492   -3.7214959    1.2075102   520603 
 1731000    1.0184839   -3.7197667   -3.7197667   -2.5134806   0.07904886   -3.7197667    1.2062861   520603 
 1732000    1.0183634   -3.7189596   -3.7189596   -2.5128163  0.069673353   -3.7189596    1.2061434   520603 
 1733000    1.0199227   -3.7209023   -3.7209023   -2.5129121  0.064838474   -3.7209023    1.2079902   520603 
 1734000    1.0190663   -3.7201337   -3.7201337   -2.5131578   0.07953917   -3.7201337    1.2069759   520603 
 1735000    1.0187655   -3.7193675   -3.7193675   -2.5127478  0.068642082   -3.7193675    1.2066197   520603 
 1736000    1.0207605   -3.7209668   -3.7209668   -2.5119843  0.088706304   -3.7209668    1.2089825   520603 
 1737000    1.0211633   -3.7217713   -3.7217713   -2.5123117  0.071747608   -3.7217713    1.2094595   520603 
 1738000     1.019766   -3.7199821   -3.7199821   -2.5121775  0.069383931   -3.7199821    1.2078046   520603 
 1739000    1.0199347     -3.72071     -3.72071   -2.5127056  0.063679032     -3.72071    1.2080044   520603 
 1740000    1.0210309   -3.7220548   -3.7220548    -2.512752  0.069643242   -3.7220548    1.2093027   520603 
 1741000    1.0213459   -3.7227212   -3.7227212   -2.5130455   0.06222887   -3.7227212    1.2096758   520603 
 1742000    1.0203486   -3.7207777   -3.7207777   -2.5122831   0.07289856   -3.7207777    1.2084946   520603 
 1743000    1.0208011   -3.7204096   -3.7204096   -2.5113791  0.073695576   -3.7204096    1.2090305   520603 
 1744000    1.0222554   -3.7231034   -3.7231034   -2.5123504  0.077204452   -3.7231034     1.210753   520603 
 1745000    1.0200696    -3.720484    -3.720484   -2.5123198   0.07774982    -3.720484    1.2081642   520603 
 1746000    1.0195894   -3.7203839   -3.7203839   -2.5127885  0.068986046   -3.7203839    1.2075954   520603 
 1747000    1.0199801   -3.7211491   -3.7211491    -2.513091  0.082977634   -3.7211491    1.2080581   520603 
 1748000    1.0200491   -3.7216557   -3.7216557   -2.5135158  0.085705883   -3.7216557    1.2081399   520603 
 1749000    1.0215705   -3.7234227   -3.7234227   -2.5134809  0.081339039   -3.7234227    1.2099419   520603 
 1750000    1.0195463   -3.7217432   -3.7217432   -2.5141989  0.075097982   -3.7217432    1.2075443   520603 
 1751000    1.0207891   -3.7231493   -3.7231493    -2.514133  0.056302072   -3.7231493    1.2090163   520603 
 1752000    1.0204082   -3.7220405   -3.7220405   -2.5134753  0.076962199   -3.7220405    1.2085652   520603 
 1753000    1.0198193    -3.722083    -3.722083   -2.5142153  0.062416776    -3.722083    1.2078677   520603 
 1754000    1.0210291   -3.7247662   -3.7247662   -2.5154656  0.068933133   -3.7247662    1.2093006   520603 
 1755000    1.0206885   -3.7235363   -3.7235363   -2.5146391   0.07674557   -3.7235363    1.2088972   520603 
 1756000    1.0195405    -3.722862    -3.722862   -2.5153244  0.064906369    -3.722862    1.2075376   520603 
 1757000    1.0188311   -3.7221822   -3.7221822   -2.5154849  0.077878564   -3.7221822    1.2066973   520603 
 1758000    1.0215804   -3.7258938   -3.7258938   -2.5159402  0.070750133   -3.7258938    1.2099536   520603 
 1759000    1.0205374   -3.7247192   -3.7247192   -2.5160009  0.065067887   -3.7247192    1.2087183   520603 
 1760000    1.0203636   -3.7238924   -3.7238924     -2.51538  0.075115228   -3.7238924    1.2085124   520603 
 1761000    1.0199953     -3.72328     -3.72328   -2.5152038  0.068726027     -3.72328    1.2080762   520603 
 1762000    1.0194337   -3.7224071   -3.7224071    -2.514996  0.089151961   -3.7224071    1.2074111   520603 
 1763000    1.0200735   -3.7236278   -3.7236278   -2.5154591  0.075320205   -3.7236278    1.2081687   520603 
 1764000    1.0190352   -3.7223931   -3.7223931   -2.5154541  0.069845855   -3.7223931     1.206939   520603 
 1765000    1.0221854   -3.7258149   -3.7258149   -2.5151447  0.076481155   -3.7258149    1.2106702   520603 
 1766000    1.0208282   -3.7250157   -3.7250157   -2.5159531  0.069808973   -3.7250157    1.2090626   520603 
 1767000    1.0214297   -3.7250797   -3.7250797   -2.5153046  0.083103018   -3.7250797    1.2097751   520603 
 1768000    1.0219017   -3.7261131   -3.7261131   -2.5157789  0.073356603   -3.7261131    1.2103342   520603 
 1769000    1.0202327   -3.7247832   -3.7247832   -2.5164259  0.077901396   -3.7247832    1.2083573   520603 
 1770000    1.0191951   -3.7240002   -3.7240002   -2.5168718  0.069402566   -3.7240002    1.2071284   520603 
 1771000    1.0199013    -3.724653    -3.724653   -2.5166881  0.068562031    -3.724653    1.2079649   520603 
 1772000    1.0190019   -3.7243004   -3.7243004   -2.5174008  0.077674147   -3.7243004    1.2068996   520603 
 1773000    1.0180476   -3.7238473   -3.7238473    -2.518078  0.073334266   -3.7238473    1.2057693   520603 
 1774000    1.0182886   -3.7245314   -3.7245314   -2.5184767  0.061753637   -3.7245314    1.2060547   520603 
 1775000    1.0183972   -3.7245857   -3.7245857   -2.5184023  0.077620729   -3.7245857    1.2061834   520603 
 1776000     1.017267   -3.7237533   -3.7237533   -2.5189085  0.062932677   -3.7237533    1.2048447   520603 
 1777000    1.0187354   -3.7252221   -3.7252221   -2.5186381  0.076640399   -3.7252221     1.206584   520603 
 1778000    1.0184838   -3.7249779   -3.7249779   -2.5186919  0.075309789   -3.7249779     1.206286   520603 
 1779000    1.0182808   -3.7236583   -3.7236583   -2.5176128   0.07087012   -3.7236583    1.2060455   520603 
 1780000     1.018912   -3.7251708   -3.7251708   -2.5183777  0.067673686   -3.7251708    1.2067931   520603 
 1781000    1.0208634   -3.7262704   -3.7262704    -2.517166  0.064795964   -3.7262704    1.2091044   520603 
 1782000    1.0197622   -3.7256276   -3.7256276   -2.5178275  0.087427678   -3.7256276    1.2078002   520603 
 1783000    1.0203707   -3.7265697   -3.7265697   -2.5180489  0.068395481   -3.7265697    1.2085207   520603 
 1784000    1.0202743   -3.7266681   -3.7266681   -2.5182614  0.075050886   -3.7266681    1.2084067   520603 
 1785000    1.0189055   -3.7262437   -3.7262437   -2.5194583  0.085883437   -3.7262437    1.2067854   520603 
 1786000    1.0196925   -3.7266997   -3.7266997   -2.5189822  0.083678575   -3.7266997    1.2077175   520603 
 1787000    1.0207041   -3.7280564   -3.7280564   -2.5191408  0.079323967   -3.7280564    1.2089156   520603 
 1788000    1.0216992     -3.73034     -3.73034   -2.5202458  0.077161205     -3.73034    1.2100943   520603 
 1789000    1.0191604   -3.7275218   -3.7275218   -2.5204344  0.080988648   -3.7275218    1.2070874   520603 
 1790000    1.0191531    -3.726379    -3.726379   -2.5193003  0.082353713    -3.726379    1.2070787   520603 
 1791000    1.0225431   -3.7300414   -3.7300414   -2.5189476  0.067292471   -3.7300414    1.2110938   520603 
 1792000    1.0185669   -3.7252916   -3.7252916   -2.5189072  0.071883272   -3.7252916    1.2063844   520603 
 1793000    1.0206962   -3.7283803   -3.7283803   -2.5194739  0.077188111   -3.7283803    1.2089064   520603 
 1794000    1.0205634   -3.7277122   -3.7277122   -2.5189631  0.073111186   -3.7277122     1.208749   520603 
 1795000    1.0190381   -3.7259087   -3.7259087   -2.5189663  0.077902831   -3.7259087    1.2069425   520603 
 1796000    1.0198711   -3.7267211   -3.7267211   -2.5187921  0.080931342   -3.7267211     1.207929   520603 
 1797000    1.0192149   -3.7261233   -3.7261233   -2.5189714   0.08983302   -3.7261233    1.2071518   520603 
 1798000    1.0202614     -3.72738     -3.72738   -2.5189886  0.073492338     -3.72738    1.2083914   520603 
 1799000     1.021692   -3.7291375   -3.7291375   -2.5190517  0.071492203   -3.7291375    1.2100858   520603 
 1800000    1.0193984   -3.7272693   -3.7272693      -2.5199  0.075464923   -3.7272693    1.2073693   520603 
 1801000    1.0194223   -3.7281167   -3.7281167   -2.5207192  0.069429906   -3.7281167    1.2073976   520603 
 1802000    1.0188369   -3.7259298   -3.7259298   -2.5192256  0.059938685   -3.7259298    1.2067042   520603 
 1803000    1.0202908    -3.726382    -3.726382   -2.5179558  0.070015453    -3.726382    1.2084261   520603 
 1804000    1.0183906   -3.7244334   -3.7244334   -2.5182578  0.082134516   -3.7244334    1.2061756   520603 
 1805000    1.0175188   -3.7251343   -3.7251343   -2.5199912  0.076850651   -3.7251343     1.205143   520603 
 1806000    1.0175843   -3.7254022   -3.7254022   -2.5201816  0.068524972   -3.7254022    1.2052206   520603 
 1807000    1.0189514   -3.7262232   -3.7262232   -2.5193835  0.076087957   -3.7262232    1.2068398   520603 
 1808000    1.0177934    -3.726043    -3.726043   -2.5205748  0.061130962    -3.726043    1.2054683   520603 
 1809000    1.0158839   -3.7240118   -3.7240118   -2.5208051  0.069469247   -3.7240118    1.2032067   520603 
 1810000    1.0175232   -3.7261702   -3.7261702    -2.521022  0.064187915   -3.7261702    1.2051482   520603 
 1811000    1.0184617   -3.7273871   -3.7273871   -2.5211274  0.056768078   -3.7273871    1.2062597   520603 
 1812000    1.0183905   -3.7270731   -3.7270731   -2.5208977  0.067005343   -3.7270731    1.2061754   520603 
 1813000    1.0175264   -3.7262872   -3.7262872   -2.5211352  0.057193727   -3.7262872    1.2051521   520603 
 1814000     1.017812   -3.7256209   -3.7256209   -2.5201306  0.064716885   -3.7256209    1.2054903   520603 
 1815000    1.0173548   -3.7257195   -3.7257195   -2.5207707  0.055369947   -3.7257195    1.2049487   520603 
 1816000    1.0195076   -3.7275659   -3.7275659   -2.5200673  0.075836171   -3.7275659    1.2074985   520603 
 1817000    1.0181782   -3.7263255   -3.7263255   -2.5204014  0.070520249   -3.7263255    1.2059241   520603 
 1818000    1.0192341   -3.7285048   -3.7285048   -2.5213301  0.076759693   -3.7285048    1.2071746   520603 
 1819000    1.0172805   -3.7266955   -3.7266955   -2.5218347  0.086511408   -3.7266955    1.2048607   520603 
 1820000    1.0190201   -3.7286424   -3.7286424   -2.5217212  0.084595084   -3.7286424    1.2069211   520603 
 1821000    1.0193163   -3.7288799   -3.7288799   -2.5216079  0.075866324   -3.7288799     1.207272   520603 
 1822000    1.0185784   -3.7286839   -3.7286839   -2.5222859  0.097586726   -3.7286839     1.206398   520603 
 1823000    1.0204204   -3.7307554   -3.7307554   -2.5221757  0.078105181   -3.7307554    1.2085797   520603 
 1824000    1.0198633   -3.7298441   -3.7298441   -2.5219243  0.076671569   -3.7298441    1.2079198   520603 
 1825000    1.0203621   -3.7297414   -3.7297414   -2.5212308  0.078954149   -3.7297414    1.2085106   520603 
 1826000    1.0199971    -3.729441    -3.729441   -2.5213626  0.085632798    -3.729441    1.2080784   520603 
 1827000    1.0195134   -3.7292895   -3.7292895   -2.5217841  0.084719278   -3.7292895    1.2075054   520603 
 1828000    1.0198681   -3.7300469   -3.7300469   -2.5221214  0.062181618   -3.7300469    1.2079255   520603 
 1829000    1.0187533   -3.7288603   -3.7288603   -2.5222551   0.08683228   -3.7288603    1.2066052   520603 
 1830000    1.0197715   -3.7296437   -3.7296437   -2.5218327  0.075905999   -3.7296437    1.2078111   520603 
 1831000    1.0210529   -3.7315455   -3.7315455   -2.5222167  0.060571407   -3.7315455    1.2093288   520603 
 1832000    1.0194233   -3.7295306   -3.7295306    -2.522132  0.072302543   -3.7295306    1.2073987   520603 
 1833000    1.0209567   -3.7311036   -3.7311036   -2.5218888  0.078728767   -3.7311036    1.2092148   520603 
 1834000    1.0176997   -3.7275115   -3.7275115   -2.5221542  0.070119219   -3.7275115    1.2053573   520603 
 1835000    1.0187959    -3.729011    -3.729011   -2.5223554  0.065538097    -3.729011    1.2066556   520603 
 1836000    1.0163785   -3.7264777   -3.7264777   -2.5226852  0.083101942   -3.7264777    1.2037925   520603 
 1837000    1.0177877   -3.7280718   -3.7280718   -2.5226103  0.064448433   -3.7280718    1.2054615   520603 
 1838000    1.0187877   -3.7289622   -3.7289622   -2.5223163  0.070563802   -3.7289622    1.2066459   520603 
 1839000    1.0186088   -3.7289193   -3.7289193   -2.5224853  0.065929309   -3.7289193    1.2064341   520603 
 1840000    1.0191436    -3.729721    -3.729721   -2.5226536  0.071417206    -3.729721    1.2070674   520603 
 1841000    1.0176612   -3.7275084   -3.7275084   -2.5221967  0.073484024   -3.7275084    1.2053117   520603 
 1842000    1.0178104   -3.7272433   -3.7272433    -2.521755  0.068433156   -3.7272433    1.2054884   520603 
 1843000    1.0190519   -3.7289247   -3.7289247   -2.5219659  0.077967115   -3.7289247    1.2069588   520603 
 1844000    1.0182002   -3.7277825   -3.7277825   -2.5218325  0.087867253   -3.7277825      1.20595   520603 
 1845000    1.0174709   -3.7275891   -3.7275891   -2.5225027  0.080154029   -3.7275891    1.2050863   520603 
 1846000    1.0187714   -3.7281838   -3.7281838   -2.5215573  0.069152062   -3.7281838    1.2066266   520603 
 1847000    1.0181142   -3.7276699   -3.7276699   -2.5218217  0.072141149   -3.7276699    1.2058482   520603 
 1848000    1.0196671   -3.7292866   -3.7292866   -2.5215991  0.067518303   -3.7292866    1.2076874   520603 
 1849000    1.0175103   -3.7273068   -3.7273068   -2.5221738   0.07665082   -3.7273068     1.205133   520603 
 1850000    1.0211925   -3.7306765   -3.7306765   -2.5211823   0.06742853   -3.7306765    1.2094942   520603 
 1851000    1.0187265   -3.7273661   -3.7273661   -2.5207926  0.071880222   -3.7273661    1.2065734   520603 
 1852000    1.0181315    -3.726612    -3.726612   -2.5207433  0.073407658    -3.726612    1.2058687   520603 
 1853000    1.0196281   -3.7288904   -3.7288904   -2.5212491  0.066020959   -3.7288904    1.2076413   520603 
 1854000    1.0181066   -3.7275907   -3.7275907   -2.5217515   0.06953246   -3.7275907    1.2058392   520603 
 1855000    1.0182258   -3.7282753   -3.7282753   -2.5222949  0.080372281   -3.7282753    1.2059804   520603 
 1856000     1.017895   -3.7273327   -3.7273327   -2.5217441  0.074328008   -3.7273327    1.2055886   520603 
 1857000    1.0187333    -3.728962    -3.728962   -2.5223804  0.074439972    -3.728962    1.2065815   520603 
 1858000    1.0175265   -3.7275398   -3.7275398   -2.5223877  0.073684285   -3.7275398    1.2051521   520603 
 1859000    1.0170422   -3.7277143   -3.7277143   -2.5231358  0.065819441   -3.7277143    1.2045785   520603 
 1860000    1.0179962   -3.7291021   -3.7291021   -2.5233936  0.076749382   -3.7291021    1.2057085   520603 
 1861000    1.0183666   -3.7300951   -3.7300951    -2.523948  0.065130968   -3.7300951    1.2061471   520603 
 1862000    1.0184295   -3.7303415   -3.7303415   -2.5241198   0.07555012   -3.7303415    1.2062217   520603 
 1863000    1.0184969   -3.7303937   -3.7303937   -2.5240922  0.078773914   -3.7303937    1.2063015   520603 
 1864000    1.0204631   -3.7329495   -3.7329495   -2.5243193  0.081159955   -3.7329495    1.2086302   520603 
 1865000    1.0178689   -3.7294969   -3.7294969   -2.5239393   0.08255747   -3.7294969    1.2055576   520603 
 1866000    1.0212824   -3.7334136   -3.7334136   -2.5238129  0.084260056   -3.7334136    1.2096006   520603 
 1867000    1.0199342   -3.7330406   -3.7330406   -2.5250368  0.079362532   -3.7330406    1.2080038   520603 
 1868000     1.018477   -3.7315007   -3.7315007   -2.5252228  0.070451737   -3.7315007    1.2062779   520603 
 1869000    1.0194895   -3.7317632   -3.7317632   -2.5242861  0.069610946   -3.7317632    1.2074771   520603 
 1870000    1.0180124   -3.7300023   -3.7300023   -2.5242746  0.090744296   -3.7300023    1.2057276   520603 
 1871000    1.0186247   -3.7310719   -3.7310719   -2.5246191  0.075017805   -3.7310719    1.2064528   520603 
 1872000    1.0174714   -3.7300086   -3.7300086   -2.5249218  0.078250724   -3.7300086    1.2050868   520603 
 1873000    1.0176864   -3.7311304   -3.7311304   -2.5257889  0.072510602   -3.7311304    1.2053415   520603 
 1874000    1.0199331   -3.7331989   -3.7331989   -2.5251964  0.069424307   -3.7331989    1.2080025   520603 
 1875000    1.0196769   -3.7324238   -3.7324238   -2.5247247  0.072939093   -3.7324238    1.2076991   520603 
 1876000    1.0202691   -3.7331044   -3.7331044    -2.524704  0.078921832   -3.7331044    1.2084004   520603 
 1877000    1.0171336   -3.7300653   -3.7300653   -2.5253784  0.080789837   -3.7300653    1.2046868   520603 
 1878000    1.0182799     -3.73216     -3.73216   -2.5261156  0.073552122     -3.73216    1.2060444   520603 
 1879000    1.0166815     -3.73021     -3.73021   -2.5260587  0.057045476     -3.73021    1.2041513   520603 
 1880000    1.0176346     -3.73121     -3.73121   -2.5259298  0.071930976     -3.73121    1.2052802   520603 
 1881000     1.015702   -3.7285729   -3.7285729   -2.5255817   0.05964258   -3.7285729    1.2029912   520603 
 1882000    1.0180862   -3.7305183   -3.7305183   -2.5247032  0.065663808   -3.7305183    1.2058151   520603 
 1883000     1.017796   -3.7302186   -3.7302186   -2.5247473   0.07795427   -3.7302186    1.2054714   520603 
 1884000    1.0172728   -3.7286929   -3.7286929   -2.5238412  0.072833977   -3.7286929    1.2048517   520603 
 1885000    1.0170319   -3.7287247   -3.7287247   -2.5241584  0.062812122   -3.7287247    1.2045663   520603 
 1886000    1.0187839   -3.7311221   -3.7311221   -2.5244807  0.074935104   -3.7311221    1.2066414   520603 
 1887000    1.0175452   -3.7306724   -3.7306724   -2.5254981  0.077691979   -3.7306724    1.2051743   520603 
 1888000    1.0161196   -3.7298402   -3.7298402   -2.5263544  0.076542433   -3.7298402    1.2034858   520603 
 1889000    1.0184667   -3.7322269   -3.7322269   -2.5259612  0.073804127   -3.7322269    1.2062657   520603 
 1890000    1.0190734   -3.7332755   -3.7332755   -2.5262913  0.075446662   -3.7332755    1.2069842   520603 
 1891000    1.0180475   -3.7332967   -3.7332967   -2.5275275  0.070573193   -3.7332967    1.2057692   520603 
 1892000    1.0191727   -3.7342937   -3.7342937   -2.5271918  0.077089443   -3.7342937    1.2071019   520603 
 1893000     1.020178   -3.7351537   -3.7351537   -2.5268611  0.073428525   -3.7351537    1.2082926   520603 
 1894000    1.0195623   -3.7342544   -3.7342544   -2.5266911  0.080951906   -3.7342544    1.2075633   520603 
 1895000    1.0196459    -3.735887    -3.735887   -2.5282247  0.076295891    -3.735887    1.2076624   520603 
 1896000      1.01949   -3.7346768   -3.7346768   -2.5271991  0.092639362   -3.7346768    1.2074777   520603 
 1897000    1.0194998   -3.7355067   -3.7355067   -2.5280174  0.075507206   -3.7355067    1.2074893   520603 
 1898000    1.0203054   -3.7356415   -3.7356415    -2.527198  0.077671906   -3.7356415    1.2084435   520603 
 1899000    1.0206168    -3.735983    -3.735983   -2.5271708  0.070471042    -3.735983    1.2088123   520603 
 1900000    1.0195818   -3.7357223   -3.7357223   -2.5281359  0.075822624   -3.7357223    1.2075864   520603 
 1901000    1.0203349   -3.7372028   -3.7372028   -2.5287244  0.064035635   -3.7372028    1.2084784   520603 
 1902000     1.021324   -3.7379109   -3.7379109   -2.5282611  0.059568859   -3.7379109    1.2096498   520603 
 1903000    1.0182652   -3.7341396   -3.7341396   -2.5281126  0.083864375   -3.7341396    1.2060271   520603 
 1904000    1.0192933   -3.7356174   -3.7356174   -2.5283727  0.078320992   -3.7356174    1.2072447   520603 
 1905000    1.0192616    -3.736449    -3.736449   -2.5292417  0.072471791    -3.736449    1.2072072   520603 
 1906000    1.0182793     -3.73497     -3.73497   -2.5289263  0.071733289     -3.73497    1.2060438   520603 
 1907000    1.0188681   -3.7363743   -3.7363743   -2.5296332  0.079115888   -3.7363743    1.2067412   520603 
 1908000    1.0209402    -3.738123    -3.738123   -2.5289277  0.081354993    -3.738123    1.2091953   520603 
 1909000    1.0187499   -3.7354454   -3.7354454   -2.5288443  0.076498888   -3.7354454    1.2066011   520603 
 1910000    1.0167479   -3.7338309   -3.7338309    -2.529601  0.070333926   -3.7338309    1.2042299   520603 
 1911000    1.0180315   -3.7347806   -3.7347806   -2.5290304  0.059933357   -3.7347806    1.2057502   520603 
 1912000     1.016749   -3.7332784   -3.7332784   -2.5290471  0.065692174   -3.7332784    1.2042313   520603 
 1913000    1.0171545   -3.7331881   -3.7331881   -2.5284766  0.063604821   -3.7331881    1.2047115   520603 
 1914000     1.018606   -3.7352386   -3.7352386   -2.5288079  0.073222594   -3.7352386    1.2064307   520603 
 1915000    1.0191357   -3.7357523   -3.7357523   -2.5286943  0.072489009   -3.7357523     1.207058   520603 
 1916000    1.0175863   -3.7342557   -3.7342557   -2.5290327  0.081183683   -3.7342557     1.205223   520603 
 1917000    1.0170291   -3.7341819   -3.7341819   -2.5296189  0.055758954   -3.7341819     1.204563   520603 
 1918000    1.0173807   -3.7338303   -3.7338303   -2.5288509  0.079212738   -3.7338303    1.2049794   520603 
 1919000    1.0159517   -3.7321243   -3.7321243   -2.5288373  0.081289925   -3.7321243     1.203287   520603 
 1920000    1.0176561   -3.7334148   -3.7334148   -2.5281092  0.066648053   -3.7334148    1.2053056   520603 
 1921000    1.0162738     -3.73213     -3.73213   -2.5284615  0.072976014     -3.73213    1.2036685   520603 
 1922000    1.0167504   -3.7314759   -3.7314759    -2.527243  0.067646583   -3.7314759     1.204233   520603 
 1923000    1.0176898   -3.7325147   -3.7325147   -2.5271692  0.074366623   -3.7325147    1.2053455   520603 
 1924000    1.0178162   -3.7325166   -3.7325166   -2.5270214  0.091476755   -3.7325166    1.2054952   520603 
 1925000    1.0172497   -3.7324731   -3.7324731   -2.5276488  0.073684426   -3.7324731    1.2048243   520603 
 1926000    1.0174984   -3.7334751   -3.7334751   -2.5283563  0.082256792   -3.7334751    1.2051188   520603 
 1927000    1.0170861   -3.7328899   -3.7328899   -2.5282594  0.081041696   -3.7328899    1.2046305   520603 
 1928000    1.0173113   -3.7334606   -3.7334606   -2.5285634  0.071347553   -3.7334606    1.2048972   520603 
 1929000    1.0178955   -3.7346296   -3.7346296   -2.5290404  0.060224627   -3.7346296    1.2055892   520603 
 1930000    1.0177036   -3.7338701   -3.7338701   -2.5285083   0.07151657   -3.7338701    1.2053618   520603 
 1931000    1.0183967   -3.7351815   -3.7351815   -2.5289987  0.083055213   -3.7351815    1.2061828   520603 
 1932000    1.0180758   -3.7354171   -3.7354171   -2.5296144  0.062100089   -3.7354171    1.2058027   520603 
 1933000    1.0174629     -3.73461     -3.73461   -2.5295332  0.064448314     -3.73461    1.2050768   520603 
 1934000    1.0173718   -3.7350564   -3.7350564   -2.5300875  0.083453584   -3.7350564    1.2049689   520603 
 1935000     1.017307   -3.7344277   -3.7344277   -2.5295355  0.087737664   -3.7344277    1.2048922   520603 
 1936000    1.0169475    -3.734683    -3.734683   -2.5302167  0.077354967    -3.734683    1.2044663   520603 
 1937000    1.0175389   -3.7357304   -3.7357304   -2.5305636  0.059045946   -3.7357304    1.2051668   520603 
 1938000    1.0165545   -3.7345055   -3.7345055   -2.5305045  0.079519589   -3.7345055     1.204001   520603 
 1939000    1.0173469   -3.7348051   -3.7348051   -2.5298657  0.073435185   -3.7348051    1.2049394   520603 
 1940000    1.0187065   -3.7363705   -3.7363705   -2.5298209  0.071943618   -3.7363705    1.2065497   520603 
 1941000    1.0182511   -3.7356319   -3.7356319   -2.5296216  0.065291307   -3.7356319    1.2060103   520603 
 1942000    1.0188148   -3.7361922   -3.7361922   -2.5295142  0.068423341   -3.7361922     1.206678   520603 
 1943000    1.0178381   -3.7351194   -3.7351194   -2.5295982  0.066294053   -3.7351194    1.2055212   520603 
 1944000    1.0172297   -3.7341699   -3.7341699   -2.5293694  0.075838267   -3.7341699    1.2048006   520603 
 1945000     1.017122   -3.7339436   -3.7339436   -2.5292705  0.079220862   -3.7339436    1.2046731   520603 
 1946000    1.0163495   -3.7344719   -3.7344719   -2.5307138  0.073782441   -3.7344719    1.2037581   520603 
 1947000    1.0158738   -3.7342053   -3.7342053   -2.5310106  0.074149679   -3.7342053    1.2031947   520603 
 1948000    1.0173013     -3.73608     -3.73608   -2.5311946  0.069332832     -3.73608    1.2048854   520603 
 1949000     1.015632   -3.7342557   -3.7342557   -2.5313474  0.071360762   -3.7342557    1.2029083   520603 
 1950000    1.0155018    -3.734703    -3.734703   -2.5319489  0.061905682    -3.734703    1.2027541   520603 
 1951000    1.0181434   -3.7367689   -3.7367689   -2.5308862  0.056009041   -3.7367689    1.2058827   520603 
 1952000    1.0169293   -3.7351463   -3.7351463   -2.5307015  0.066628028   -3.7351463    1.2044448   520603 
 1953000    1.0177678   -3.7358845   -3.7358845   -2.5304465  0.077496638   -3.7358845    1.2054379   520603 
 1954000    1.0146373   -3.7330325   -3.7330325   -2.5313023   0.06737125   -3.7330325    1.2017302   520603 
 1955000    1.0158432    -3.735188    -3.735188   -2.5320296  0.074151526    -3.735188    1.2031584   520603 
 1956000    1.0183161   -3.7366818   -3.7366818   -2.5305945   0.07158072   -3.7366818    1.2060873   520603 
 1957000    1.0168679    -3.735812    -3.735812   -2.5314399  0.071716958    -3.735812    1.2043721   520603 
 1958000    1.0164038   -3.7355473   -3.7355473    -2.531725   0.08665734   -3.7355473    1.2038224   520603 
 1959000     1.016923   -3.7354191   -3.7354191   -2.5309818  0.073803556   -3.7354191    1.2044373   520603 
 1960000    1.0188994   -3.7372591   -3.7372591   -2.5304809  0.068658402   -3.7372591    1.2067782   520603 
 1961000    1.0167221   -3.7348213   -3.7348213   -2.5306218  0.069049275   -3.7348213    1.2041994   520603 
 1962000     1.018585   -3.7379666   -3.7379666   -2.5315607  0.065242854   -3.7379666    1.2064058   520603 
 1963000     1.016647   -3.7350558   -3.7350558   -2.5309453  0.082783475   -3.7350558    1.2041105   520603 
 1964000    1.0160977   -3.7351863   -3.7351863   -2.5317264  0.068210582   -3.7351863    1.2034599   520603 
 1965000    1.0175275   -3.7364966   -3.7364966   -2.5313433  0.084644347   -3.7364966    1.2051533   520603 
 1966000    1.0178235    -3.736785    -3.736785    -2.531281  0.072695661    -3.736785    1.2055039   520603 
 1967000    1.0190065   -3.7387536   -3.7387536   -2.5318485  0.063353628   -3.7387536     1.206905   520603 
 1968000    1.0176472   -3.7369159   -3.7369159   -2.5316209  0.068503804   -3.7369159     1.205295   520603 
 1969000    1.0183103   -3.7375264   -3.7375264   -2.5314459  0.067326263   -3.7375264    1.2060805   520603 
 1970000    1.0197326   -3.7385202   -3.7385202   -2.5307552  0.078729588   -3.7385202     1.207765   520603 
 1971000    1.0189243   -3.7385895   -3.7385895   -2.5317818  0.079091331   -3.7385895    1.2068077   520603 
 1972000    1.0184638   -3.7389078   -3.7389078   -2.5326455  0.079247653   -3.7389078    1.2062623   520603 
 1973000    1.0190169    -3.739997    -3.739997   -2.5330797    0.0717937    -3.739997    1.2069173   520603 
 1974000    1.0169922   -3.7370403   -3.7370403    -2.532521  0.073421555   -3.7370403    1.2045193   520603 
 1975000    1.0188213   -3.7387426   -3.7387426   -2.5320569  0.073174219   -3.7387426    1.2066857   520603 
 1976000    1.0171249   -3.7377772   -3.7377772   -2.5331007   0.07541111   -3.7377772    1.2046765   520603 
 1977000    1.0185363   -3.7394446   -3.7394446   -2.5330964  0.072042563   -3.7394446    1.2063482   520603 
 1978000    1.0159762   -3.7363184   -3.7363184   -2.5330025  0.062484394   -3.7363184    1.2033159   520603 
 1979000    1.0168131   -3.7373722   -3.7373722   -2.5330651  0.078903026   -3.7373722    1.2043072   520603 
 1980000    1.0179591   -3.7385067   -3.7385067   -2.5328422  0.068737154   -3.7385067    1.2056645   520603 
 1981000    1.0172978   -3.7379374   -3.7379374   -2.5330562  0.090165683   -3.7379374    1.2048812   520603 
 1982000    1.0191476   -3.7409819   -3.7409819   -2.5339098   0.07582005   -3.7409819    1.2070721   520603 
 1983000     1.017053   -3.7385656   -3.7385656   -2.5339743  0.075506438   -3.7385656    1.2045913   520603 
 1984000    1.0167994    -3.737321    -3.737321     -2.53303  0.071184002    -3.737321     1.204291   520603 
 1985000    1.0178468   -3.7379302   -3.7379302   -2.5323986  0.060545292   -3.7379302    1.2055315   520603 
 1986000    1.0179628   -3.7381221   -3.7381221   -2.5324532  0.067156581   -3.7381221    1.2056689   520603 
 1987000    1.0161951   -3.7362532   -3.7362532   -2.5326779   0.07893042   -3.7362532    1.2035753   520603 
 1988000    1.0183688    -3.738857    -3.738857   -2.5327072  0.073775958    -3.738857    1.2061498   520603 
 1989000    1.0169271   -3.7372244   -3.7372244   -2.5327822  0.075280662   -3.7372244    1.2044422   520603 
 1990000    1.0173775   -3.7370461   -3.7370461   -2.5320705  0.063707762   -3.7370461    1.2049756   520603 
 1991000    1.0187866   -3.7382433   -3.7382433   -2.5315988  0.061438918   -3.7382433    1.2066445   520603 
 1992000    1.0181538   -3.7381053   -3.7381053   -2.5322102  0.079912838   -3.7381053    1.2058951   520603 
 1993000    1.0179337   -3.7389838   -3.7389838   -2.5333493  0.084225087   -3.7389838    1.2056345   520603 
 1994000    1.0175951   -3.7378925   -3.7378925   -2.5326591  0.074829309   -3.7378925    1.2052334   520603 
 1995000    1.0186396   -3.7382997   -3.7382997   -2.5318292  0.077558081   -3.7382997    1.2064705   520603 
 1996000    1.0187965   -3.7389302   -3.7389302   -2.5322739  0.075652311   -3.7389302    1.2066564   520603 
 1997000    1.0167628   -3.7369388   -3.7369388   -2.5326912  0.073716703   -3.7369388    1.2042476   520603 
 1998000    1.0180623   -3.7391047   -3.7391047   -2.5333179   0.08692732   -3.7391047    1.2057868   520603 
 1999000    1.0172852   -3.7383412   -3.7383412   -2.5334749  0.066461203   -3.7383412    1.2048664   520603 
 2000000    1.0163343   -3.7374801   -3.7374801     -2.53374  0.074892742   -3.7374801    1.2037401   520603 
 2001000    1.0174866   -3.7393186   -3.7393186   -2.5342137  0.076183934   -3.7393186    1.2051048   520603 
 2002000    1.0159735   -3.7361113   -3.7361113   -2.5327985  0.067175309   -3.7361113    1.2033128   520603 
 2003000     1.017214   -3.7377463   -3.7377463   -2.5329644  0.058252677   -3.7377463     1.204782   520603 
 2004000    1.0164847   -3.7371773   -3.7371773    -2.533259  0.061007598   -3.7371773    1.2039182   520603 
 2005000    1.0167388   -3.7384092   -3.7384092     -2.53419  0.077793891   -3.7384092    1.2042192   520603 
 2006000    1.0152935   -3.7373846   -3.7373846   -2.5348771  0.070517931   -3.7373846    1.2025074   520603 
 2007000    1.0175916   -3.7404199   -3.7404199   -2.5351907  0.053174583   -3.7404199    1.2052292   520603 
 2008000    1.0151685   -3.7372549   -3.7372549   -2.5348956  0.070290601   -3.7372549    1.2023593   520603 
 2009000    1.0161102   -3.7381893   -3.7381893   -2.5347146  0.065896655   -3.7381893    1.2034747   520603 
 2010000    1.0165089   -3.7388864   -3.7388864   -2.5349395  0.086686103   -3.7388864    1.2039469   520603 
 2011000    1.0156363    -3.737392    -3.737392   -2.5344787  0.080265089    -3.737392    1.2029134   520603 
 2012000    1.0156334   -3.7369692   -3.7369692   -2.5340593  0.091172392   -3.7369692      1.20291   520603 
 2013000    1.0147383   -3.7367391   -3.7367391   -2.5348893  0.065359154   -3.7367391    1.2018499   520603 
 2014000    1.0168538   -3.7386252   -3.7386252   -2.5342699  0.076706681   -3.7386252    1.2043554   520603 
 2015000    1.0175418   -3.7388129   -3.7388129   -2.5336426  0.061896046   -3.7388129    1.2051703   520603 
 2016000    1.0176792   -3.7397657   -3.7397657   -2.5344327   0.07674654   -3.7397657    1.2053329   520603 
 2017000    1.0175874    -3.740701    -3.740701   -2.5354767  0.077529698    -3.740701    1.2052243   520603 
 2018000    1.0168812   -3.7399055   -3.7399055   -2.5355176  0.076990553   -3.7399055    1.2043879   520603 
 2019000    1.0172644   -3.7402971   -3.7402971   -2.5354553  0.070544024   -3.7402971    1.2048417   520603 
 2020000    1.0179888   -3.7418446   -3.7418446   -2.5361449    0.0776621   -3.7418446    1.2056996   520603 
 2021000    1.0167658   -3.7403287   -3.7403287   -2.5360775  0.070182842   -3.7403287    1.2042512   520603 
 2022000     1.017775   -3.7419067   -3.7419067   -2.5364603  0.067451395   -3.7419067    1.2054464   520603 
 2023000    1.0180291   -3.7405063   -3.7405063   -2.5347589  0.071617958   -3.7405063    1.2057475   520603 
 2024000    1.0167675   -3.7383501   -3.7383501   -2.5340969  0.080384444   -3.7383501    1.2042531   520603 
 2025000    1.0175142   -3.7384231   -3.7384231   -2.5332855   0.07247259   -3.7384231    1.2051376   520603 
 2026000    1.0187864   -3.7395777   -3.7395777   -2.5329333  0.077981745   -3.7395777    1.2066444   520603 
 2027000    1.0178553   -3.7390506   -3.7390506   -2.5335091  0.080999233   -3.7390506    1.2055415   520603 
 2028000    1.0181069   -3.7403209   -3.7403209   -2.5344812  0.077963614   -3.7403209    1.2058396   520603 
 2029000    1.0179678   -3.7408303   -3.7408303   -2.5351555  0.070289274   -3.7408303    1.2056748   520603 
 2030000    1.0182978   -3.7412618   -3.7412618   -2.5351961  0.082164854   -3.7412618    1.2060657   520603 
 2031000    1.0173496   -3.7397597   -3.7397597   -2.5348171  0.071703485   -3.7397597    1.2049426   520603 
 2032000     1.018609   -3.7405525   -3.7405525   -2.5341183   0.08875882   -3.7405525    1.2064342   520603 
 2033000    1.0181901   -3.7400676   -3.7400676   -2.5341294  0.073687246   -3.7400676    1.2059381   520603 
 2034000    1.0173516   -3.7392465   -3.7392465   -2.5343015  0.084698514   -3.7392465    1.2049449   520603 
 2035000    1.0166148   -3.7376105   -3.7376105   -2.5335382  0.065270941   -3.7376105    1.2040723   520603 
 2036000     1.016861   -3.7378274   -3.7378274   -2.5334635  0.075515774   -3.7378274     1.204364   520603 
 2037000    1.0163724   -3.7376857   -3.7376857   -2.5339005  0.052286059   -3.7376857    1.2037852   520603 
 2038000    1.0169541   -3.7380322   -3.7380322    -2.533558  0.072963046   -3.7380322    1.2044742   520603 
 2039000    1.0161593   -3.7374891   -3.7374891   -2.5339562  0.064060529   -3.7374891    1.2035329   520603 
 2040000    1.0153603   -3.7373106   -3.7373106    -2.534724  0.079141043   -3.7373106    1.2025866   520603 
 2041000    1.0143482   -3.7366923   -3.7366923   -2.5353045  0.076113522   -3.7366923    1.2013877   520603 
 2042000    1.0157335   -3.7385415   -3.7385415    -2.535513  0.057361746   -3.7385415    1.2030285   520603 
 2043000    1.0164228   -3.7388017   -3.7388017   -2.5349567  0.078411942   -3.7388017     1.203845   520603 
 2044000    1.0175688   -3.7407187   -3.7407187   -2.5355165  0.078659171   -3.7407187    1.2052022   520603 
 2045000    1.0175121    -3.740621    -3.740621   -2.5354859  0.074366448    -3.740621    1.2051351   520603 
 2046000     1.017685   -3.7410583   -3.7410583   -2.5357184  0.079887375   -3.7410583    1.2053399   520603 
 2047000    1.0169296   -3.7400905   -3.7400905   -2.5356453  0.070284976   -3.7400905    1.2044452   520603 
 2048000    1.0171318    -3.741262    -3.741262   -2.5365773  0.069174162    -3.741262    1.2046847   520603 
 2049000    1.0177113   -3.7409912   -3.7409912   -2.5356202  0.071579714   -3.7409912    1.2053711   520603 
 2050000    1.0176978   -3.7416221   -3.7416221   -2.5362671  0.075308961   -3.7416221     1.205355   520603 
 2051000    1.0172685   -3.7409734   -3.7409734   -2.5361269  0.082851047   -3.7409734    1.2048466   520603 
 2052000    1.0184415   -3.7432728   -3.7432728   -2.5370369  0.086489479   -3.7432728    1.2062359   520603 
 2053000    1.0176536   -3.7408796   -3.7408796   -2.5355769  0.078643836   -3.7408796    1.2053027   520603 
 2054000    1.0181932    -3.742055    -3.742055   -2.5361133  0.074075523    -3.742055    1.2059418   520603 
 2055000    1.0188394   -3.7428886   -3.7428886   -2.5361815  0.073284509   -3.7428886    1.2067071   520603 
 2056000    1.0172886    -3.741785    -3.741785   -2.5369146  0.077771578    -3.741785    1.2048704   520603 
 2057000    1.0177303   -3.7422019   -3.7422019   -2.5368084  0.068202237   -3.7422019    1.2053935   520603 
 2058000    1.0175709   -3.7413923   -3.7413923   -2.5361875  0.066727769   -3.7413923    1.2052047   520603 
 2059000    1.0185514   -3.7420453   -3.7420453   -2.5356793  0.059569636   -3.7420453     1.206366   520603 
 2060000    1.0161644   -3.7397734   -3.7397734   -2.5362346  0.081874143   -3.7397734    1.2035388   520603 
 2061000    1.0158062   -3.7395038   -3.7395038   -2.5363892  0.062486208   -3.7395038    1.2031146   520603 
 2062000     1.015257   -3.7391023   -3.7391023   -2.5366381  0.075960593   -3.7391023    1.2024642   520603 
 2063000    1.0147754   -3.7385702   -3.7385702   -2.5366764   0.07359974   -3.7385702    1.2018937   520603 
 2064000    1.0170914   -3.7415898   -3.7415898   -2.5369529  0.065528643   -3.7415898    1.2046369   520603 
 2065000    1.0183353   -3.7425597   -3.7425597   -2.5364496  0.074274471   -3.7425597    1.2061101   520603 
 2066000    1.0168006   -3.7407898   -3.7407898   -2.5364973  0.060798178   -3.7407898    1.2042924   520603 
 2067000    1.0143646   -3.7378753   -3.7378753   -2.5364681  0.067057331   -3.7378753    1.2014072   520603 
 2068000    1.0147094   -3.7379199   -3.7379199   -2.5361043  0.064566073   -3.7379199    1.2018156   520603 
 2069000    1.0162244   -3.7392624   -3.7392624   -2.5356525  0.079767319   -3.7392624      1.20361   520603 
 2070000    1.0177243   -3.7412782   -3.7412782   -2.5358918  0.067138051   -3.7412782    1.2053864   520603 
 2071000    1.0174937   -3.7408574   -3.7408574   -2.5357441   0.06174668   -3.7408574    1.2051133   520603 
 2072000    1.0191904   -3.7424404   -3.7424404   -2.5353176  0.067499887   -3.7424404    1.2071228   520603 
 2073000    1.0178208   -3.7402735   -3.7402735   -2.5347727  0.070129388   -3.7402735    1.2055007   520603 
 2074000    1.0183245   -3.7417064   -3.7417064   -2.5356091  0.077221445   -3.7417064    1.2060973   520603 
 2075000     1.017528   -3.7412218   -3.7412218   -2.5360678  0.081983956   -3.7412218    1.2051539   520603 
 2076000    1.0187936    -3.742847    -3.742847   -2.5361941   0.07482407    -3.742847    1.2066529   520603 
 2077000    1.0184045   -3.7422035   -3.7422035   -2.5360115  0.081278653   -3.7422035    1.2061921   520603 
 2078000    1.0178648   -3.7414685   -3.7414685   -2.5359156  0.083034792   -3.7414685    1.2055529   520603 
 2079000    1.0163187   -3.7402844   -3.7402844   -2.5365627  0.089959404   -3.7402844    1.2037217   520603 
 2080000     1.017792   -3.7420838   -3.7420838   -2.5366172  0.091190688   -3.7420838    1.2054666   520603 
 2081000    1.0180928   -3.7424371   -3.7424371   -2.5366142   0.07804292   -3.7424371    1.2058229   520603 
 2082000     1.015972   -3.7399283   -3.7399283   -2.5366174  0.072366326   -3.7399283     1.203311   520603 
 2083000    1.0179263   -3.7419261   -3.7419261   -2.5363004  0.071511225   -3.7419261    1.2056257   520603 
 2084000    1.0167071    -3.740709    -3.740709   -2.5365274   0.05608774    -3.740709    1.2041816   520603 
 2085000    1.0156981   -3.7392511   -3.7392511   -2.5362645  0.073774081   -3.7392511    1.2029866   520603 
 2086000    1.0162226   -3.7405711   -3.7405711   -2.5369633  0.078540212   -3.7405711    1.2036078   520603 
 2087000    1.0155319   -3.7406979   -3.7406979   -2.5379081  0.054967425   -3.7406979    1.2027898   520603 
 2088000    1.0164292    -3.741848    -3.741848   -2.5379955  0.063847964    -3.741848    1.2038525   520603 
 2089000    1.0146418   -3.7404122   -3.7404122   -2.5386766  0.082184769   -3.7404122    1.2017356   520603 
 2090000    1.0151536    -3.741017    -3.741017   -2.5386753  0.069528645    -3.741017    1.2023417   520603 
 2091000     1.014651   -3.7396553   -3.7396553   -2.5379089   0.05411932   -3.7396553    1.2017464   520603 
 2092000    1.0169183   -3.7424245   -3.7424245   -2.5379928  0.071308968   -3.7424245    1.2044318   520603 
 2093000    1.0155757   -3.7416151   -3.7416151   -2.5387735  0.055893303   -3.7416151    1.2028416   520603 
 2094000    1.0176167   -3.7444324   -3.7444324   -2.5391735  0.068095602   -3.7444324     1.205259   520603 
 2095000    1.0172971   -3.7432223   -3.7432223   -2.5383418  0.069257801   -3.7432223    1.2048804   520603 
 2096000    1.0173003   -3.7438828   -3.7438828   -2.5389985  0.072798442   -3.7438828    1.2048843   520603 
 2097000     1.018023   -3.7437993   -3.7437993   -2.5380591  0.069468937   -3.7437993    1.2057402   520603 
 2098000     1.018905   -3.7451914   -3.7451914   -2.5384065  0.062616661   -3.7451914    1.2067849   520603 
 2099000    1.0172019   -3.7425049   -3.7425049   -2.5377373  0.081097168   -3.7425049    1.2047677   520603 
 2100000    1.0185078   -3.7437444   -3.7437444     -2.53743  0.081286354   -3.7437444    1.2063144   520603 
 2101000    1.0204912   -3.7464421   -3.7464421   -2.5377786   0.08664746   -3.7464421    1.2086635   520603 
 2102000    1.0196658   -3.7452565   -3.7452565   -2.5375705  0.077126002   -3.7452565    1.2076859   520603 
 2103000    1.0204803   -3.7456536   -3.7456536    -2.537003  0.077269298   -3.7456536    1.2086506   520603 
 2104000    1.0203678   -3.7463874   -3.7463874     -2.53787  0.076945433   -3.7463874    1.2085173   520603 
 2105000    1.0190776   -3.7456947   -3.7456947   -2.5387054  0.084215245   -3.7456947    1.2069893   520603 
 2106000    1.0165469   -3.7421153   -3.7421153   -2.5381235  0.071894379   -3.7421153    1.2039919   520603 
 2107000    1.0164086    -3.742486    -3.742486   -2.5386579  0.078857041    -3.742486    1.2038281   520603 
 2108000     1.016927    -3.742581    -3.742581   -2.5381389  0.067295271    -3.742581    1.2044421   520603 
 2109000    1.0167071   -3.7415955   -3.7415955   -2.5374139  0.067223211   -3.7415955    1.2041817   520603 
 2110000    1.0166248   -3.7418353   -3.7418353    -2.537751  0.082977613   -3.7418353    1.2040842   520603 
 2111000    1.0167786   -3.7422949   -3.7422949   -2.5380286  0.073712431   -3.7422949    1.2042663   520603 
 2112000    1.0181142   -3.7436672   -3.7436672    -2.537819  0.076559607   -3.7436672    1.2058482   520603 
 2113000    1.0176829   -3.7439781   -3.7439781   -2.5386407  0.066611992   -3.7439781    1.2053374   520603 
 2114000    1.0176906   -3.7429219   -3.7429219   -2.5375754  0.068411832   -3.7429219    1.2053465   520603 
 2115000    1.0170438   -3.7426054   -3.7426054   -2.5380249  0.068560821   -3.7426054    1.2045804   520603 
 2116000    1.0159576   -3.7411353   -3.7411353   -2.5378413  0.083937765   -3.7411353     1.203294   520603 
 2117000    1.0160754   -3.7414285   -3.7414285    -2.537995  0.074252174   -3.7414285    1.2034335   520603 
 2118000    1.0164867   -3.7417278   -3.7417278   -2.5378072  0.076340135   -3.7417278    1.2039206   520603 
 2119000    1.0164531   -3.7414947   -3.7414947   -2.5376139  0.070262427   -3.7414947    1.2038808   520603 
 2120000    1.0164557   -3.7420099   -3.7420099    -2.538126  0.055635223   -3.7420099    1.2038839   520603 
 2121000    1.0160079   -3.7415735   -3.7415735     -2.53822  0.081850286   -3.7415735    1.2033535   520603 
 2122000    1.0159894   -3.7408796   -3.7408796    -2.537548  0.086141048   -3.7408796    1.2033316   520603 
 2123000    1.0177463   -3.7434206   -3.7434206   -2.5380082   0.07421087   -3.7434206    1.2054125   520603 
 2124000    1.0185678   -3.7442277   -3.7442277   -2.5378423  0.065653027   -3.7442277    1.2063855   520603 
 2125000    1.0188518   -3.7452804   -3.7452804   -2.5385585  0.073267027   -3.7452804    1.2067219   520603 
 2126000    1.0171041   -3.7428723   -3.7428723   -2.5382204  0.083890288   -3.7428723    1.2046519   520603 
 2127000    1.0157923   -3.7414863   -3.7414863   -2.5383881  0.067662122   -3.7414863    1.2030982   520603 
 2128000    1.0170694   -3.7430085   -3.7430085   -2.5383978  0.070056811   -3.7430085    1.2046107   520603 
 2129000    1.0177714   -3.7438224   -3.7438224   -2.5383802  0.079869102   -3.7438224    1.2054423   520603 
 2130000    1.0196681    -3.745559    -3.745559   -2.5378704  0.071389625    -3.745559    1.2076886   520603 
 2131000    1.0172992   -3.7425763   -3.7425763   -2.5376934  0.072750331   -3.7425763     1.204883   520603 
 2132000    1.0175517   -3.7431145   -3.7431145   -2.5379325  0.062636671   -3.7431145     1.205182   520603 
 2133000    1.0170017   -3.7426195   -3.7426195   -2.5380888  0.097299201   -3.7426195    1.2045306   520603 
 2134000    1.0160122    -3.741183    -3.741183   -2.5378244  0.077207859    -3.741183    1.2033586   520603 
 2135000    1.0164726    -3.741719    -3.741719   -2.5378151   0.07976635    -3.741719    1.2039039   520603 
 2136000    1.0160383   -3.7407854   -3.7407854   -2.5373959  0.093416775   -3.7407854    1.2033895   520603 
 2137000    1.0164837   -3.7409013   -3.7409013   -2.5369842  0.058738854   -3.7409013    1.2039171   520603 
 2138000    1.0170228   -3.7407938   -3.7407938   -2.5362382  0.066663998   -3.7407938    1.2045556   520603 
 2139000    1.0160334   -3.7408667   -3.7408667    -2.537483  0.073061742   -3.7408667    1.2033837   520603 
 2140000    1.0177966   -3.7424288   -3.7424288   -2.5369567  0.073781616   -3.7424288    1.2054721   520603 
 2141000    1.0174593   -3.7414931   -3.7414931   -2.5364205  0.071028362   -3.7414931    1.2050725   520603 
 2142000    1.0165363   -3.7410411   -3.7410411   -2.5370617  0.066556351   -3.7410411    1.2039794   520603 
 2143000     1.016434   -3.7410225   -3.7410225   -2.5371642  0.080791443   -3.7410225    1.2038582   520603 
 2144000    1.0180032   -3.7433161   -3.7433161   -2.5375993   0.07786474   -3.7433161    1.2057167   520603 
 2145000     1.018842   -3.7442922   -3.7442922    -2.537582  0.063548158   -3.7442922    1.2067102   520603 
 2146000    1.0178383   -3.7435079   -3.7435079   -2.5379864  0.078646914   -3.7435079    1.2055214   520603 
 2147000     1.017433   -3.7422687   -3.7422687   -2.5372274  0.083025672   -3.7422687    1.2050414   520603 
 2148000    1.0169742   -3.7423363   -3.7423363   -2.5378383  0.064507852   -3.7423363     1.204498   520603 
 2149000    1.0183346   -3.7440607   -3.7440607   -2.5379514  0.077376824   -3.7440607    1.2061093   520603 
 2150000    1.0160747   -3.7418568   -3.7418568   -2.5384243  0.063811642   -3.7418568    1.2034326   520603 
 2151000    1.0179015   -3.7437746   -3.7437746   -2.5381783  0.060885628   -3.7437746    1.2055963   520603 
 2152000    1.0180508    -3.744415    -3.744415   -2.5386419  0.074504059    -3.744415    1.2057731   520603 
 2153000    1.0177023   -3.7438183   -3.7438183    -2.538458  0.063387859   -3.7438183    1.2053603   520603 
 2154000    1.0165967    -3.741968    -3.741968    -2.537917  0.082152146    -3.741968     1.204051   520603 
 2155000     1.018158   -3.7437568   -3.7437568   -2.5378567  0.069168966   -3.7437568    1.2059001   520603 
 2156000    1.0171612   -3.7423887   -3.7423887   -2.5376692  0.069856744   -3.7423887    1.2047195   520603 
 2157000     1.018693   -3.7444036   -3.7444036   -2.5378699  0.070958505   -3.7444036    1.2065337   520603 
 2158000    1.0173638    -3.743795    -3.743795   -2.5388355  0.070032891    -3.743795    1.2049595   520603 
 2159000    1.0151583   -3.7405894   -3.7405894   -2.5382421  0.081214261   -3.7405894    1.2023473   520603 
 2160000    1.0167228   -3.7430934   -3.7430934   -2.5388931   0.06366034   -3.7430934    1.2042002   520603 
 2161000    1.0173811   -3.7432656   -3.7432656   -2.5382856   0.05857556   -3.7432656      1.20498   520603 
 2162000    1.0181555     -3.74461     -3.74461   -2.5387129  0.078580378     -3.74461    1.2058971   520603 
 2163000    1.0155065   -3.7423576   -3.7423576   -2.5395979  0.073296582   -3.7423576    1.2027596   520603 
 2164000    1.0179294    -3.745065    -3.745065   -2.5394357  0.082619543    -3.745065    1.2056293   520603 
 2165000    1.0184202   -3.7450727   -3.7450727   -2.5388621  0.061868483   -3.7450727    1.2062107   520603 
 2166000    1.0181342   -3.7442836   -3.7442836   -2.5384117  0.076393882   -3.7442836    1.2058719   520603 
 2167000    1.0184879   -3.7446502   -3.7446502   -2.5383594  0.073530609   -3.7446502    1.2062908   520603 
 2168000    1.0175185   -3.7437173   -3.7437173   -2.5385747  0.070132448   -3.7437173    1.2051426   520603 
 2169000    1.0158595   -3.7414133   -3.7414133   -2.5382355  0.077845977   -3.7414133    1.2031778   520603 
 2170000     1.016313   -3.7419739   -3.7419739   -2.5382589  0.085055549   -3.7419739    1.2037149   520603 
 2171000    1.0160129   -3.7416644   -3.7416644    -2.538305  0.057462296   -3.7416644    1.2033594   520603 
 2172000    1.0137398   -3.7392665   -3.7392665   -2.5385993  0.064691969   -3.7392665    1.2006671   520603 
 2173000    1.0149853   -3.7405917   -3.7405917   -2.5384494  0.064143576   -3.7405917    1.2021423   520603 
 2174000    1.0145198   -3.7391404   -3.7391404   -2.5375493   0.07212573   -3.7391404    1.2015911   520603 
 2175000    1.0157789   -3.7408173   -3.7408173    -2.537735  0.079222486   -3.7408173    1.2030823   520603 
 2176000     1.015888   -3.7407366   -3.7407366   -2.5375251  0.069673051   -3.7407366    1.2032115   520603 
 2177000    1.0139759   -3.7388076   -3.7388076   -2.5378607  0.067808233   -3.7388076    1.2009469   520603 
 2178000    1.0140807    -3.738347    -3.738347   -2.5372761  0.061732514    -3.738347    1.2010709   520603 
 2179000    1.0147106   -3.7395956   -3.7395956   -2.5377786  0.062832328   -3.7395956     1.201817   520603 
 2180000     1.015579   -3.7406258   -3.7406258   -2.5377802  0.079255971   -3.7406258    1.2028456   520603 
 2181000    1.0159796   -3.7410768   -3.7410768   -2.5377568  0.074018184   -3.7410768      1.20332   520603 
 2182000    1.0137252   -3.7400278   -3.7400278   -2.5393779  0.060324916   -3.7400278    1.2006499   520603 
 2183000    1.0151508   -3.7410043   -3.7410043    -2.538666  0.079980276   -3.7410043    1.2023383   520603 
 2184000    1.0151573   -3.7412972   -3.7412972   -2.5389512  0.062631739   -3.7412972    1.2023461   520603 
 2185000    1.0162413   -3.7431317   -3.7431317   -2.5395018  0.064653919   -3.7431317    1.2036299   520603 
 2186000    1.0177046   -3.7452087   -3.7452087   -2.5398456   0.06739407   -3.7452087     1.205363   520603 
 2187000    1.0175184   -3.7448742   -3.7448742   -2.5397317  0.066617276   -3.7448742    1.2051425   520603 
 2188000    1.0161564   -3.7434587   -3.7434587   -2.5399293  0.076654809   -3.7434587    1.2035294   520603 
 2189000    1.0177066   -3.7450144   -3.7450144    -2.539649   0.07008812   -3.7450144    1.2053654   520603 
 2190000    1.0163759   -3.7441989   -3.7441989   -2.5404095  0.076314106   -3.7441989    1.2037894   520603 
 2191000    1.0165534   -3.7444336   -3.7444336    -2.540434  0.077725162   -3.7444336    1.2039996   520603 
 2192000    1.0170088   -3.7446801   -3.7446801   -2.5401411  0.081172128   -3.7446801     1.204539   520603 
 2193000    1.0161101    -3.744368    -3.744368   -2.5408934  0.080589748    -3.744368    1.2034746   520603 
 2194000    1.0187774   -3.7465639   -3.7465639   -2.5399302  0.063928571   -3.7465639    1.2066337   520603 
 2195000     1.018977   -3.7470051   -3.7470051    -2.540135  0.075760049   -3.7470051    1.2068701   520603 
 2196000    1.0172169    -3.743859    -3.743859   -2.5390736  0.065412965    -3.743859    1.2047854   520603 
 2197000    1.0176659   -3.7439375   -3.7439375   -2.5386202   0.07952308   -3.7439375    1.2053173   520603 
 2198000    1.0176863   -3.7446416   -3.7446416   -2.5393002  0.072680215   -3.7446416    1.2053414   520603 
 2199000    1.0171389   -3.7443316   -3.7443316   -2.5396385  0.079263387   -3.7443316    1.2046931   520603 
 2200000    1.0163517   -3.7431096   -3.7431096   -2.5393489  0.078173057   -3.7431096    1.2037607   520603 
 2201000    1.0156847   -3.7432888   -3.7432888   -2.5403182  0.075125167   -3.7432888    1.2029707   520603 
 2202000    1.0161442   -3.7430537   -3.7430537   -2.5395387  0.083324938   -3.7430537     1.203515   520603 
 2203000    1.0143964   -3.7413965   -3.7413965   -2.5399516  0.071933817   -3.7413965    1.2014449   520603 
 2204000    1.0147728   -3.7417379   -3.7417379   -2.5398473   0.06036581   -3.7417379    1.2018906   520603 
 2205000    1.0154031   -3.7424394   -3.7424394   -2.5398022  0.078050056   -3.7424394    1.2026372   520603 
 2206000     1.015163   -3.7416428   -3.7416428   -2.5392899  0.064499316   -3.7416428    1.2023529   520603 
 2207000    1.0154724   -3.7421352   -3.7421352   -2.5394159  0.075668587   -3.7421352    1.2027193   520603 
 2208000     1.016317   -3.7427371   -3.7427371   -2.5390175  0.069040809   -3.7427371    1.2037196   520603 
 2209000    1.0158401   -3.7421094   -3.7421094   -2.5389546  0.068144457   -3.7421094    1.2031548   520603 
 2210000    1.0171816   -3.7432384   -3.7432384   -2.5384948  0.079033639   -3.7432384    1.2047436   520603 
 2211000    1.0149799    -3.740882    -3.740882    -2.538746  0.070004173    -3.740882    1.2021359   520603 
 2212000    1.0158415   -3.7427019   -3.7427019   -2.5395454  0.072241689   -3.7427019    1.2031565   520603 
 2213000    1.0150839   -3.7417001   -3.7417001    -2.539441  0.069591669   -3.7417001    1.2022591   520603 
 2214000    1.0161991   -3.7422038   -3.7422038   -2.5386237  0.056409097   -3.7422038      1.20358   520603 
 2215000    1.0165009    -3.743449    -3.743449   -2.5395116  0.057981529    -3.743449    1.2039374   520603 
 2216000    1.0165377   -3.7434856   -3.7434856   -2.5395046   0.07266123   -3.7434856     1.203981   520603 
 2217000    1.0176808   -3.7448967   -3.7448967   -2.5395617  0.065243726   -3.7448967    1.2053349   520603 
 2218000    1.0162833   -3.7429445   -3.7429445   -2.5392648  0.066674472   -3.7429445    1.2036797   520603 
 2219000    1.0161685   -3.7433646   -3.7433646   -2.5398208   0.07797678   -3.7433646    1.2035438   520603 
 2220000    1.0164747   -3.7435874   -3.7435874    -2.539681  0.082407049   -3.7435874    1.2039065   520603 
 2221000     1.016424   -3.7436289   -3.7436289   -2.5397825  0.082283563   -3.7436289    1.2038464   520603 
 2222000    1.0169108   -3.7445439   -3.7445439    -2.540121  0.075900698   -3.7445439    1.2044229   520603 
 2223000    1.0170865   -3.7455459   -3.7455459   -2.5409149  0.071399395   -3.7455459     1.204631   520603 
 2224000    1.0187164   -3.7476837   -3.7476837   -2.5411222  0.078362487   -3.7476837    1.2065614   520603 
 2225000    1.0169988   -3.7460278   -3.7460278   -2.5415007  0.070011381   -3.7460278    1.2045271   520603 
 2226000    1.0168565   -3.7459282   -3.7459282   -2.5415696  0.074520735   -3.7459282    1.2043587   520603 
 2227000     1.018582   -3.7473383   -3.7473383   -2.5409361  0.076580086   -3.7473383    1.2064022   520603 
 2228000    1.0169776   -3.7457323   -3.7457323   -2.5412303  0.074461109   -3.7457323     1.204502   520603 
 2229000    1.0170494   -3.7458978   -3.7458978   -2.5413107  0.069737111   -3.7458978    1.2045871   520603 
 2230000    1.0165858   -3.7451517   -3.7451517   -2.5411137  0.083872736   -3.7451517     1.204038   520603 
 2231000    1.0161951   -3.7449512   -3.7449512   -2.5413759  0.080340102   -3.7449512    1.2035753   520603 
 2232000     1.017521   -3.7466488   -3.7466488   -2.5415032  0.081494367   -3.7466488    1.2051456   520603 
 2233000    1.0164688   -3.7452184   -3.7452184   -2.5413189  0.058195099   -3.7452184    1.2038995   520603 
 2234000    1.0167674   -3.7457108   -3.7457108   -2.5414577  0.070762263   -3.7457108    1.2042531   520603 
 2235000     1.016554    -3.745567    -3.745567   -2.5415667  0.067216014    -3.745567    1.2040003   520603 
 2236000    1.0172672   -3.7455407   -3.7455407   -2.5406957  0.068662207   -3.7455407     1.204845   520603 
 2237000    1.0159094   -3.7445284   -3.7445284   -2.5412915  0.062179678   -3.7445284    1.2032369   520603 
 2238000    1.0161359   -3.7445805   -3.7445805   -2.5410754  0.089829247   -3.7445805    1.2035051   520603 
 2239000    1.0152882   -3.7438288   -3.7438288   -2.5413276  0.070902936   -3.7438288    1.2025011   520603 
 2240000    1.0166444   -3.7452042   -3.7452042   -2.5410968   0.07319684   -3.7452042    1.2041074   520603 
 2241000    1.0154437   -3.7446748   -3.7446748   -2.5419894  0.069983714   -3.7446748    1.2026853   520603 
 2242000     1.016781    -3.745379    -3.745379   -2.5411098  0.065322972    -3.745379    1.2042692   520603 
 2243000    1.0156139   -3.7444192   -3.7444192   -2.5415323  0.072313338   -3.7444192    1.2028869   520603 
 2244000    1.0140812   -3.7429112   -3.7429112   -2.5418397  0.064235769   -3.7429112    1.2010715   520603 
 2245000    1.0164169   -3.7457665   -3.7457665   -2.5419286  0.070193713   -3.7457665    1.2038379   520603 
 2246000    1.0136588   -3.7420593   -3.7420593    -2.541488  0.080208514   -3.7420593    1.2005713   520603 
 2247000    1.0143171   -3.7425211   -3.7425211   -2.5411701  0.068357554   -3.7425211    1.2013509   520603 
 2248000    1.0149521   -3.7433922   -3.7433922   -2.5412892  0.071300413   -3.7433922     1.202103   520603 
 2249000    1.0147671   -3.7430243   -3.7430243   -2.5411403  0.081345093   -3.7430243     1.201884   520603 
 2250000    1.0160984   -3.7445946   -3.7445946   -2.5411339  0.068535924   -3.7445946    1.2034607   520603 
 2251000    1.0162195   -3.7444231   -3.7444231   -2.5408189  0.071613207   -3.7444231    1.2036042   520603 
 2252000    1.0179951   -3.7465763   -3.7465763   -2.5408692  0.063639777   -3.7465763    1.2057072   520603 
 2253000    1.0172632   -3.7452281   -3.7452281   -2.5403878  0.066250999   -3.7452281    1.2048403   520603 
 2254000    1.0178663   -3.7458562   -3.7458562   -2.5403016   0.07596501   -3.7458562    1.2055546   520603 
 2255000    1.0177193   -3.7461265   -3.7461265   -2.5407459  0.073426061   -3.7461265    1.2053805   520603 
 2256000    1.0168039   -3.7445693   -3.7445693    -2.540273  0.079394925   -3.7445693    1.2042963   520603 
 2257000    1.0168717   -3.7445962   -3.7445962   -2.5402196  0.075591582   -3.7445962    1.2043766   520603 
 2258000      1.01546   -3.7431135   -3.7431135   -2.5404089  0.074273725   -3.7431135    1.2027046   520603 
 2259000    1.0159277   -3.7436606   -3.7436606   -2.5404021  0.078625327   -3.7436606    1.2032585   520603 
 2260000    1.0163238   -3.7451695   -3.7451695   -2.5414418  0.069586236   -3.7451695    1.2037277   520603 
 2261000    1.0168231   -3.7461659   -3.7461659   -2.5418468  0.059817734   -3.7461659    1.2043191   520603 
 2262000    1.0153266   -3.7447112   -3.7447112   -2.5421646  0.074340688   -3.7447112    1.2025466   520603 
 2263000     1.017516   -3.7483686   -3.7483686   -2.5432288  0.073566555   -3.7483686    1.2051398   520603 
 2264000    1.0162826   -3.7471897   -3.7471897   -2.5435109  0.068984261   -3.7471897    1.2036789   520603 
 2265000    1.0158771   -3.7448732   -3.7448732   -2.5416746  0.069495071   -3.7448732    1.2031986   520603 
 2266000    1.0171682   -3.7454525   -3.7454525   -2.5407248   0.07182745   -3.7454525    1.2047277   520603 
 2267000    1.0164807   -3.7441212   -3.7441212   -2.5402077  0.072863465   -3.7441212    1.2039136   520603 
 2268000    1.0170234   -3.7453973   -3.7453973   -2.5408411  0.074783734   -3.7453973    1.2045562   520603 
 2269000    1.0164817   -3.7455001   -3.7455001   -2.5415854  0.060622642   -3.7455001    1.2039147   520603 
 2270000    1.0171205   -3.7463579   -3.7463579   -2.5416867  0.068761299   -3.7463579    1.2046712   520603 
 2271000    1.0166813   -3.7464009   -3.7464009   -2.5422498  0.074620817   -3.7464009    1.2041511   520603 
 2272000    1.0141656   -3.7426097   -3.7426097   -2.5414382  0.083868379   -3.7426097    1.2011715   520603 
 2273000    1.0152642   -3.7434246   -3.7434246    -2.540952   0.07653114   -3.7434246    1.2024726   520603 
 2274000    1.0155049   -3.7448131   -3.7448131   -2.5420553  0.074698048   -3.7448131    1.2027578   520603 
 2275000    1.0167316   -3.7447176   -3.7447176   -2.5405069  0.063451858   -3.7447176    1.2042106   520603 
 2276000      1.01656   -3.7447678   -3.7447678   -2.5407604  0.068565996   -3.7447678    1.2040074   520603 
 2277000    1.0145411   -3.7431931   -3.7431931   -2.5415769  0.063829053   -3.7431931    1.2016163   520603 
 2278000    1.0142145   -3.7430164   -3.7430164   -2.5417869  0.073022734   -3.7430164    1.2012295   520603 
 2279000    1.0130998   -3.7413549   -3.7413549   -2.5414457  0.072038062   -3.7413549    1.1999092   520603 
 2280000     1.016751    -3.745363    -3.745363   -2.5411293  0.076881703    -3.745363    1.2042336   520603 
 2281000    1.0156603   -3.7444247   -3.7444247   -2.5414829   0.07699255   -3.7444247    1.2029418   520603 
 2282000    1.0157505   -3.7454149   -3.7454149   -2.5423663   0.06171129   -3.7454149    1.2030487   520603 
 2283000    1.0160654   -3.7458559   -3.7458559   -2.5424342  0.078694474   -3.7458559    1.2034217   520603 
 2284000    1.0138645   -3.7441505   -3.7441505   -2.5433357  0.076235552   -3.7441505    1.2008149   520603 
 2285000    1.0149251    -3.745078    -3.745078   -2.5430069  0.077826993    -3.745078    1.2020711   520603 
 2286000    1.0134102   -3.7432378   -3.7432378   -2.5429609   0.07147665   -3.7432378    1.2002769   520603 
 2287000    1.0141505   -3.7437761   -3.7437761   -2.5426224  0.067655494   -3.7437761    1.2011537   520603 
 2288000    1.0158844   -3.7451907   -3.7451907   -2.5419834  0.067451227   -3.7451907    1.2032073   520603 
 2289000    1.0152795   -3.7455161   -3.7455161   -2.5430253  0.074487915   -3.7455161    1.2024908   520603 
 2290000    1.0164124   -3.7463977   -3.7463977   -2.5425651  0.065255972   -3.7463977    1.2038326   520603 
 2291000    1.0178743   -3.7474024   -3.7474024   -2.5418383  0.068935633   -3.7474024    1.2055641   520603 
 2292000    1.0166244   -3.7465036   -3.7465036   -2.5424198  0.081365039   -3.7465036    1.2040838   520603 
 2293000    1.0168658   -3.7461296   -3.7461296   -2.5417599  0.078735473   -3.7461296    1.2043696   520603 
 2294000    1.0166301   -3.7463971   -3.7463971   -2.5423066  0.074919928   -3.7463971    1.2040904   520603 
 2295000    1.0162212   -3.7456873   -3.7456873   -2.5420811  0.084083818   -3.7456873    1.2036062   520603 
 2296000    1.0166659   -3.7462987   -3.7462987   -2.5421659  0.086505075   -3.7462987    1.2041328   520603 
 2297000    1.0178845   -3.7478828   -3.7478828   -2.5423067  0.057441713   -3.7478828    1.2055762   520603 
 2298000    1.0172987   -3.7469932   -3.7469932   -2.5421108  0.065247475   -3.7469932    1.2048824   520603 
 2299000    1.0170538   -3.7473841   -3.7473841   -2.5427917  0.068431647   -3.7473841    1.2045923   520603 
 2300000    1.0176015   -3.7467442   -3.7467442   -2.5415033  0.081285978   -3.7467442     1.205241   520603 
 2301000    1.0159261   -3.7448194   -3.7448194   -2.5415628  0.093162334   -3.7448194    1.2032566   520603 
 2302000    1.0169331   -3.7461469   -3.7461469   -2.5416975  0.068457699   -3.7461469    1.2044494   520603 
 2303000    1.0163051   -3.7465105   -3.7465105    -2.542805  0.070740413   -3.7465105    1.2037055   520603 
 2304000    1.0136708   -3.7430364   -3.7430364    -2.542451  0.061514395   -3.7430364    1.2005854   520603 
 2305000    1.0152327   -3.7446307   -3.7446307   -2.5421953  0.063642852   -3.7446307    1.2024354   520603 
 2306000    1.0160451   -3.7448211   -3.7448211   -2.5414235  0.078418758   -3.7448211    1.2033976   520603 
 2307000    1.0139924   -3.7427326   -3.7427326   -2.5417663  0.065047336   -3.7427326    1.2009663   520603 
 2308000    1.0143609   -3.7432788   -3.7432788   -2.5418759  0.072537047   -3.7432788    1.2014028   520603 
 2309000    1.0139332   -3.7438353   -3.7438353    -2.542939  0.064269288   -3.7438353    1.2008963   520603 
 2310000    1.0129724   -3.7440114   -3.7440114    -2.544253  0.065859612   -3.7440114    1.1997583   520603 
 2311000    1.0131133   -3.7437116   -3.7437116   -2.5437864  0.073264344   -3.7437116    1.1999252   520603 
 2312000    1.0160374   -3.7462022   -3.7462022   -2.5428137  0.064880674   -3.7462022    1.2033885   520603 
 2313000     1.015692   -3.7458546   -3.7458546   -2.5428753  0.068995023   -3.7458546    1.2029793   520603 
 2314000    1.0148155   -3.7452674   -3.7452674   -2.5433262  0.075203576   -3.7452674    1.2019412   520603 
 2315000    1.0164301   -3.7474968   -3.7474968   -2.5436432  0.072549277   -3.7474968    1.2038536   520603 
 2316000    1.0179428   -3.7491452   -3.7491452      -2.5435  0.060866835   -3.7491452    1.2056452   520603 
 2317000     1.015934   -3.7470414   -3.7470414   -2.5437754  0.065867466   -3.7470414    1.2032661   520603 
 2318000    1.0154242   -3.7463712   -3.7463712    -2.543709  0.082214764   -3.7463712    1.2026622   520603 
 2319000    1.0160711   -3.7470678   -3.7470678   -2.5436395   0.07578003   -3.7470678    1.2034284   520603 
 2320000    1.0166501   -3.7481802   -3.7481802   -2.5440661  0.079215095   -3.7481802    1.2041142   520603 
 2321000    1.0147536   -3.7461554   -3.7461554   -2.5442875  0.093131169   -3.7461554    1.2018679   520603 
 2322000    1.0163119   -3.7475973   -3.7475973   -2.5438837  0.073012739   -3.7475973    1.2037136   520603 
 2323000    1.0151237   -3.7459604   -3.7459604   -2.5436541  0.082318535   -3.7459604    1.2023063   520603 
 2324000    1.0172204   -3.7487213   -3.7487213   -2.5439316  0.082377806   -3.7487213    1.2047897   520603 
 2325000    1.0159664   -3.7475122   -3.7475122   -2.5442078  0.080618346   -3.7475122    1.2033044   520603 
 2326000    1.0157409   -3.7471837   -3.7471837   -2.5441464  0.086001188   -3.7471837    1.2030373   520603 
 2327000    1.0179918     -3.75017     -3.75017   -2.5444668  0.083920105     -3.75017    1.2057032   520603 
 2328000     1.016607   -3.7479665   -3.7479665   -2.5439033  0.081853716   -3.7479665    1.2040631   520603 
 2329000    1.0147431   -3.7468077   -3.7468077   -2.5449521  0.064949547   -3.7468077    1.2018555   520603 
 2330000    1.0143867    -3.746897    -3.746897   -2.5454636  0.079372571    -3.746897    1.2014334   520603 
 2331000    1.0152293   -3.7471437   -3.7471437   -2.5447124  0.081361259   -3.7471437    1.2024314   520603 
 2332000    1.0152621   -3.7477267   -3.7477267   -2.5452566   0.06848764   -3.7477267    1.2024702   520603 
 2333000    1.0146659    -3.747227    -3.747227   -2.5454629  0.077451871    -3.747227    1.2017641   520603 
 2334000    1.0143972   -3.7471786   -3.7471786   -2.5457328  0.066671623   -3.7471786    1.2014458   520603 
 2335000    1.0144794   -3.7464491   -3.7464491    -2.544906  0.085627076   -3.7464491    1.2015431   520603 
 2336000    1.0138478   -3.7453816   -3.7453816   -2.5445865  0.068024088   -3.7453816    1.2007951   520603 
 2337000     1.014336   -3.7452278   -3.7452278   -2.5438545  0.079376489   -3.7452278    1.2013734   520603 
 2338000    1.0136229   -3.7452998   -3.7452998    -2.544771  0.071511297   -3.7452998    1.2005287   520603 
 2339000    1.0141125   -3.7459341   -3.7459341   -2.5448255  0.063511733   -3.7459341    1.2011086   520603 
 2340000    1.0138722   -3.7446636   -3.7446636   -2.5438395  0.067472448   -3.7446636    1.2008241   520603 
 2341000    1.0159386   -3.7476779   -3.7476779   -2.5444065  0.060777622   -3.7476779    1.2032714   520603 
 2342000    1.0159496   -3.7480611   -3.7480611   -2.5447766  0.063669539   -3.7480611    1.2032845   520603 
 2343000    1.0163697    -3.747473    -3.747473   -2.5436909  0.069077779    -3.747473    1.2037821   520603 
 2344000    1.0172144   -3.7476511   -3.7476511   -2.5428687  0.080532504   -3.7476511    1.2047825   520603 
 2345000     1.016692   -3.7469331   -3.7469331   -2.5427693  0.073717286   -3.7469331    1.2041638   520603 
 2346000    1.0159833   -3.7461413   -3.7461413   -2.5428169  0.076752878   -3.7461413    1.2033244   520603 
 2347000    1.0176783   -3.7485288   -3.7485288   -2.5431969   0.07554414   -3.7485288    1.2053319   520603 
 2348000    1.0154274   -3.7469817   -3.7469817   -2.5443157   0.06757327   -3.7469817     1.202666   520603 
 2349000    1.0149581   -3.7460791   -3.7460791    -2.543969  0.062089738   -3.7460791    1.2021101   520603 
 2350000    1.0148872   -3.7473786   -3.7473786   -2.5453524  0.084581535   -3.7473786    1.2020262   520603 
 2351000    1.0163242   -3.7492464   -3.7492464   -2.5455183  0.077037214   -3.7492464    1.2037281   520603 
 2352000     1.014423   -3.7473371   -3.7473371   -2.5458607  0.061494616   -3.7473371    1.2014764   520603 
 2353000    1.0149472   -3.7471837   -3.7471837   -2.5450865  0.073583533   -3.7471837    1.2020972   520603 
 2354000    1.0161011   -3.7477939   -3.7477939   -2.5443299  0.066240198   -3.7477939    1.2034639   520603 
 2355000    1.0164728   -3.7496395   -3.7496395   -2.5457353  0.070824859   -3.7496395    1.2039042   520603 
 2356000    1.0152472   -3.7480007   -3.7480007   -2.5455481  0.084861766   -3.7480007    1.2024526   520603 
 2357000    1.0153571   -3.7479712   -3.7479712   -2.5453885  0.064969598   -3.7479712    1.2025827   520603 
 2358000    1.0141839   -3.7469756   -3.7469756   -2.5457824  0.077573816   -3.7469756    1.2011932   520603 
 2359000    1.0156012   -3.7487591   -3.7487591   -2.5458873  0.068302236   -3.7487591    1.2028719   520603 
 2360000    1.0165204   -3.7488477   -3.7488477   -2.5448872  0.072892798   -3.7488477    1.2039605   520603 
 2361000    1.0168558    -3.749838    -3.749838   -2.5454802  0.079013108    -3.749838    1.2043578   520603 
 2362000    1.0162626   -3.7486889   -3.7486889   -2.5450337  0.071307968   -3.7486889    1.2036551   520603 
 2363000    1.0169623   -3.7495685   -3.7495685   -2.5450847   0.08559272   -3.7495685    1.2044839   520603 
 2364000    1.0160031   -3.7479772   -3.7479772   -2.5446294  0.075855613   -3.7479772    1.2033479   520603 
 2365000    1.0156687   -3.7481147   -3.7481147   -2.5451629   0.07206185   -3.7481147    1.2029518   520603 
 2366000    1.0149641    -3.748552    -3.748552   -2.5464348  0.069677764    -3.748552    1.2021172   520603 
 2367000    1.0134964   -3.7462225   -3.7462225   -2.5458436  0.065524029   -3.7462225    1.2003789   520603 
 2368000    1.0135653    -3.746179    -3.746179   -2.5457185  0.070171118    -3.746179    1.2004605   520603 
 2369000    1.0150431   -3.7487803   -3.7487803   -2.5465695  0.078431011   -3.7487803    1.2022108   520603 
 2370000     1.013325     -3.74697     -3.74697   -2.5467942  0.070575351     -3.74697    1.2001759   520603 
 2371000    1.0144467   -3.7479367   -3.7479367   -2.5464323   0.06267777   -3.7479367    1.2015044   520603 
 2372000    1.0154719   -3.7490179   -3.7490179   -2.5462992  0.066826955   -3.7490179    1.2027187   520603 
 2373000    1.0155734   -3.7499646   -3.7499646   -2.5471256  0.065692046   -3.7499646    1.2028389   520603 
 2374000    1.0158789   -3.7499704   -3.7499704   -2.5467697  0.065795726   -3.7499704    1.2032007   520603 
 2375000    1.0159734   -3.7493966   -3.7493966   -2.5460839  0.076745923   -3.7493966    1.2033127   520603 
 2376000    1.0163471   -3.7496423   -3.7496423   -2.5458869  0.071068458   -3.7496423    1.2037553   520603 
 2377000    1.0170158    -3.749975    -3.749975   -2.5454277  0.075251792    -3.749975    1.2045473   520603 
 2378000    1.0150898   -3.7476039   -3.7476039   -2.5453378  0.082242173   -3.7476039    1.2022661   520603 
 2379000     1.015966   -3.7493853   -3.7493853   -2.5460813  0.087436808   -3.7493853    1.2033039   520603 
 2380000    1.0177087    -3.751836    -3.751836    -2.546468   0.06371488    -3.751836     1.205368   520603 
 2381000     1.015886   -3.7507079   -3.7507079   -2.5474988  0.065357755   -3.7507079    1.2032091   520603 
 2382000    1.0153274   -3.7495607   -3.7495607   -2.5470132   0.07119722   -3.7495607    1.2025475   520603 
 2383000    1.0163487   -3.7512504   -3.7512504   -2.5474933  0.078011336   -3.7512504    1.2037572   520603 
 2384000     1.013755    -3.748689    -3.748689   -2.5480038  0.067152379    -3.748689    1.2006852   520603 
 2385000    1.0158372   -3.7514334   -3.7514334    -2.548282  0.070853588   -3.7514334    1.2031514   520603 
 2386000    1.0164625   -3.7516944   -3.7516944   -2.5478025  0.059742141   -3.7516944    1.2038919   520603 
 2387000    1.0153569     -3.74965     -3.74965   -2.5470674  0.078532368     -3.74965    1.2025825   520603 
 2388000    1.0168718   -3.7524019   -3.7524019   -2.5480252  0.071038813   -3.7524019    1.2043767   520603 
 2389000    1.0162556   -3.7512779   -3.7512779    -2.547631  0.064020212   -3.7512779    1.2036469   520603 
 2390000    1.0166875    -3.751292    -3.751292   -2.5471335  0.076814717    -3.751292    1.2041585   520603 
 2391000    1.0143146   -3.7486661   -3.7486661   -2.5473182  0.076745599   -3.7486661    1.2013479   520603 
 2392000    1.0158534   -3.7502089   -3.7502089   -2.5470384  0.063388907   -3.7502089    1.2031705   520603 
 2393000    1.0151472   -3.7489627   -3.7489627   -2.5466286  0.068878371   -3.7489627    1.2023342   520603 
 2394000    1.0164118   -3.7507911   -3.7507911   -2.5469592  0.083636357   -3.7507911    1.2038319   520603 
 2395000    1.0152076   -3.7491875   -3.7491875   -2.5467819  0.076761188   -3.7491875    1.2024056   520603 
 2396000    1.0165284   -3.7519075   -3.7519075   -2.5479374    0.0728803   -3.7519075      1.20397   520603 
 2397000    1.0159068   -3.7509192   -3.7509192   -2.5476854  0.068898898   -3.7509192    1.2032337   520603 
 2398000    1.0158271   -3.7489368   -3.7489368   -2.5457974  0.084217974   -3.7489368    1.2031394   520603 
 2399000    1.0167622   -3.7509353   -3.7509353   -2.5466884  0.071086785   -3.7509353    1.2042469   520603 
 2400000    1.0162909   -3.7498484   -3.7498484   -2.5461597  0.078204248   -3.7498484    1.2036887   520603 
 2401000    1.0160201   -3.7496673   -3.7496673   -2.5462993  0.081083669   -3.7496673     1.203368   520603 
 2402000    1.0174021   -3.7511065   -3.7511065   -2.5461017   0.07763155   -3.7511065    1.2050048   520603 
 2403000    1.0166415   -3.7518702   -3.7518702   -2.5477663  0.076691138   -3.7518702    1.2041039   520603 
 2404000    1.0173223   -3.7512777   -3.7512777   -2.5463674  0.068449251   -3.7512777    1.2049103   520603 
 2405000    1.0149519   -3.7484679   -3.7484679    -2.546365  0.069726994   -3.7484679    1.2021028   520603 
 2406000    1.0158258   -3.7510921   -3.7510921   -2.5479542  0.075320828   -3.7510921    1.2031379   520603 
 2407000    1.0147417   -3.7509968   -3.7509968    -2.549143  0.065690979   -3.7509968    1.2018538   520603 
 2408000     1.014109   -3.7498699   -3.7498699   -2.5487654  0.047430229   -3.7498699    1.2011045   520603 
 2409000    1.0142184   -3.7497409   -3.7497409   -2.5485068   0.07477631   -3.7497409    1.2012341   520603 
 2410000    1.0143242   -3.7490401   -3.7490401   -2.5476808  0.076530138   -3.7490401    1.2013593   520603 
 2411000    1.0160342   -3.7509361   -3.7509361   -2.5475514  0.062154236   -3.7509361    1.2033847   520603 
 2412000    1.0160568   -3.7513236   -3.7513236   -2.5479122  0.074360193   -3.7513236    1.2034114   520603 
 2413000    1.0166748   -3.7516829   -3.7516829   -2.5475396  0.078667661   -3.7516829    1.2041433   520603 
 2414000    1.0154799   -3.7508076   -3.7508076   -2.5480794  0.068517347   -3.7508076    1.2027282   520603 
 2415000    1.0160596   -3.7513475   -3.7513475   -2.5479328  0.075907625   -3.7513475    1.2034147   520603 
 2416000    1.0164695   -3.7518955   -3.7518955   -2.5479952  0.081213141   -3.7518955    1.2039003   520603 
 2417000     1.015527   -3.7513645   -3.7513645   -2.5485805  0.075932976   -3.7513645     1.202784   520603 
 2418000    1.0146614   -3.7512479   -3.7512479   -2.5494892  0.075075055   -3.7512479    1.2017587   520603 
 2419000    1.0145427   -3.7513527   -3.7513527   -2.5497346  0.070926007   -3.7513527    1.2016181   520603 
 2420000    1.0150884    -3.751751    -3.751751   -2.5494865  0.073675935    -3.751751    1.2022645   520603 
 2421000    1.0145639   -3.7518201   -3.7518201   -2.5501769  0.075582814   -3.7518201    1.2016433   520603 
 2422000    1.0149101   -3.7513346   -3.7513346   -2.5492813  0.067581122   -3.7513346    1.2020533   520603 
 2423000    1.0162494   -3.7521006   -3.7521006   -2.5484611  0.082592342   -3.7521006    1.2036395   520603 
 2424000      1.01658   -3.7523722   -3.7523722   -2.5483411  0.077511864   -3.7523722    1.2040311   520603 
 2425000    1.0168444   -3.7533584   -3.7533584   -2.5490142  0.078143603   -3.7533584    1.2043442   520603 
 2426000    1.0160891   -3.7514485   -3.7514485   -2.5479989  0.063714868   -3.7514485    1.2034497   520603 
 2427000    1.0144471    -3.749656    -3.749656   -2.5481511  0.067317332    -3.749656    1.2015049   520603 
 2428000    1.0167739   -3.7525926   -3.7525926   -2.5483319  0.061304537   -3.7525926    1.2042607   520603 
 2429000    1.0163743   -3.7524796   -3.7524796   -2.5486922   0.08158569   -3.7524796    1.2037875   520603 
 2430000    1.0152098   -3.7514891   -3.7514891   -2.5490808  0.064086591   -3.7514891    1.2024082   520603 
 2431000    1.0159746   -3.7527039   -3.7527039   -2.5493898     0.072086   -3.7527039     1.203314   520603 
 2432000    1.0157397   -3.7524031   -3.7524031   -2.5493672  0.061881223   -3.7524031    1.2030359   520603 
 2433000    1.0144273    -3.750475    -3.750475   -2.5489936  0.073805941    -3.750475    1.2014814   520603 
 2434000    1.0159568   -3.7523007   -3.7523007   -2.5490077  0.066697267   -3.7523007     1.203293   520603 
 2435000    1.0152949   -3.7519146   -3.7519146   -2.5494055  0.063075079   -3.7519146    1.2025091   520603 
 2436000    1.0156184   -3.7519216   -3.7519216   -2.5490294  0.055574692   -3.7519216    1.2028922   520603 
 2437000    1.0155783   -3.7525731   -3.7525731   -2.5497284   0.08289024   -3.7525731    1.2028447   520603 
 2438000    1.0148508   -3.7512826   -3.7512826   -2.5492996  0.072575652   -3.7512826     1.201983   520603 
 2439000    1.0132139   -3.7497377   -3.7497377   -2.5496933  0.070395205   -3.7497377    1.2000444   520603 
 2440000    1.0141785   -3.7502107   -3.7502107   -2.5490239  0.083063891   -3.7502107    1.2011868   520603 
 2441000    1.0137438   -3.7499679   -3.7499679    -2.549296  0.051701223   -3.7499679     1.200672   520603 
 2442000    1.0160103   -3.7525603   -3.7525603    -2.549204  0.069728437   -3.7525603    1.2033563   520603 
 2443000    1.0144486   -3.7508389   -3.7508389   -2.5493322  0.071543882   -3.7508389    1.2015067   520603 
 2444000    1.0138736   -3.7503603   -3.7503603   -2.5495347  0.076917676   -3.7503603    1.2008257   520603 
 2445000    1.0134676   -3.7500945   -3.7500945   -2.5497497  0.060297966   -3.7500945    1.2003448   520603 
 2446000    1.0136135   -3.7500948   -3.7500948   -2.5495771  0.065187464   -3.7500948    1.2005177   520603 
 2447000    1.0140188   -3.7510141   -3.7510141   -2.5500164   0.07644886   -3.7510141    1.2009977   520603 
 2448000    1.0149474   -3.7521266   -3.7521266    -2.550029  0.066250905   -3.7521266    1.2020975   520603 
 2449000    1.0126854   -3.7492017   -3.7492017   -2.5497833  0.065730111   -3.7492017    1.1994184   520603 
 2450000    1.0161062    -3.752581    -3.752581    -2.549111   0.06663486    -3.752581      1.20347   520603 
 2451000    1.0147122   -3.7516177   -3.7516177   -2.5497988  0.062341966   -3.7516177    1.2018189   520603 
 2452000     1.014595   -3.7509535   -3.7509535   -2.5492735  0.070743403   -3.7509535    1.2016801   520603 
 2453000    1.0143979   -3.7508547   -3.7508547   -2.5494081  0.081463744   -3.7508547    1.2014466   520603 
 2454000    1.0149332   -3.7503841   -3.7503841   -2.5483034  0.063933973   -3.7503841    1.2020807   520603 
 2455000    1.0156823   -3.7512352   -3.7512352   -2.5482672  0.091793588   -3.7512352    1.2029679   520603 
 2456000    1.0174631   -3.7530652   -3.7530652   -2.5479881  0.084509757   -3.7530652    1.2050771   520603 
 2457000    1.0174911   -3.7538346   -3.7538346   -2.5487244  0.080256046   -3.7538346    1.2051102   520603 
 2458000    1.0170626   -3.7533322   -3.7533322   -2.5487295  0.072678418   -3.7533322    1.2046027   520603 
 2459000     1.017422   -3.7538144   -3.7538144    -2.548786  0.068455487   -3.7538144    1.2050284   520603 
 2460000    1.0156272   -3.7520759   -3.7520759   -2.5491733  0.070815404   -3.7520759    1.2029026   520603 
 2461000    1.0158622   -3.7523191   -3.7523191   -2.5491382  0.065119426   -3.7523191    1.2031809   520603 
 2462000    1.0142776   -3.7503023   -3.7503023   -2.5489981  0.071024046   -3.7503023    1.2013042   520603 
 2463000    1.0142859   -3.7509954   -3.7509954   -2.5496814   0.06548917   -3.7509954     1.201314   520603 
 2464000    1.0141275   -3.7504491   -3.7504491   -2.5493227  0.083812511   -3.7504491    1.2011264   520603 
 2465000    1.0127476   -3.7497186   -3.7497186   -2.5502265  0.067894157   -3.7497186    1.1994921   520603 
 2466000    1.0127032   -3.7505639   -3.7505639   -2.5511245  0.067924383   -3.7505639    1.1994394   520603 
 2467000    1.0124914   -3.7505248   -3.7505248   -2.5513361  0.082187402   -3.7505248    1.1991886   520603 
 2468000    1.0132623   -3.7519619   -3.7519619   -2.5518602    0.0694346   -3.7519619    1.2001016   520603 
 2469000    1.0135917   -3.7524113   -3.7524113   -2.5519196  0.071124038   -3.7524113    1.2004917   520603 
 2470000    1.0132172   -3.7504711   -3.7504711   -2.5504229  0.061934931   -3.7504711    1.2000482   520603 
 2471000    1.0128988   -3.7504284   -3.7504284   -2.5507573  0.064577809   -3.7504284    1.1996711   520603 
 2472000    1.0135065   -3.7502435   -3.7502435   -2.5498526  0.064823425   -3.7502435    1.2003909   520603 
 2473000    1.0144512   -3.7512326   -3.7512326   -2.5497228  0.055265692   -3.7512326    1.2015098   520603 
 2474000    1.0142681   -3.7507194   -3.7507194   -2.5494265  0.072046864   -3.7507194    1.2012929   520603 
 2475000    1.0132991   -3.7508333   -3.7508333   -2.5506881  0.070546858   -3.7508333    1.2001452   520603 
 2476000    1.0136856   -3.7514515   -3.7514515   -2.5508485  0.071655493   -3.7514515     1.200603   520603 
 2477000    1.0159185   -3.7530754   -3.7530754   -2.5498278  0.079000086   -3.7530754    1.2032477   520603 
 2478000    1.0141055   -3.7507191   -3.7507191   -2.5496187  0.078662891   -3.7507191    1.2011003   520603 
 2479000    1.0155749   -3.7529199   -3.7529199   -2.5500793   0.07705072   -3.7529199    1.2028406   520603 
 2480000    1.0166343   -3.7548009   -3.7548009   -2.5507055  0.073282232   -3.7548009    1.2040954   520603 
 2481000    1.0148237   -3.7523851   -3.7523851   -2.5504341  0.065426713   -3.7523851    1.2019509   520603 
 2482000    1.0154715    -3.753254    -3.753254   -2.5505358  0.079051626    -3.753254    1.2027182   520603 
 2483000    1.0126337   -3.7504858   -3.7504858   -2.5511287  0.082717947   -3.7504858    1.1993571   520603 
 2484000    1.0155461   -3.7534587   -3.7534587   -2.5506521  0.056155862   -3.7534587    1.2028066   520603 
 2485000     1.013906   -3.7516988   -3.7516988   -2.5508348  0.064583714   -3.7516988     1.200864   520603 
 2486000    1.0130474   -3.7518397   -3.7518397   -2.5519926   0.07069666   -3.7518397    1.1998471   520603 
 2487000    1.0167812   -3.7556167   -3.7556167   -2.5513473  0.062224091   -3.7556167    1.2042694   520603 
 2488000    1.0134864   -3.7525599   -3.7525599   -2.5521929  0.071040122   -3.7525599    1.2003671   520603 
 2489000    1.0145109   -3.7527792   -3.7527792   -2.5511987  0.072685359   -3.7527792    1.2015805   520603 
 2490000    1.0155613   -3.7532949   -3.7532949   -2.5504703  0.070537785   -3.7532949    1.2028245   520603 
 2491000    1.0152036   -3.7521864   -3.7521864   -2.5497856  0.070419934   -3.7521864    1.2024009   520603 
 2492000    1.0153634    -3.752951    -3.752951   -2.5503609  0.069452069    -3.752951    1.2025902   520603 
 2493000    1.0123575   -3.7500924   -3.7500924   -2.5510624  0.076242584   -3.7500924      1.19903   520603 
 2494000     1.013685   -3.7515759   -3.7515759   -2.5509736  0.066651697   -3.7515759    1.2006023   520603 
 2495000    1.0132094   -3.7513832   -3.7513832   -2.5513442   0.06194578   -3.7513832     1.200039   520603 
 2496000    1.0133334   -3.7516371   -3.7516371   -2.5514512   0.07373443   -3.7516371    1.2001859   520603 
 2497000    1.0125481   -3.7498296   -3.7498296   -2.5505737  0.068734611   -3.7498296    1.1992558   520603 
 2498000    1.0121618   -3.7490119   -3.7490119   -2.5502137   0.07977712   -3.7490119    1.1987982   520603 
 2499000    1.0130037   -3.7508348   -3.7508348   -2.5510394  0.078168783   -3.7508348    1.1997954   520603 
 2500000    1.0140864   -3.7525742   -3.7525742   -2.5514965  0.065965394   -3.7525742    1.2010778   520603 
 2501000    1.0135421   -3.7518714   -3.7518714   -2.5514383  0.080334232   -3.7518714    1.2004331   520603 
 2502000    1.0136341   -3.7522192   -3.7522192   -2.5516772  0.061197736   -3.7522192    1.2005421   520603 
 2503000    1.0136213   -3.7525005   -3.7525005   -2.5519736  0.078520443   -3.7525005    1.2005268   520603 
 2504000    1.0144958   -3.7539699   -3.7539699   -2.5524072  0.066977844   -3.7539699    1.2015627   520603 
 2505000    1.0142902   -3.7535591   -3.7535591     -2.55224    0.0680592   -3.7535591    1.2013191   520603 
 2506000    1.0135133   -3.7527524   -3.7527524   -2.5523534  0.057621506   -3.7527524     1.200399   520603 
 2507000      1.01413   -3.7544124   -3.7544124    -2.553283   0.07442635   -3.7544124    1.2011294   520603 
 2508000    1.0147372   -3.7541391   -3.7541391   -2.5522906  0.087831379   -3.7541391    1.2018485   520603 
 2509000     1.015129    -3.754496    -3.754496   -2.5521834  0.074859396    -3.754496    1.2023126   520603 
 2510000     1.014147   -3.7527572   -3.7527572   -2.5516077  0.079222512   -3.7527572    1.2011495   520603 
 2511000    1.0152075    -3.754148    -3.754148   -2.5517425  0.084769825    -3.754148    1.2024055   520603 
 2512000    1.0138041   -3.7523103   -3.7523103    -2.551567  0.088959509   -3.7523103    1.2007433   520603 
 2513000    1.0144957   -3.7537671   -3.7537671   -2.5522045   0.06792812   -3.7537671    1.2015625   520603 
 2514000    1.0124262   -3.7512086   -3.7512086   -2.5520972    0.0712667   -3.7512086    1.1991114   520603 
 2515000    1.0136152   -3.7529013   -3.7529013   -2.5523817  0.065742591   -3.7529013    1.2005196   520603 
 2516000    1.0138003   -3.7541873   -3.7541873   -2.5534484  0.066628887   -3.7541873    1.2007389   520603 
 2517000    1.0140867   -3.7549895   -3.7549895   -2.5539114  0.072033351   -3.7549895    1.2010781   520603 
 2518000    1.0125145   -3.7531832   -3.7531832   -2.5539672  0.070460582   -3.7531832     1.199216   520603 
 2519000    1.0129837   -3.7538005   -3.7538005   -2.5540288  0.067775669   -3.7538005    1.1997717   520603 
 2520000    1.0136805   -3.7534342   -3.7534342   -2.5528373   0.07215142   -3.7534342     1.200597   520603 
 2521000    1.0123748   -3.7515958   -3.7515958   -2.5525454  0.076005311   -3.7515958    1.1990505   520603 
 2522000    1.0137138   -3.7533032   -3.7533032   -2.5526668  0.063948293   -3.7533032    1.2006364   520603 
 2523000    1.0141331   -3.7543613   -3.7543613   -2.5532283  0.066363343   -3.7543613     1.201133   520603 
 2524000    1.0133251   -3.7549468   -3.7549468   -2.5547708  0.065635123   -3.7549468     1.200176   520603 
 2525000    1.0145743   -3.7563706   -3.7563706    -2.554715  0.059513677   -3.7563706    1.2016555   520603 
 2526000    1.0147993   -3.7563468   -3.7563468   -2.5544248  0.072086279   -3.7563468    1.2019221   520603 
 2527000    1.0139657   -3.7554859   -3.7554859   -2.5545511   0.07291979   -3.7554859    1.2009348   520603 
 2528000    1.0139235   -3.7548158   -3.7548158    -2.553931  0.056917736   -3.7548158    1.2008848   520603 
 2529000    1.0143328   -3.7562121   -3.7562121   -2.5548426  0.075811229   -3.7562121    1.2013695   520603 
 2530000    1.0110865   -3.7527549   -3.7527549   -2.5552302  0.064693064   -3.7527549    1.1975247   520603 
 2531000    1.0120535   -3.7522241   -3.7522241   -2.5535542  0.077091647   -3.7522241      1.19867   520603 
 2532000       1.0118   -3.7529858   -3.7529858    -2.554616  0.081284148   -3.7529858    1.1983698   520603 
 2533000    1.0128634   -3.7544479   -3.7544479   -2.5548188  0.068173512   -3.7544479    1.1996292   520603 
 2534000    1.0134308   -3.7544381   -3.7544381   -2.5541369  0.084043176   -3.7544381    1.2003012   520603 
 2535000    1.0141899   -3.7556538   -3.7556538   -2.5544536   0.05878489   -3.7556538    1.2012003   520603 
 2536000    1.0142896   -3.7558404   -3.7558404   -2.5545221  0.066904516   -3.7558404    1.2013184   520603 
 2537000    1.0153644    -3.756857    -3.756857   -2.5542655  0.077502152    -3.756857    1.2025914   520603 
 2538000    1.0151652    -3.756836    -3.756836   -2.5544806  0.077898116    -3.756836    1.2023554   520603 
 2539000    1.0152959   -3.7564866   -3.7564866   -2.5539764  0.069900928   -3.7564866    1.2025102   520603 
 2540000    1.0146389   -3.7560354   -3.7560354   -2.5543033  0.070031962   -3.7560354    1.2017321   520603 
 2541000    1.0150549    -3.757186    -3.757186   -2.5549611  0.073578143    -3.757186    1.2022248   520603 
 2542000    1.0156142   -3.7568874   -3.7568874   -2.5540002  0.082181215   -3.7568874    1.2028872   520603 
 2543000    1.0150051   -3.7564342   -3.7564342   -2.5542683   0.08209107   -3.7564342    1.2021658   520603 
 2544000    1.0144661   -3.7550376   -3.7550376   -2.5535102  0.068899666   -3.7550376    1.2015274   520603 
 2545000    1.0143126   -3.7548639   -3.7548639   -2.5535183  0.076709098   -3.7548639    1.2013456   520603 
 2546000    1.0126976   -3.7536669   -3.7536669   -2.5542341  0.065617131   -3.7536669    1.1994328   520603 
 2547000    1.0140905    -3.754526    -3.754526   -2.5534434  0.073434246    -3.754526    1.2010826   520603 
 2548000    1.0142728   -3.7534345   -3.7534345   -2.5521361  0.065312837   -3.7534345    1.2012984   520603 
 2549000    1.0147438   -3.7544386   -3.7544386   -2.5525823  0.076596984   -3.7544386    1.2018563   520603 
 2550000    1.0156632   -3.7559327   -3.7559327   -2.5529874  0.073581275   -3.7559327    1.2029453   520603 
 2551000    1.0135952   -3.7535846   -3.7535846   -2.5530887  0.062704293   -3.7535846    1.2004959   520603 
 2552000    1.0142399   -3.7545701   -3.7545701   -2.5533106  0.066233474   -3.7545701    1.2012595   520603 
 2553000    1.0140434   -3.7538314   -3.7538314   -2.5528045    0.0759309   -3.7538314    1.2010268   520603 
 2554000    1.0136319   -3.7538552   -3.7538552   -2.5533158  0.083869961   -3.7538552    1.2005394   520603 
 2555000    1.0142423   -3.7539031   -3.7539031   -2.5526407  0.068234282   -3.7539031    1.2012624   520603 
 2556000    1.0132727   -3.7525492   -3.7525492   -2.5524352  0.076180782   -3.7525492     1.200114   520603 
 2557000    1.0121939   -3.7520781   -3.7520781   -2.5532419  0.067916933   -3.7520781    1.1988362   520603 
 2558000     1.015162   -3.7554933   -3.7554933   -2.5531416  0.053930267   -3.7554933    1.2023517   520603 
 2559000    1.0125402   -3.7530092   -3.7530092   -2.5537628  0.064827324   -3.7530092    1.1992464   520603 
 2560000    1.0132256   -3.7534306   -3.7534306   -2.5533724  0.068685332   -3.7534306    1.2000582   520603 
 2561000    1.0146693   -3.7543318   -3.7543318   -2.5525637  0.062022131   -3.7543318     1.201768   520603 
 2562000    1.0142902   -3.7538603   -3.7538603   -2.5525412  0.074656709   -3.7538603    1.2013191   520603 
 2563000    1.0130652   -3.7517632   -3.7517632    -2.551895  0.060658612   -3.7517632    1.1998682   520603 
 2564000    1.0145647   -3.7531496   -3.7531496   -2.5515054  0.062709887   -3.7531496    1.2016442   520603 
 2565000    1.0148304   -3.7543535   -3.7543535   -2.5523945  0.070132524   -3.7543535    1.2019589   520603 
 2566000    1.0144822   -3.7538234   -3.7538234    -2.552277  0.074260217   -3.7538234    1.2015464   520603 
 2567000    1.0136862   -3.7536121   -3.7536121   -2.5530084  0.071159935   -3.7536121    1.2006037   520603 
 2568000    1.0135742   -3.7528041   -3.7528041    -2.552333  0.070864706   -3.7528041    1.2004711   520603 
 2569000    1.0142667   -3.7534894   -3.7534894   -2.5521981   0.06889909   -3.7534894    1.2012913   520603 
 2570000    1.0141856   -3.7541389   -3.7541389   -2.5529437  0.073793592   -3.7541389    1.2011952   520603 
 2571000    1.0130876   -3.7533728   -3.7533728    -2.553478  0.072297435   -3.7533728    1.1998948   520603 
 2572000    1.0136068   -3.7545079   -3.7545079   -2.5539982  0.050698833   -3.7545079    1.2005097   520603 
 2573000    1.0127851   -3.7535976   -3.7535976   -2.5540611  0.073206647   -3.7535976    1.1995365   520603 
 2574000    1.0133976   -3.7537669   -3.7537669    -2.553505  0.069757265   -3.7537669    1.2002619   520603 
 2575000    1.0140712   -3.7547482   -3.7547482   -2.5536884  0.074530973   -3.7547482    1.2010598   520603 
 2576000    1.0128238   -3.7534774   -3.7534774   -2.5538951   0.07392412   -3.7534774    1.1995823   520603 
 2577000    1.0130939   -3.7524627   -3.7524627   -2.5525605  0.074527301   -3.7524627    1.1999022   520603 
 2578000    1.0154716   -3.7557153   -3.7557153    -2.552997   0.06475813   -3.7557153    1.2027183   520603 
 2579000    1.0139429   -3.7535892   -3.7535892   -2.5526814    0.0609187   -3.7535892    1.2009077   520603 
 2580000    1.0143382   -3.7548968   -3.7548968   -2.5535208  0.060332697   -3.7548968     1.201376   520603 
 2581000    1.0136051   -3.7542607   -3.7542607    -2.553753  0.069930825   -3.7542607    1.2005077   520603 
 2582000    1.0145929   -3.7549563   -3.7549563   -2.5532787   0.05915595   -3.7549563    1.2016776   520603 
 2583000    1.0159861     -3.75712     -3.75712   -2.5537923  0.068742624     -3.75712    1.2033278   520603 
 2584000     1.012764   -3.7529969   -3.7529969   -2.5534854   0.07808931   -3.7529969    1.1995115   520603 
 2585000    1.0139712   -3.7543507   -3.7543507   -2.5534094  0.066521208   -3.7543507    1.2009413   520603 
 2586000    1.0133624   -3.7529275   -3.7529275   -2.5527074  0.067971401   -3.7529275    1.2002202   520603 
 2587000    1.0143693   -3.7540801   -3.7540801   -2.5526673  0.070922287   -3.7540801    1.2014127   520603 
 2588000     1.014703     -3.75516     -3.75516    -2.553352  0.061204516     -3.75516     1.201808   520603 
 2589000    1.0130881   -3.7536598   -3.7536598   -2.5537645   0.06863406   -3.7536598    1.1998953   520603 
 2590000    1.0133314   -3.7533284   -3.7533284    -2.553145  0.076499025   -3.7533284    1.2001834   520603 
 2591000    1.0132055   -3.7529344   -3.7529344   -2.5529001  0.084629051   -3.7529344    1.2000343   520603 
 2592000    1.0141229   -3.7538331   -3.7538331   -2.5527122  0.066591118   -3.7538331    1.2011209   520603 
 2593000    1.0151213   -3.7550947   -3.7550947   -2.5527913  0.068748659   -3.7550947    1.2023034   520603 
 2594000    1.0147824   -3.7552309   -3.7552309   -2.5533287  0.080825918   -3.7552309    1.2019021   520603 
 2595000    1.0138007   -3.7539719   -3.7539719   -2.5532326  0.071219159   -3.7539719    1.2007393   520603 
 2596000    1.0139662   -3.7549922   -3.7549922   -2.5540569  0.067837846   -3.7549922    1.2009353   520603 
 2597000    1.0139077   -3.7543593   -3.7543593   -2.5534932  0.069328094   -3.7543593     1.200866   520603 
 2598000      1.01503   -3.7558091   -3.7558091   -2.5536138  0.083772026   -3.7558091    1.2021953   520603 
 2599000    1.0141499    -3.755661    -3.755661   -2.5545081  0.070983352    -3.755661    1.2011529   520603 
 2600000    1.0147598   -3.7562885   -3.7562885   -2.5544132  0.074487404   -3.7562885    1.2018753   520603 
 2601000    1.0155525   -3.7575695   -3.7575695   -2.5547553  0.073054017   -3.7575695    1.2028142   520603 
 2602000    1.0132761    -3.754836    -3.754836    -2.554718   0.07512947    -3.754836     1.200118   520603 
 2603000    1.0131591   -3.7556236   -3.7556236   -2.5556442  0.075935291   -3.7556236    1.1999794   520603 
 2604000    1.0145894   -3.7566455   -3.7566455   -2.5549721  0.076762808   -3.7566455    1.2016734   520603 
 2605000    1.0133767   -3.7545656   -3.7545656   -2.5543284  0.065243584   -3.7545656    1.2002372   520603 
 2606000    1.0131317    -3.754803    -3.754803    -2.554856  0.065685214    -3.754803     1.199947   520603 
 2607000     1.015211   -3.7567731   -3.7567731   -2.5543635  0.069845712   -3.7567731    1.2024097   520603 
 2608000    1.0139507   -3.7565068   -3.7565068   -2.5555898  0.070863058   -3.7565068     1.200917   520603 
 2609000    1.0117129   -3.7538763   -3.7538763   -2.5556098  0.074574249   -3.7538763    1.1982666   520603 
 2610000    1.0139738   -3.7564274   -3.7564274   -2.5554831   0.05941223   -3.7564274    1.2009443   520603 
 2611000    1.0141302    -3.756363    -3.756363   -2.5552334  0.072348519    -3.756363    1.2011296   520603 
 2612000    1.0120915    -3.754669    -3.754669   -2.5559541  0.069606739    -3.754669    1.1987149   520603 
 2613000    1.0128741   -3.7563816   -3.7563816   -2.5567398  0.075415956   -3.7563816    1.1996418   520603 
 2614000    1.0122631   -3.7551413   -3.7551413    -2.556223  0.067151113   -3.7551413    1.1989182   520603 
 2615000    1.0155516   -3.7583025   -3.7583025   -2.5554894   0.06689403   -3.7583025    1.2028131   520603 
 2616000    1.0140263   -3.7560318   -3.7560318   -2.5550253  0.065864726   -3.7560318    1.2010066   520603 
 2617000    1.0142878   -3.7567337   -3.7567337   -2.5554174  0.067709863   -3.7567337    1.2013163   520603 
 2618000    1.0153984    -3.757381    -3.757381   -2.5547493  0.062855274    -3.757381    1.2026317   520603 
 2619000    1.0143934   -3.7564018   -3.7564018   -2.5549604  0.053746103   -3.7564018    1.2014414   520603 
 2620000    1.0137406   -3.7559092   -3.7559092   -2.5552411  0.059677217   -3.7559092    1.2006681   520603 
 2621000     1.013892   -3.7563832   -3.7563832   -2.5555358   0.06713707   -3.7563832    1.2008474   520603 
 2622000    1.0165218   -3.7599696   -3.7599696   -2.5560074  0.061949902   -3.7599696    1.2039622   520603 
 2623000    1.0133156   -3.7559576   -3.7559576   -2.5557928  0.063649338   -3.7559576    1.2001648   520603 
 2624000    1.0154084   -3.7586018   -3.7586018   -2.5559584  0.060050029   -3.7586018    1.2026434   520603 
 2625000    1.0134148   -3.7556179   -3.7556179   -2.5553356  0.075144832   -3.7556179    1.2002823   520603 
 2626000    1.0147593   -3.7573441   -3.7573441   -2.5554694  0.069720712   -3.7573441    1.2018747   520603 
 2627000    1.0152885   -3.7588777   -3.7588777   -2.5563762  0.067041155   -3.7588777    1.2025014   520603 
 2628000    1.0130767   -3.7559125   -3.7559125   -2.5560307  0.066947838   -3.7559125    1.1998818   520603 
 2629000    1.0138137   -3.7565587   -3.7565587    -2.555804  0.074848448   -3.7565587    1.2007547   520603 
 2630000    1.0149275   -3.7571083   -3.7571083   -2.5550344  0.082214214   -3.7571083    1.2020739   520603 
 2631000    1.0142176   -3.7575694   -3.7575694   -2.5563363   0.07182453   -3.7575694    1.2012331   520603 
 2632000    1.0124923   -3.7547495   -3.7547495   -2.5555598  0.071971171   -3.7547495    1.1991897   520603 
 2633000    1.0135914   -3.7553705   -3.7553705   -2.5548791  0.080538779   -3.7553705    1.2004914   520603 
 2634000    1.0136539     -3.75672     -3.75672   -2.5561545  0.080761888     -3.75672    1.2005655   520603 
 2635000     1.012343   -3.7556312   -3.7556312   -2.5566184  0.069210846   -3.7556312    1.1990128   520603 
 2636000    1.0138478   -3.7569193   -3.7569193   -2.5561242  0.075569781   -3.7569193    1.2007951   520603 
 2637000    1.0135305   -3.7567945   -3.7567945   -2.5563752  0.079484685   -3.7567945    1.2004193   520603 
 2638000    1.0137072   -3.7566702   -3.7566702   -2.5560416  0.062072777   -3.7566702    1.2006286   520603 
 2639000    1.0144531   -3.7582679   -3.7582679   -2.5567558  0.063294659   -3.7582679    1.2015121   520603 
 2640000    1.0129097   -3.7567547   -3.7567547   -2.5570707  0.076581029   -3.7567547     1.199684   520603 
 2641000     1.012741   -3.7562018   -3.7562018   -2.5567176  0.068512195   -3.7562018    1.1994842   520603 
 2642000    1.0136595   -3.7571489   -3.7571489   -2.5565768  0.081915152   -3.7571489    1.2005721   520603 
 2643000    1.0129905   -3.7562372   -3.7562372   -2.5564575  0.065072708   -3.7562372    1.1997797   520603 
 2644000    1.0135061   -3.7570254   -3.7570254   -2.5566349  0.056002375   -3.7570254    1.2003904   520603 
 2645000    1.0132306   -3.7574041   -3.7574041     -2.55734  0.073194787   -3.7574041    1.2000641   520603 
 2646000    1.0148915   -3.7580777   -3.7580777   -2.5560464  0.070661196   -3.7580777    1.2020313   520603 
 2647000    1.0133065   -3.7565501   -3.7565501   -2.5563961  0.058112526   -3.7565501     1.200154   520603 
 2648000     1.013004   -3.7556791   -3.7556791   -2.5558834  0.075631251   -3.7556791    1.1997957   520603 
 2649000    1.0129858    -3.755029    -3.755029   -2.5552547  0.057257423    -3.755029    1.1997742   520603 
 2650000    1.0125267   -3.7547902   -3.7547902   -2.5555598  0.058354884   -3.7547902    1.1992304   520603 
 2651000    1.0135415   -3.7564482   -3.7564482   -2.5560159  0.066038333   -3.7564482    1.2004324   520603 
 2652000    1.0129248    -3.756455    -3.756455   -2.5567531  0.083576568    -3.756455    1.1997019   520603 
 2653000    1.0137927   -3.7570064   -3.7570064   -2.5562765  0.073100678   -3.7570064    1.2007299   520603 
 2654000    1.0141761   -3.7578165   -3.7578165   -2.5566325  0.050810297   -3.7578165     1.201184   520603 
 2655000    1.0130355   -3.7558185   -3.7558185   -2.5559854  0.070869297   -3.7558185    1.1998331   520603 
 2656000    1.0123606   -3.7547984   -3.7547984   -2.5557647  0.075034497   -3.7547984    1.1990337   520603 
 2657000    1.0119876   -3.7550466   -3.7550466   -2.5564547  0.067659271   -3.7550466    1.1985919   520603 
 2658000    1.0123725   -3.7554368   -3.7554368   -2.5563891  0.054045766   -3.7554368    1.1990477   520603 
 2659000    1.0125328   -3.7557249   -3.7557249   -2.5564873  0.068225279   -3.7557249    1.1992376   520603 
 2660000    1.0120316   -3.7563668   -3.7563668   -2.5577228  0.067768377   -3.7563668    1.1986441   520603 
 2661000     1.012829   -3.7570368   -3.7570368   -2.5574484  0.069466918   -3.7570368    1.1995884   520603 
 2662000    1.0132462   -3.7571653   -3.7571653   -2.5570827  0.064881404   -3.7571653    1.2000826   520603 
 2663000    1.0097655    -3.753708    -3.753708   -2.5577479  0.078264204    -3.753708    1.1959601   520603 
 2664000    1.0126507   -3.7572108   -3.7572108   -2.5578335   0.07621369   -3.7572108    1.1993773   520603 
 2665000    1.0128248   -3.7566514   -3.7566514    -2.557068  0.074151767   -3.7566514    1.1995834   520603 
 2666000    1.0111013    -3.754657    -3.754657   -2.5571148  0.066095395    -3.754657    1.1975422   520603 
 2667000    1.0142945   -3.7581538   -3.7581538   -2.5568296  0.075264931   -3.7581538    1.2013241   520603 
 2668000    1.0137388   -3.7574135   -3.7574135   -2.5567475  0.063257391   -3.7574135     1.200666   520603 
 2669000    1.0135952   -3.7578006   -3.7578006   -2.5573046  0.073427059   -3.7578006    1.2004959   520603 
 2670000    1.0126986   -3.7562351   -3.7562351   -2.5568011  0.065588234   -3.7562351     1.199434   520603 
 2671000    1.0125768   -3.7556661   -3.7556661   -2.5563763  0.075982457   -3.7556661    1.1992898   520603 
 2672000    1.0143163   -3.7577324   -3.7577324   -2.5563823  0.063128153   -3.7577324      1.20135   520603 
 2673000    1.0133544   -3.7569416   -3.7569416   -2.5567309  0.051173035   -3.7569416    1.2002108   520603 
 2674000    1.0133251   -3.7570741   -3.7570741   -2.5568982  0.067266459   -3.7570741     1.200176   520603 
 2675000    1.0130205    -3.757166    -3.757166   -2.5573507  0.061870712    -3.757166    1.1998152   520603 
 2676000    1.0140426   -3.7574686   -3.7574686   -2.5564428  0.081201271   -3.7574686    1.2010258   520603 
 2677000    1.0122102   -3.7554696   -3.7554696    -2.556614  0.080599852   -3.7554696    1.1988556   520603 
 2678000     1.014186   -3.7579106   -3.7579106   -2.5567149  0.074130579   -3.7579106    1.2011957   520603 
 2679000    1.0139762   -3.7570619   -3.7570619   -2.5561147  0.078594641   -3.7570619    1.2009472   520603 
 2680000    1.0138928   -3.7577059   -3.7577059   -2.5568575   0.06816157   -3.7577059    1.2008484   520603 
 2681000    1.0163688   -3.7612617   -3.7612617   -2.5574807  0.057506841   -3.7612617    1.2037809   520603 
 2682000    1.0136596   -3.7585532   -3.7585532   -2.5579811   0.06809092   -3.7585532    1.2005722   520603 
 2683000    1.0139752   -3.7585941   -3.7585941   -2.5576482  0.076537576   -3.7585941     1.200946   520603 
 2684000    1.0130353   -3.7569709   -3.7569709   -2.5571382  0.080031801   -3.7569709    1.1998327   520603 
 2685000    1.0130044   -3.7568118   -3.7568118   -2.5570156  0.061790544   -3.7568118    1.1997962   520603 
 2686000    1.0128934   -3.7561089   -3.7561089   -2.5564442  0.093721065   -3.7561089    1.1996647   520603 
 2687000    1.0134521   -3.7569612   -3.7569612   -2.5566347  0.062602055   -3.7569612    1.2003265   520603 
 2688000    1.0151309   -3.7586198   -3.7586198    -2.556305  0.071079374   -3.7586198    1.2023149   520603 
 2689000    1.0137336   -3.7565683   -3.7565683   -2.5559084  0.071176641   -3.7565683    1.2006598   520603 
 2690000    1.0149606   -3.7588828   -3.7588828   -2.5567697  0.067704493   -3.7588828    1.2021131   520603 
 2691000    1.0137003   -3.7571582   -3.7571582   -2.5565377  0.070637108   -3.7571582    1.2006204   520603 
 2692000    1.0147065   -3.7587796   -3.7587796   -2.5569675  0.079202601   -3.7587796    1.2018121   520603 
 2693000     1.012517   -3.7554888   -3.7554888   -2.5562698  0.072317007   -3.7554888     1.199219   520603 
 2694000    1.0143755   -3.7576045   -3.7576045   -2.5561844  0.062505399   -3.7576045    1.2014201   520603 
 2695000    1.0115108   -3.7554595   -3.7554595   -2.5574323  0.071664028   -3.7554595    1.1980272   520603 
 2696000    1.0133148   -3.7571525   -3.7571525   -2.5569887  0.075492357   -3.7571525    1.2001638   520603 
 2697000    1.0141709   -3.7575503   -3.7575503   -2.5563725   0.05583525   -3.7575503    1.2011778   520603 
 2698000    1.0128359   -3.7562657   -3.7562657   -2.5566691  0.065589761   -3.7562657    1.1995966   520603 
 2699000    1.0122511   -3.7568976   -3.7568976   -2.5579936  0.067907407   -3.7568976     1.198904   520603 
 2700000    1.0120118   -3.7565784   -3.7565784   -2.5579578  0.065207635   -3.7565784    1.1986206   520603 
 2701000    1.0130456   -3.7572854   -3.7572854   -2.5574405  0.058411496   -3.7572854     1.199845   520603 
 2702000    1.0110153   -3.7557196   -3.7557196   -2.5582793  0.061556925   -3.7557196    1.1974403   520603 
 2703000    1.0139337   -3.7589436   -3.7589436   -2.5580467  0.055836345   -3.7589436    1.2008969   520603 
 2704000    1.0120179   -3.7569092   -3.7569092   -2.5582814   0.07533129   -3.7569092    1.1986278   520603 
 2705000    1.0114103   -3.7558677   -3.7558677   -2.5579596  0.063621172   -3.7558677    1.1979081   520603 
 2706000    1.0158654    -3.759448    -3.759448   -2.5562633  0.073008481    -3.759448    1.2031847   520603 
 2707000    1.0148628   -3.7577832   -3.7577832   -2.5557859  0.062729239   -3.7577832    1.2019973   520603 
 2708000    1.0148013   -3.7586999   -3.7586999   -2.5567754  0.065373249   -3.7586999    1.2019245   520603 
 2709000    1.0140998   -3.7580349   -3.7580349   -2.5569412  0.078395425   -3.7580349    1.2010936   520603 
 2710000     1.014818   -3.7603489   -3.7603489   -2.5584046  0.079894986   -3.7603489    1.2019443   520603 
 2711000    1.0146203   -3.7605314   -3.7605314   -2.5588213  0.068438284   -3.7605314    1.2017101   520603 
 2712000    1.0139112   -3.7591503   -3.7591503   -2.5582801  0.069422689   -3.7591503    1.2008703   520603 
 2713000    1.0146768   -3.7598091   -3.7598091   -2.5580322  0.067030648   -3.7598091     1.201777   520603 
 2714000    1.0127352   -3.7580943   -3.7580943   -2.5586169  0.072637581   -3.7580943    1.1994774   520603 
 2715000    1.0132905   -3.7588035   -3.7588035   -2.5586684  0.061841774   -3.7588035    1.2001351   520603 
 2716000    1.0113662   -3.7563118   -3.7563118   -2.5584558  0.070810775   -3.7563118    1.1978559   520603 
 2717000    1.0116578   -3.7566424   -3.7566424   -2.5584412  0.066873978   -3.7566424    1.1982012   520603 
 2718000    1.0135467   -3.7582316   -3.7582316    -2.557793   0.06527302   -3.7582316    1.2004385   520603 
 2719000    1.0135558   -3.7591267   -3.7591267   -2.5586774  0.058123049   -3.7591267    1.2004493   520603 
 2720000    1.0142587   -3.7610422   -3.7610422   -2.5597604  0.065250495   -3.7610422    1.2012818   520603 
 2721000    1.0125111   -3.7587412   -3.7587412   -2.5595293  0.062930509   -3.7587412     1.199212   520603 
 2722000    1.0140362   -3.7599694   -3.7599694   -2.5589512  0.069668465   -3.7599694    1.2010182   520603 
 2723000    1.0133573   -3.7591378   -3.7591378   -2.5589236  0.068535647   -3.7591378    1.2002142   520603 
 2724000    1.0126387   -3.7583839   -3.7583839   -2.5590209  0.076939385   -3.7583839     1.199363   520603 
 2725000    1.0137792   -3.7598098   -3.7598098   -2.5590959  0.087048508   -3.7598098    1.2007138   520603 
 2726000    1.0135314   -3.7592565   -3.7592565   -2.5588361  0.071783462   -3.7592565    1.2004204   520603 
 2727000    1.0127734   -3.7585202   -3.7585202   -2.5589975  0.081413638   -3.7585202    1.1995226   520603 
 2728000    1.0128333    -3.758657    -3.758657   -2.5590634  0.078787998    -3.758657    1.1995935   520603 
 2729000    1.0108442   -3.7567363   -3.7567363   -2.5594986  0.062156218   -3.7567363    1.1972377   520603 
 2730000    1.0126035   -3.7583292   -3.7583292   -2.5590077  0.058804196   -3.7583292    1.1993214   520603 
 2731000    1.0117946   -3.7593988   -3.7593988   -2.5610355  0.062938536   -3.7593988    1.1983633   520603 
 2732000    1.0138255   -3.7614603   -3.7614603   -2.5606916  0.077937535   -3.7614603    1.2007688   520603 
 2733000    1.0132313   -3.7603788   -3.7603788   -2.5603139   0.07750921   -3.7603788    1.2000649   520603 
 2734000    1.0114611   -3.7587496   -3.7587496   -2.5607813  0.079455822   -3.7587496    1.1979683   520603 
 2735000    1.0119885   -3.7589187   -3.7589187   -2.5603257   0.08258256   -3.7589187     1.198593   520603 
 2736000    1.0137891   -3.7616227   -3.7616227   -2.5608971  0.060445851   -3.7616227    1.2007256   520603 
 2737000    1.0146783   -3.7621973   -3.7621973   -2.5604185  0.058924465   -3.7621973    1.2017788   520603 
 2738000    1.0144308   -3.7613877   -3.7613877   -2.5599021   0.06678943   -3.7613877    1.2014856   520603 
 2739000    1.0140886   -3.7607288   -3.7607288   -2.5596484  0.070372451   -3.7607288    1.2010803   520603 
 2740000    1.0130292    -3.759493    -3.759493   -2.5596674  0.084815582    -3.759493    1.1998256   520603 
 2741000    1.0123409   -3.7590564   -3.7590564   -2.5600461  0.076565903   -3.7590564    1.1990104   520603 
 2742000    1.0140736   -3.7609844   -3.7609844   -2.5599218    0.0697212   -3.7609844    1.2010626   520603 
 2743000    1.0122293   -3.7599831   -3.7599831   -2.5611049  0.056970503   -3.7599831    1.1988782   520603 
 2744000    1.0109424   -3.7578971   -3.7578971   -2.5605431  0.070318854   -3.7578971     1.197354   520603 
 2745000    1.0120219   -3.7588701   -3.7588701   -2.5602376  0.080036827   -3.7588701    1.1986325   520603 
 2746000    1.0119321   -3.7592102   -3.7592102   -2.5606839  0.068214111   -3.7592102    1.1985262   520603 
 2747000    1.0124405   -3.7591344   -3.7591344   -2.5600061   0.07126127   -3.7591344    1.1991283   520603 
 2748000    1.0128289   -3.7592228   -3.7592228   -2.5596345  0.059426043   -3.7592228    1.1995883   520603 
 2749000    1.0126622   -3.7589677   -3.7589677   -2.5595768  0.063221632   -3.7589677    1.1993909   520603 
 2750000    1.0117314   -3.7586932   -3.7586932   -2.5604047  0.064094061   -3.7586932    1.1982885   520603 
 2751000    1.0128222   -3.7596797   -3.7596797   -2.5600994  0.066015624   -3.7596797    1.1995804   520603 
 2752000    1.0127145   -3.7597424   -3.7597424   -2.5602895  0.059230341   -3.7597424    1.1994528   520603 
 2753000    1.0103986   -3.7567688   -3.7567688    -2.560059  0.088226716   -3.7567688    1.1967099   520603 
 2754000    1.0132641   -3.7604355   -3.7604355   -2.5603317  0.066835538   -3.7604355    1.2001038   520603 
 2755000    1.0129386    -3.760293    -3.760293   -2.5605748  0.076948185    -3.760293    1.1997182   520603 
 2756000    1.0121697   -3.7597743   -3.7597743   -2.5609667  0.073755417   -3.7597743    1.1988075   520603 
 2757000    1.0130278   -3.7614261   -3.7614261   -2.5616021  0.067834899   -3.7614261     1.199824   520603 
 2758000    1.0130907   -3.7619797   -3.7619797   -2.5620812  0.071355226   -3.7619797    1.1998985   520603 
 2759000    1.0135443   -3.7619524   -3.7619524   -2.5615168  0.080135219   -3.7619524    1.2004356   520603 
 2760000     1.013089    -3.761063    -3.761063   -2.5611666  0.072332015    -3.761063    1.1998964   520603 
 2761000    1.0116263   -3.7589567   -3.7589567   -2.5607927   0.06351127   -3.7589567     1.198164   520603 
 2762000    1.0136074   -3.7609441   -3.7609441   -2.5604337  0.069360803   -3.7609441    1.2005104   520603 
 2763000    1.0123975   -3.7597744   -3.7597744    -2.560697  0.063232461   -3.7597744    1.1990774   520603 
 2764000      1.01407    -3.761136    -3.761136   -2.5600777  0.064591872    -3.761136    1.2010582   520603 
 2765000    1.0125332   -3.7610311   -3.7610311    -2.561793  0.065352943   -3.7610311    1.1992381   520603 
 2766000    1.0126312   -3.7620987   -3.7620987   -2.5627445  0.063158664   -3.7620987    1.1993542   520603 
 2767000    1.0117115   -3.7610246   -3.7610246   -2.5627596  0.053325224   -3.7610246    1.1982649   520603 
 2768000    1.0107682    -3.759616    -3.759616   -2.5624684  0.069275501    -3.759616    1.1971476   520603 
 2769000    1.0122317   -3.7608332   -3.7608332   -2.5619522  0.059922449   -3.7608332    1.1988811   520603 
 2770000    1.0109675   -3.7594282   -3.7594282   -2.5620445  0.063105567   -3.7594282    1.1973837   520603 
 2771000     1.011454   -3.7602483   -3.7602483   -2.5622884  0.069867492   -3.7602483    1.1979599   520603 
 2772000    1.0131213   -3.7620633   -3.7620633   -2.5621286  0.076986729   -3.7620633    1.1999347   520603 
 2773000    1.0127197   -3.7616336   -3.7616336   -2.5621746  0.065132435   -3.7616336    1.1994591   520603 
 2774000    1.0124778   -3.7620275   -3.7620275   -2.5628549  0.069363275   -3.7620275    1.1991725   520603 
 2775000    1.0122702   -3.7626323   -3.7626323   -2.5637056  0.059942505   -3.7626323    1.1989267   520603 
 2776000    1.0116586   -3.7623153   -3.7623153    -2.564113  0.079498612   -3.7623153    1.1982023   520603 
 2777000    1.0104221   -3.7602788   -3.7602788   -2.5635411   0.06229174   -3.7602788    1.1967377   520603 
 2778000    1.0095995   -3.7597813   -3.7597813   -2.5640179  0.069995572   -3.7597813    1.1957634   520603 
 2779000    1.0090973   -3.7593405   -3.7593405   -2.5641717  0.078896272   -3.7593405    1.1951687   520603 
 2780000    1.0122023   -3.7627295   -3.7627295   -2.5638833  0.069765224   -3.7627295    1.1988461   520603 
 2781000    1.0126457   -3.7631209   -3.7631209   -2.5637496    0.0735944   -3.7631209    1.1993713   520603 
 2782000    1.0110453   -3.7605902   -3.7605902   -2.5631144  0.072301916   -3.7605902    1.1974758   520603 
 2783000    1.0117438   -3.7608942   -3.7608942   -2.5625911  0.061580787   -3.7608942    1.1983031   520603 
 2784000    1.0131793    -3.762927    -3.762927   -2.5629236   0.07091692    -3.762927    1.2000034   520603 
 2785000     1.012338   -3.7624879   -3.7624879    -2.563481  0.072685482   -3.7624879    1.1990069   520603 
 2786000    1.0129387   -3.7627109   -3.7627109   -2.5629925   0.05365871   -3.7627109    1.1997184   520603 
 2787000    1.0131774   -3.7625272   -3.7625272   -2.5625261  0.067816688   -3.7625272    1.2000011   520603 
 2788000    1.0138628   -3.7630403   -3.7630403   -2.5622274  0.074380314   -3.7630403    1.2008129   520603 
 2789000    1.0146898   -3.7634475   -3.7634475   -2.5616552  0.064579308   -3.7634475    1.2017924   520603 
 2790000    1.0126378   -3.7610943   -3.7610943   -2.5617323  0.067659013   -3.7610943     1.199362   520603 
 2791000    1.0140636   -3.7628229   -3.7628229   -2.5617723  0.078216145   -3.7628229    1.2010506   520603 
 2792000    1.0136104   -3.7621876   -3.7621876   -2.5616737  0.069815989   -3.7621876    1.2005139   520603 
 2793000     1.012773   -3.7612464   -3.7612464   -2.5617242  0.068998404   -3.7612464    1.1995221   520603 
 2794000    1.0122732   -3.7601569   -3.7601569   -2.5612268  0.065222947   -3.7601569    1.1989301   520603 
 2795000    1.0121356   -3.7592052   -3.7592052    -2.560438    0.0784007   -3.7592052    1.1987672   520603 
 2796000    1.0123771   -3.7598152   -3.7598152    -2.560762  0.077265722   -3.7598152    1.1990533   520603 
 2797000    1.0140346   -3.7610005   -3.7610005   -2.5599841   0.07515485   -3.7610005    1.2010164   520603 
 2798000    1.0137763    -3.760764    -3.760764   -2.5600536  0.067728967    -3.760764    1.2007104   520603 
 2799000    1.0128477   -3.7603935   -3.7603935   -2.5607829  0.084281022   -3.7603935    1.1996106   520603 
 2800000    1.0120988   -3.7593077   -3.7593077   -2.5605841  0.063353899   -3.7593077    1.1987236   520603 
 2801000    1.0115558    -3.757792    -3.757792   -2.5597115  0.057888908    -3.757792    1.1980805   520603 
 2802000     1.010363   -3.7571851   -3.7571851   -2.5605174  0.071245961   -3.7571851    1.1966677   520603 
 2803000    1.0111017   -3.7576441   -3.7576441   -2.5601015  0.069585771   -3.7576441    1.1975427   520603 
 2804000    1.0104267   -3.7565481   -3.7565481    -2.559805   0.06530893   -3.7565481    1.1967431   520603 
 2805000    1.0134617   -3.7607135   -3.7607135   -2.5603756  0.069682466   -3.7607135    1.2003378   520603 
 2806000    1.0126959   -3.7595546   -3.7595546   -2.5601238  0.064196564   -3.7595546    1.1994308   520603 
 2807000    1.0142552   -3.7612889   -3.7612889   -2.5600112  0.062227742   -3.7612889    1.2012776   520603 
 2808000    1.0123118   -3.7591707   -3.7591707   -2.5601948  0.071707319   -3.7591707    1.1989759   520603 
 2809000    1.0133082   -3.7610907   -3.7610907   -2.5609347  0.054726564   -3.7610907     1.200156   520603 
 2810000    1.0147032   -3.7630736   -3.7630736   -2.5612654  0.063648958   -3.7630736    1.2018082   520603 
 2811000    1.0109461   -3.7587944   -3.7587944    -2.561436  0.060061077   -3.7587944    1.1973584   520603 
 2812000     1.011074   -3.7594095   -3.7594095   -2.5618996  0.072710485   -3.7594095    1.1975099   520603 
 2813000    1.0121396   -3.7603496   -3.7603496   -2.5615777  0.081422927   -3.7603496    1.1987719   520603 
 2814000    1.0100874   -3.7589876   -3.7589876   -2.5626463   0.06226931   -3.7589876    1.1963413   520603 
 2815000    1.0107082   -3.7593773   -3.7593773   -2.5623007  0.055397425   -3.7593773    1.1970766   520603 
 2816000     1.012126   -3.7601619   -3.7601619   -2.5614061  0.064943602   -3.7601619    1.1987558   520603 
 2817000    1.0144061   -3.7624914   -3.7624914    -2.561035  0.079769815   -3.7624914    1.2014564   520603 
 2818000    1.0130071   -3.7618427   -3.7618427   -2.5620434   0.07206992   -3.7618427    1.1997994   520603 
 2819000    1.0117796    -3.759865    -3.759865   -2.5615195  0.076813017    -3.759865    1.1983455   520603 
 2820000    1.0132702    -3.761576    -3.761576    -2.561465   0.06126406    -3.761576     1.200111   520603 
 2821000    1.0125519   -3.7609138   -3.7609138   -2.5616535  0.079648962   -3.7609138    1.1992603   520603 
 2822000    1.0122521   -3.7607788   -3.7607788   -2.5618736  0.080889505   -3.7607788    1.1989052   520603 
 2823000     1.013283   -3.7620244   -3.7620244   -2.5618981  0.067902255   -3.7620244    1.2001262   520603 
 2824000    1.0139836   -3.7624505   -3.7624505   -2.5614946  0.058939639   -3.7624505    1.2009559   520603 
 2825000    1.0133983   -3.7625687   -3.7625687    -2.562306  0.068728423   -3.7625687    1.2002627   520603 
 2826000    1.0121859   -3.7602689   -3.7602689   -2.5614421  0.063635732   -3.7602689    1.1988268   520603 
 2827000    1.0126242    -3.760541    -3.760541   -2.5611951  0.078593601    -3.760541    1.1993459   520603 
 2828000    1.0129819   -3.7605489   -3.7605489   -2.5607793  0.077837599   -3.7605489    1.1997696   520603 
 2829000    1.0146568    -3.763381    -3.763381   -2.5616277  0.058690225    -3.763381    1.2017532   520603 
 2830000    1.0131232   -3.7614675   -3.7614675   -2.5615306  0.080998258   -3.7614675    1.1999369   520603 
 2831000    1.0134992   -3.7622403   -3.7622403    -2.561858  0.071609694   -3.7622403    1.2003823   520603 
 2832000    1.0125777   -3.7607993   -3.7607993   -2.5615085  0.060093821   -3.7607993    1.1992908   520603 
 2833000    1.0133731   -3.7631283   -3.7631283   -2.5628955  0.063423441   -3.7631283    1.2002328   520603 
 2834000    1.0129065   -3.7631599   -3.7631599   -2.5634796  0.056152964   -3.7631599    1.1996802   520603 
 2835000    1.0113749   -3.7610527   -3.7610527   -2.5631864  0.067933029   -3.7610527    1.1978663   520603 
 2836000    1.0129268   -3.7632181   -3.7632181   -2.5635138  0.072736252   -3.7632181    1.1997043   520603 
 2837000     1.010198   -3.7605135   -3.7605135   -2.5640411  0.066746247   -3.7605135    1.1964723   520603 
 2838000    1.0114358   -3.7618933   -3.7618933    -2.563955  0.064152017   -3.7618933    1.1979383   520603 
 2839000    1.0122243   -3.7625719   -3.7625719   -2.5636997  0.070732662   -3.7625719    1.1988723   520603 
 2840000    1.0097993    -3.761043    -3.761043    -2.565043  0.071567148    -3.761043    1.1960001   520603 
 2841000    1.0104135   -3.7632894   -3.7632894   -2.5665619  0.059999627   -3.7632894    1.1967275   520603 
 2842000    1.0103927   -3.7619354   -3.7619354   -2.5652325  0.066626015   -3.7619354    1.1967029   520603 
 2843000    1.0093985    -3.761306    -3.761306   -2.5657806  0.057062006    -3.761306    1.1955254   520603 
 2844000    1.0115876   -3.7633632   -3.7633632    -2.565245  0.076994305   -3.7633632    1.1981182   520603 
 2845000    1.0119202   -3.7639184   -3.7639184   -2.5654063  0.067549399   -3.7639184    1.1985121   520603 
 2846000    1.0122557   -3.7645179   -3.7645179   -2.5656085  0.065677937   -3.7645179    1.1989094   520603 
 2847000    1.0119706   -3.7640613   -3.7640613   -2.5654895   0.07630699   -3.7640613    1.1985718   520603 
 2848000    1.0130827   -3.7648047   -3.7648047   -2.5649157  0.073414724   -3.7648047     1.199889   520603 
 2849000     1.012785   -3.7641388   -3.7641388   -2.5646025  0.067623531   -3.7641388    1.1995363   520603 
 2850000    1.0126164   -3.7637151   -3.7637151   -2.5643785  0.083783592   -3.7637151    1.1993366   520603 
 2851000    1.0112912   -3.7622578   -3.7622578   -2.5644907  0.075741182   -3.7622578    1.1977671   520603 
 2852000    1.0127092    -3.765587    -3.765587   -2.5661403  0.067349547    -3.765587    1.1994466   520603 
 2853000    1.0119328   -3.7632609   -3.7632609   -2.5647339  0.067893809   -3.7632609     1.198527   520603 
 2854000    1.0121094   -3.7648072   -3.7648072    -2.566071  0.067926546   -3.7648072    1.1987362   520603 
 2855000    1.0119967   -3.7651776   -3.7651776   -2.5665749  0.066896693   -3.7651776    1.1986027   520603 
 2856000    1.0119081   -3.7652013   -3.7652013   -2.5667035  0.055543811   -3.7652013    1.1984978   520603 
 2857000    1.0132616   -3.7664537   -3.7664537   -2.5663529   0.06388605   -3.7664537    1.2001009   520603 
 2858000    1.0100822   -3.7629022   -3.7629022    -2.566567  0.065083633   -3.7629022    1.1963352   520603 
 2859000    1.0122397   -3.7651716   -3.7651716    -2.566281  0.065559712   -3.7651716    1.1988905   520603 
 2860000     1.010628   -3.7630401   -3.7630401   -2.5660585  0.062069866   -3.7630401    1.1969816   520603 
 2861000     1.012285   -3.7643225   -3.7643225   -2.5653783  0.061100401   -3.7643225    1.1989442   520603 
 2862000    1.0128138   -3.7653309   -3.7653309   -2.5657604  0.067069584   -3.7653309    1.1995705   520603 
 2863000     1.012928    -3.765599    -3.765599   -2.5658933  0.084270726    -3.765599    1.1997057   520603 
 2864000    1.0119996   -3.7640428   -3.7640428   -2.5654367  0.068929752   -3.7640428    1.1986061   520603 
 2865000    1.0140035   -3.7672884   -3.7672884    -2.566309  0.067395661   -3.7672884    1.2009795   520603 
 2866000    1.0129143   -3.7656871   -3.7656871   -2.5659977  0.070179316   -3.7656871    1.1996894   520603 
 2867000    1.0122089   -3.7651604   -3.7651604   -2.5663064   0.07209472   -3.7651604     1.198854   520603 
 2868000    1.0121614   -3.7648065   -3.7648065   -2.5660088  0.066125896   -3.7648065    1.1987977   520603 
 2869000    1.0124215   -3.7647803   -3.7647803   -2.5656745  0.079792491   -3.7647803    1.1991058   520603 
 2870000    1.0116533   -3.7644313   -3.7644313   -2.5662353  0.064694508   -3.7644313     1.198196   520603 
 2871000    1.0109293   -3.7651035   -3.7651035    -2.567765  0.073585702   -3.7651035    1.1973385   520603 
 2872000    1.0124489   -3.7666055   -3.7666055   -2.5674672  0.075879772   -3.7666055    1.1991383   520603 
 2873000    1.0121304   -3.7668125   -3.7668125   -2.5680515  0.055056735   -3.7668125     1.198761   520603 
 2874000    1.0120743   -3.7668349   -3.7668349   -2.5681403  0.059300682   -3.7668349    1.1986946   520603 
 2875000    1.0091335   -3.7627932   -3.7627932   -2.5675816  0.077649969   -3.7627932    1.1952115   520603 
 2876000    1.0106943   -3.7634206   -3.7634206   -2.5663605  0.058569034   -3.7634206    1.1970601   520603 
 2877000     1.010663   -3.7627179   -3.7627179   -2.5656949   0.07546761   -3.7627179     1.197023   520603 
 2878000    1.0105144   -3.7626968   -3.7626968   -2.5658498  0.067136636   -3.7626968     1.196847   520603 
 2879000    1.0085183   -3.7608286   -3.7608286   -2.5663458   0.06188649   -3.7608286    1.1944828   520603 
 2880000    1.0112961   -3.7638449   -3.7638449   -2.5660719  0.062722645   -3.7638449    1.1977729   520603 
 2881000     1.011951   -3.7644293   -3.7644293   -2.5658808  0.074246322   -3.7644293    1.1985486   520603 
 2882000    1.0110476   -3.7623112   -3.7623112   -2.5648325   0.06781718   -3.7623112    1.1974786   520603 
 2883000    1.0123314   -3.7637112   -3.7637112   -2.5647121   0.06779744   -3.7637112    1.1989991   520603 
 2884000    1.0106573   -3.7623973   -3.7623973   -2.5653809  0.073462423   -3.7623973    1.1970164   520603 
 2885000    1.0120589   -3.7647976   -3.7647976   -2.5661213  0.070071791   -3.7647976    1.1986763   520603 
 2886000     1.011447   -3.7639779   -3.7639779   -2.5660263  0.077417623   -3.7639779    1.1979516   520603 
 2887000    1.0102035   -3.7623804   -3.7623804   -2.5659015  0.067161885   -3.7623804    1.1964788   520603 
 2888000    1.0105296   -3.7633231   -3.7633231    -2.566458  0.069805353   -3.7633231    1.1968651   520603 
 2889000    1.0103399   -3.7628878   -3.7628878   -2.5662474   0.07080695   -3.7628878    1.1966404   520603 
 2890000    1.0114489   -3.7648314   -3.7648314   -2.5668776  0.060258589   -3.7648314    1.1979538   520603 
 2891000    1.0110618   -3.7647281   -3.7647281   -2.5672327     0.054934   -3.7647281    1.1974954   520603 
 2892000    1.0117811   -3.7650448   -3.7650448   -2.5666974  0.075767867   -3.7650448    1.1983474   520603 
 2893000    1.0134455   -3.7671181   -3.7671181   -2.5667995  0.051229347   -3.7671181    1.2003186   520603 
 2894000    1.0140936   -3.7675467   -3.7675467   -2.5664604  0.080272508   -3.7675467    1.2010863   520603 
 2895000     1.012184   -3.7651822   -3.7651822   -2.5663576  0.080591157   -3.7651822    1.1988245   520603 
 2896000    1.0116462   -3.7645212   -3.7645212   -2.5663337  0.071467598   -3.7645212    1.1981875   520603 
 2897000    1.0126182     -3.76468     -3.76468   -2.5653412  0.079540422     -3.76468    1.1993388   520603 
 2898000    1.0123074   -3.7647982   -3.7647982   -2.5658275  0.070052328   -3.7647982    1.1989707   520603 
 2899000    1.0126133   -3.7644582   -3.7644582   -2.5651252  0.060722649   -3.7644582     1.199333   520603 
 2900000    1.0129236   -3.7657468   -3.7657468   -2.5660463  0.064319196   -3.7657468    1.1997005   520603 
 2901000    1.0111771   -3.7642367   -3.7642367   -2.5666047  0.060512467   -3.7642367     1.197632   520603 
 2902000    1.0130072    -3.766362    -3.766362   -2.5665625  0.063511831    -3.766362    1.1997995   520603 
 2903000    1.0124753   -3.7656608   -3.7656608   -2.5664913  0.076240371   -3.7656608    1.1991695   520603 
 2904000     1.010684   -3.7644777   -3.7644777   -2.5674297   0.05943958   -3.7644777     1.197048   520603 
 2905000    1.0117434   -3.7650798   -3.7650798   -2.5667771  0.069413934   -3.7650798    1.1983027   520603 
 2906000    1.0109664   -3.7642154   -3.7642154    -2.566833   0.06917727   -3.7642154    1.1973824   520603 
 2907000    1.0117657   -3.7651331   -3.7651331   -2.5668041  0.060911833   -3.7651331    1.1983291   520603 
 2908000    1.0119505   -3.7653527   -3.7653527   -2.5668048  0.068640865   -3.7653527    1.1985479   520603 
 2909000    1.0106737   -3.7639719   -3.7639719   -2.5669362  0.062361294   -3.7639719    1.1970358   520603 
 2910000    1.0118358   -3.7646642   -3.7646642    -2.566252  0.083285845   -3.7646642    1.1984121   520603 
 2911000    1.0112427   -3.7638805   -3.7638805   -2.5661708  0.086346129   -3.7638805    1.1977097   520603 
 2912000    1.0117383   -3.7638579   -3.7638579   -2.5655612  0.081145352   -3.7638579    1.1982967   520603 
 2913000    1.0111593   -3.7638734   -3.7638734   -2.5662626  0.074089053   -3.7638734    1.1976108   520603 
 2914000    1.0117712   -3.7641075   -3.7641075   -2.5657719  0.073084752   -3.7641075    1.1983356   520603 
 2915000    1.0104483   -3.7629647   -3.7629647    -2.566196  0.070467123   -3.7629647    1.1967687   520603 
 2916000    1.0110519    -3.763888    -3.763888   -2.5664043  0.087086235    -3.763888    1.1974837   520603 
 2917000    1.0115077   -3.7638256   -3.7638256   -2.5658021  0.056535221   -3.7638256    1.1980236   520603 
 2918000    1.0113495   -3.7638588   -3.7638588   -2.5660227  0.059293786   -3.7638588    1.1978361   520603 
 2919000    1.0107131   -3.7634314   -3.7634314    -2.566349  0.067365434   -3.7634314    1.1970824   520603 
 2920000    1.0113826   -3.7641133   -3.7641133    -2.566238  0.074534861   -3.7641133    1.1978753   520603 
 2921000    1.0111031   -3.7648526   -3.7648526   -2.5673083  0.074639861   -3.7648526    1.1975443   520603 
 2922000    1.0106464   -3.7655822   -3.7655822   -2.5685789  0.075663917   -3.7655822    1.1970034   520603 
 2923000    1.0111005   -3.7661732   -3.7661732   -2.5686319   0.07572674   -3.7661732    1.1975413   520603 
 2924000    1.0105505   -3.7659668   -3.7659668    -2.569077  0.076410751   -3.7659668    1.1968898   520603 
 2925000    1.0106179   -3.7657516   -3.7657516    -2.568782  0.068861712   -3.7657516    1.1969696   520603 
 2926000    1.0105672   -3.7651315   -3.7651315   -2.5682219  0.078077969   -3.7651315    1.1969096   520603 
 2927000    1.0116909   -3.7670283   -3.7670283   -2.5687878  0.069027609   -3.7670283    1.1982405   520603 
 2928000    1.0126061   -3.7677928   -3.7677928   -2.5684683  0.072210963   -3.7677928    1.1993244   520603 
 2929000    1.0119378   -3.7672266   -3.7672266   -2.5686936  0.066977999   -3.7672266     1.198533   520603 
 2930000    1.0112478   -3.7667497   -3.7667497    -2.569034  0.060508463   -3.7667497    1.1977157   520603 
 2931000    1.0100984   -3.7648068   -3.7648068   -2.5684525  0.079650733   -3.7648068    1.1963543   520603 
 2932000     1.010386    -3.766012    -3.766012   -2.5693169  0.073335479    -3.766012     1.196695   520603 
 2933000    1.0125726   -3.7672775   -3.7672775   -2.5679927  0.072312522   -3.7672775    1.1992848   520603 
 2934000    1.0101008   -3.7643956   -3.7643956   -2.5680384  0.079079686   -3.7643956    1.1963572   520603 
 2935000    1.0129291   -3.7685132   -3.7685132   -2.5688063  0.056616825   -3.7685132     1.199707   520603 
 2936000    1.0117508   -3.7664704   -3.7664704   -2.5681589  0.090504077   -3.7664704    1.1983115   520603 
 2937000    1.0129091   -3.7675897   -3.7675897   -2.5679064  0.074243596   -3.7675897    1.1996833   520603 
 2938000    1.0123453   -3.7674095   -3.7674095   -2.5683939  0.058880139   -3.7674095    1.1990155   520603 
 2939000    1.0120462   -3.7667558   -3.7667558   -2.5680945  0.070380839   -3.7667558    1.1986613   520603 
 2940000    1.0112925   -3.7662658   -3.7662658   -2.5684972  0.064021463   -3.7662658    1.1977686   520603 
 2941000    1.0105166   -3.7646532   -3.7646532   -2.5678036  0.075519755   -3.7646532    1.1968497   520603 
 2942000    1.0123997   -3.7664821   -3.7664821   -2.5674021  0.077491809   -3.7664821      1.19908   520603 
 2943000    1.0116099   -3.7658391   -3.7658391   -2.5676946  0.054840535   -3.7658391    1.1981446   520603 
 2944000    1.0120494   -3.7663558   -3.7663558   -2.5676906  0.062574814   -3.7663558    1.1986651   520603 
 2945000     1.010797   -3.7650524   -3.7650524   -2.5678706  0.084238741   -3.7650524    1.1971818   520603 
 2946000    1.0112492   -3.7657948   -3.7657948   -2.5680775  0.071434344   -3.7657948    1.1977173   520603 
 2947000    1.0110575   -3.7650465   -3.7650465   -2.5675562  0.071306699   -3.7650465    1.1974903   520603 
 2948000    1.0120576    -3.765603    -3.765603   -2.5669282  0.071066788    -3.765603    1.1986748   520603 
 2949000    1.0112378   -3.7648853   -3.7648853   -2.5671814  0.061403444   -3.7648853    1.1977038   520603 
 2950000    1.0119423   -3.7659947   -3.7659947   -2.5674564  0.064449708   -3.7659947    1.1985383   520603 
 2951000    1.0119897   -3.7662398   -3.7662398   -2.5676455  0.055359567   -3.7662398    1.1985943   520603 
 2952000    1.0096131   -3.7636083   -3.7636083   -2.5678288  0.066766889   -3.7636083    1.1957796   520603 
 2953000    1.0110218     -3.76542     -3.76542    -2.567972  0.063589979     -3.76542     1.197448   520603 
 2954000    1.0101151   -3.7639167   -3.7639167   -2.5675425  0.074123046   -3.7639167    1.1963742   520603 
 2955000    1.0105501   -3.7647076   -3.7647076   -2.5678182   0.07282937   -3.7647076    1.1968894   520603 
 2956000    1.0108897   -3.7652176   -3.7652176   -2.5679261  0.065041741   -3.7652176    1.1972916   520603 
 2957000    1.0125614   -3.7670521   -3.7670521   -2.5677807  0.069281723   -3.7670521    1.1992715   520603 
 2958000    1.0125108   -3.7663468   -3.7663468   -2.5671352  0.068282065   -3.7663468    1.1992116   520603 
 2959000    1.0113195   -3.7644976   -3.7644976   -2.5666969  0.070235068   -3.7644976    1.1978007   520603 
 2960000    1.0124331   -3.7657003   -3.7657003   -2.5665807  0.064107806   -3.7657003    1.1991196   520603 
 2961000    1.0114999   -3.7646329   -3.7646329   -2.5666187  0.065331825   -3.7646329    1.1980142   520603 
 2962000    1.0110566   -3.7640862   -3.7640862    -2.566597  0.061972258   -3.7640862    1.1974892   520603 
 2963000    1.0120342   -3.7659807   -3.7659807   -2.5673336  0.069928644   -3.7659807    1.1986471   520603 
 2964000    1.0113514   -3.7652183   -3.7652183   -2.5673799  0.076858577   -3.7652183    1.1978384   520603 
 2965000    1.0108155    -3.765408    -3.765408   -2.5682043   0.07222491    -3.765408    1.1972037   520603 
 2966000    1.0100598   -3.7653105   -3.7653105   -2.5690019  0.071937232   -3.7653105    1.1963086   520603 
 2967000    1.0116709   -3.7669829   -3.7669829   -2.5687661  0.057791652   -3.7669829    1.1982168   520603 
 2968000    1.0088465   -3.7644193   -3.7644193   -2.5695477  0.082309438   -3.7644193    1.1948717   520603 
 2969000    1.0102926   -3.7648792   -3.7648792   -2.5682949  0.069454546   -3.7648792    1.1965843   520603 
 2970000    1.0128178   -3.7676574   -3.7676574   -2.5680823  0.073089271   -3.7676574    1.1995752   520603 
 2971000    1.0107798   -3.7653638   -3.7653638   -2.5682024  0.062355515   -3.7653638    1.1971614   520603 
 2972000    1.0105975    -3.765621    -3.765621   -2.5686755  0.071760714    -3.765621    1.1969455   520603 
 2973000    1.0106705   -3.7665419   -3.7665419   -2.5695099  0.064786355   -3.7665419    1.1970319   520603 
 2974000    1.0110085   -3.7672462   -3.7672462   -2.5698139   0.07292677   -3.7672462    1.1974323   520603 
 2975000    1.0111149    -3.767907    -3.767907   -2.5703487  0.047028133    -3.767907    1.1975583   520603 
 2976000    1.0099462   -3.7670808   -3.7670808   -2.5709067  0.068671237   -3.7670808    1.1961741   520603 
 2977000     1.010275   -3.7669405   -3.7669405   -2.5703769  0.083966086   -3.7669405    1.1965635   520603 
 2978000    1.0102167   -3.7673733   -3.7673733   -2.5708787  0.057886779   -3.7673733    1.1964945   520603 
 2979000    1.0105753   -3.7674471   -3.7674471   -2.5705279  0.073995299   -3.7674471    1.1969192   520603 
 2980000    1.0099613   -3.7672177   -3.7672177   -2.5710257  0.060387906   -3.7672177     1.196192   520603 
 2981000     1.010293   -3.7670587   -3.7670587   -2.5704739  0.064271796   -3.7670587    1.1965848   520603 
 2982000    1.0118983    -3.768292    -3.768292   -2.5698059  0.076214091    -3.768292    1.1984861   520603 
 2983000    1.0117538   -3.7684278   -3.7684278   -2.5701127  0.071362877   -3.7684278     1.198315   520603 
 2984000    1.0101636   -3.7665034   -3.7665034   -2.5700718  0.052012135   -3.7665034    1.1964316   520603 
 2985000    1.0108798   -3.7677455   -3.7677455   -2.5704657  0.072383895   -3.7677455    1.1972798   520603 
 2986000    1.0124031   -3.7703817   -3.7703817   -2.5712977  0.060692535   -3.7703817     1.199084   520603 
 2987000    1.0127776   -3.7708192   -3.7708192   -2.5712916  0.061535424   -3.7708192    1.1995276   520603 
 2988000    1.0116311   -3.7686768   -3.7686768   -2.5705072  0.063806809   -3.7686768    1.1981696   520603 
 2989000     1.012596   -3.7700226   -3.7700226   -2.5707101  0.074958975   -3.7700226    1.1993126   520603 
 2990000     1.011171   -3.7685693   -3.7685693   -2.5709445  0.081517273   -3.7685693    1.1976247   520603 
 2991000    1.0141417   -3.7712462   -3.7712462   -2.5701029  0.069000478   -3.7712462    1.2011433   520603 
 2992000    1.0126744   -3.7700146   -3.7700146   -2.5706093  0.076221191   -3.7700146    1.1994053   520603 
 2993000    1.0116703   -3.7688108   -3.7688108   -2.5705948  0.078686325   -3.7688108     1.198216   520603 
 2994000    1.0103786   -3.7687005   -3.7687005   -2.5720143  0.071289084   -3.7687005    1.1966862   520603 
 2995000     1.011167   -3.7690272   -3.7690272   -2.5714073  0.053264856   -3.7690272    1.1976199   520603 
 2996000    1.0115094   -3.7687303   -3.7687303   -2.5707048  0.073480195   -3.7687303    1.1980255   520603 
 2997000    1.0108073   -3.7681062   -3.7681062   -2.5709123   0.06296173   -3.7681062    1.1971939   520603 
 2998000    1.0115832   -3.7689172   -3.7689172   -2.5708043  0.069735189   -3.7689172    1.1981129   520603 
 2999000    1.0116889   -3.7693999   -3.7693999   -2.5711618  0.064179998   -3.7693999    1.1982381   520603 
 3000000    1.0097859   -3.7675313   -3.7675313    -2.571547  0.067501871   -3.7675313    1.1959842   520603 
 3001000    1.0114411   -3.7678049   -3.7678049   -2.5698602   0.07115858   -3.7678049    1.1979447   520603 
 3002000     1.010695    -3.766747    -3.766747   -2.5696861  0.061005221    -3.766747     1.197061   520603 
 3003000    1.0113123   -3.7664776   -3.7664776   -2.5686856  0.056429571   -3.7664776     1.197792   520603 
 3004000    1.0117258   -3.7663755   -3.7663755   -2.5680937  0.067508264   -3.7663755    1.1982818   520603 
 3005000    1.0109344   -3.7655349   -3.7655349   -2.5681903  0.065496625   -3.7655349    1.1973445   520603 
 3006000    1.0123369   -3.7680625   -3.7680625   -2.5690569  0.071565325   -3.7680625    1.1990056   520603 
 3007000    1.0105229    -3.766316    -3.766316    -2.569459  0.075828977    -3.766316    1.1968571   520603 
 3008000    1.0097481   -3.7663493   -3.7663493   -2.5704098  0.073567239   -3.7663493    1.1959395   520603 
 3009000    1.0118486   -3.7671067   -3.7671067   -2.5686795  0.069509211   -3.7671067    1.1984272   520603 
 3010000    1.0095834   -3.7647092   -3.7647092   -2.5689648  0.068000661   -3.7647092    1.1957444   520603 
 3011000    1.0091747   -3.7646623   -3.7646623   -2.5694021  0.065689385   -3.7646623    1.1952603   520603 
 3012000    1.0102683   -3.7659258   -3.7659258   -2.5693703  0.071835423   -3.7659258    1.1965556   520603 
 3013000    1.0083524    -3.763276    -3.763276   -2.5689896  0.075319633    -3.763276    1.1942864   520603 
 3014000    1.0097094   -3.7652712   -3.7652712   -2.5693776  0.051165198   -3.7652712    1.1958936   520603 
 3015000    1.0093002   -3.7656542   -3.7656542   -2.5702452  0.064999839   -3.7656542     1.195409   520603 
 3016000    1.0096645   -3.7664066   -3.7664066   -2.5705662  0.075026035   -3.7664066    1.1958405   520603 
 3017000    1.0102645   -3.7663058   -3.7663058   -2.5697546  0.079228128   -3.7663058    1.1965511   520603 
 3018000    1.0110446   -3.7679045   -3.7679045   -2.5704295  0.058502459   -3.7679045     1.197475   520603 
 3019000    1.0090278   -3.7652921   -3.7652921   -2.5702057  0.063960286   -3.7652921    1.1950864   520603 
 3020000    1.0097388   -3.7660193   -3.7660193   -2.5700909  0.076829479   -3.7660193    1.1959285   520603 
 3021000    1.0092842   -3.7651321   -3.7651321   -2.5697421  0.072492084   -3.7651321      1.19539   520603 
 3022000    1.0092529   -3.7660573   -3.7660573   -2.5707043  0.074570896   -3.7660573     1.195353   520603 
 3023000    1.0110188   -3.7684752   -3.7684752   -2.5710307  0.074391034   -3.7684752    1.1974445   520603 
 3024000    1.0112574   -3.7675797   -3.7675797   -2.5698526  0.080479232   -3.7675797    1.1977271   520603 
 3025000    1.0130226   -3.7703618   -3.7703618    -2.570544   0.07403416   -3.7703618    1.1998178   520603 
 3026000    1.0115853   -3.7687237   -3.7687237   -2.5706082  0.069129863   -3.7687237    1.1981154   520603 
 3027000    1.0116655   -3.7684302   -3.7684302   -2.5702198   0.07270813   -3.7684302    1.1982104   520603 
 3028000    1.0111849   -3.7677407   -3.7677407   -2.5700994  0.064632909   -3.7677407    1.1976412   520603 
 3029000    1.0111662   -3.7672567   -3.7672567   -2.5696376  0.070888039   -3.7672567    1.1976191   520603 
 3030000    1.0132896   -3.7694613   -3.7694613   -2.5693273  0.067145722   -3.7694613    1.2001339   520603 
 3031000    1.0116146   -3.7682813   -3.7682813   -2.5701312  0.066840107   -3.7682813    1.1981501   520603 
 3032000    1.0105557   -3.7677458   -3.7677458   -2.5708498  0.054028353   -3.7677458     1.196896   520603 
 3033000    1.0093962   -3.7668423   -3.7668423   -2.5713196  0.062629634   -3.7668423    1.1955227   520603 
 3034000    1.0109599   -3.7698517   -3.7698517    -2.572477  0.070223664   -3.7698517    1.1973747   520603 
 3035000     1.010203   -3.7681768   -3.7681768   -2.5716986  0.071401364   -3.7681768    1.1964782   520603 
 3036000    1.0092624   -3.7667876   -3.7667876   -2.5714234  0.071882677   -3.7667876    1.1953642   520603 
 3037000     1.009971   -3.7663702   -3.7663702   -2.5701668  0.067909321   -3.7663702    1.1962034   520603 
 3038000    1.0115453   -3.7688504   -3.7688504   -2.5707824  0.063203274   -3.7688504    1.1980681   520603 
 3039000    1.0087857   -3.7655192   -3.7655192   -2.5707196  0.062470543   -3.7655192    1.1947996   520603 
 3040000    1.0083263    -3.764742    -3.764742   -2.5704865  0.068968454    -3.764742    1.1942555   520603 
 3041000    1.0088436   -3.7657276   -3.7657276   -2.5708594  0.051579829   -3.7657276    1.1948682   520603 
 3042000     1.009981   -3.7663257   -3.7663257   -2.5701104  0.064066518   -3.7663257    1.1962152   520603 
 3043000     1.011498   -3.7670555   -3.7670555   -2.5690435  0.066115734   -3.7670555     1.198012   520603 
 3044000    1.0081284    -3.763809    -3.763809   -2.5697879  0.056561013    -3.763809    1.1940211   520603 
 3045000    1.0099972   -3.7659244   -3.7659244   -2.5696899   0.07007141   -3.7659244    1.1962345   520603 
 3046000    1.0089761   -3.7665728   -3.7665728   -2.5715478  0.066888561   -3.7665728     1.195025   520603 
 3047000    1.0097174   -3.7673807   -3.7673807   -2.5714777  0.066128225   -3.7673807     1.195903   520603 
 3048000    1.0099348   -3.7665238   -3.7665238   -2.5703632  0.074966246   -3.7665238    1.1961606   520603 
 3049000     1.009526   -3.7656137   -3.7656137   -2.5699373  0.072213324   -3.7656137    1.1956764   520603 
 3050000    1.0099874   -3.7667673   -3.7667673   -2.5705444  0.064635778   -3.7667673    1.1962229   520603 
 3051000    1.0106097   -3.7664155   -3.7664155   -2.5694555  0.073395461   -3.7664155      1.19696   520603 
 3052000    1.0112465   -3.7669463   -3.7669463   -2.5692321  0.071317194   -3.7669463    1.1977142   520603 
 3053000    1.0104906   -3.7661089   -3.7661089     -2.56929  0.074813585   -3.7661089    1.1968189   520603 
 3054000    1.0093594   -3.7656341   -3.7656341    -2.570155  0.056529321   -3.7656341    1.1954791   520603 
 3055000    1.0118145    -3.767422    -3.767422   -2.5690351  0.067654216    -3.767422    1.1983869   520603 
 3056000    1.0113452   -3.7663515   -3.7663515   -2.5685204   0.07040367   -3.7663515     1.197831   520603 
 3057000    1.0094761   -3.7648478   -3.7648478   -2.5692304  0.076988545   -3.7648478    1.1956173   520603 
 3058000    1.0100374   -3.7652427   -3.7652427   -2.5689606  0.072623159   -3.7652427    1.1962821   520603 
 3059000    1.0109041   -3.7663067   -3.7663067   -2.5689981  0.075927753   -3.7663067    1.1973087   520603 
 3060000    1.0099066   -3.7655334   -3.7655334   -2.5694062  0.069314769   -3.7655334    1.1961272   520603 
 3061000    1.0100001   -3.7654939   -3.7654939    -2.569256  0.073018907   -3.7654939    1.1962379   520603 
 3062000    1.0093509   -3.7651749   -3.7651749   -2.5697058  0.072745383   -3.7651749    1.1954691   520603 
 3063000     1.008688   -3.7642829   -3.7642829    -2.569599  0.057571941   -3.7642829    1.1946839   520603 
 3064000    1.0098602   -3.7660653   -3.7660653   -2.5699931  0.061377116   -3.7660653    1.1960723   520603 
 3065000    1.0081321   -3.7639799   -3.7639799   -2.5699545   0.05688425   -3.7639799    1.1940255   520603 
 3066000    1.0090121    -3.765502    -3.765502   -2.5704342  0.049883365    -3.765502    1.1950678   520603 
 3067000     1.008364   -3.7646889   -3.7646889   -2.5703887  0.054214743   -3.7646889    1.1943002   520603 
 3068000     1.009059   -3.7647883   -3.7647883    -2.569665  0.053868608   -3.7647883    1.1951233   520603 
 3069000    1.0114265   -3.7664834   -3.7664834   -2.5685561  0.066586559   -3.7664834    1.1979273   520603 
 3070000    1.0085584   -3.7632805   -3.7632805   -2.5687501  0.070043336   -3.7632805    1.1945304   520603 
 3071000    1.0097654   -3.7649262   -3.7649262   -2.5689662  0.072110793   -3.7649262      1.19596   520603 
 3072000    1.0100089   -3.7654634   -3.7654634    -2.569215  0.065690034   -3.7654634    1.1962484   520603 
 3073000     1.009438    -3.765095    -3.765095   -2.5695228  0.079334557    -3.765095    1.1955722   520603 
 3074000    1.0115067   -3.7666087   -3.7666087   -2.5685864  0.062842388   -3.7666087    1.1980223   520603 
 3075000    1.0121387   -3.7674448   -3.7674448   -2.5686739  0.073321794   -3.7674448    1.1987709   520603 
 3076000    1.0102654   -3.7659472   -3.7659472   -2.5693951  0.066036027   -3.7659472    1.1965522   520603 
 3077000    1.0104963   -3.7659491   -3.7659491   -2.5691235  0.077104895   -3.7659491    1.1968256   520603 
 3078000    1.0107638   -3.7664271   -3.7664271   -2.5692848  0.068669074   -3.7664271    1.1971424   520603 
 3079000    1.0103359   -3.7659837   -3.7659837   -2.5693481  0.073793392   -3.7659837    1.1966356   520603 
 3080000    1.0090985   -3.7645996   -3.7645996   -2.5694295  0.071412424   -3.7645996    1.1951701   520603 
 3081000    1.0112049   -3.7676794   -3.7676794   -2.5700145  0.052454542   -3.7676794    1.1976649   520603 
 3082000     1.009943   -3.7670471   -3.7670471   -2.5708768  0.079506454   -3.7670471    1.1961703   520603 
 3083000    1.0118187   -3.7696033   -3.7696033   -2.5712114  0.060867347   -3.7696033    1.1983919   520603 
 3084000    1.0098651   -3.7672514   -3.7672514   -2.5711734  0.088460782   -3.7672514     1.196078   520603 
 3085000    1.0113385   -3.7690125   -3.7690125   -2.5711895   0.06275266   -3.7690125    1.1978231   520603 
 3086000    1.0097223   -3.7667917   -3.7667917   -2.5708828  0.070039036   -3.7667917    1.1959089   520603 
 3087000    1.0096551   -3.7673067   -3.7673067   -2.5714774  0.063184234   -3.7673067    1.1958293   520603 
 3088000    1.0104367   -3.7685334   -3.7685334   -2.5717784  0.068737032   -3.7685334     1.196755   520603 
 3089000    1.0121753   -3.7703004   -3.7703004   -2.5714861  0.056318337   -3.7703004    1.1988142   520603 
 3090000    1.0121942   -3.7696747   -3.7696747    -2.570838  0.059880834   -3.7696747    1.1988366   520603 
 3091000    1.0116087   -3.7687607   -3.7687607   -2.5706176  0.075125946   -3.7687607    1.1981432   520603 
 3092000    1.0099469   -3.7667619   -3.7667619   -2.5705871  0.066155326   -3.7667619    1.1961749   520603 
 3093000    1.0123121   -3.7694222   -3.7694222   -2.5704459  0.062386986   -3.7694222    1.1989762   520603 
 3094000     1.012903    -3.770397    -3.770397   -2.5707209  0.067757104    -3.770397    1.1996761   520603 
 3095000    1.0117079   -3.7686173   -3.7686173   -2.5703567  0.068069382   -3.7686173    1.1982607   520603 
 3096000    1.0128213   -3.7698414   -3.7698414   -2.5702621  0.070685859   -3.7698414    1.1995793   520603 
 3097000    1.0115349   -3.7680159   -3.7680159   -2.5699602  0.075774311   -3.7680159    1.1980558   520603 
 3098000    1.0122142    -3.769505    -3.769505   -2.5706447  0.070817344    -3.769505    1.1988603   520603 
 3099000    1.0116526   -3.7692186   -3.7692186   -2.5710234  0.061248915   -3.7692186    1.1981951   520603 
 3100000    1.0118538   -3.7696915   -3.7696915   -2.5712581  0.073599816   -3.7696915    1.1984334   520603 
 3101000    1.0119533    -3.769688    -3.769688   -2.5711367  0.068709171    -3.769688    1.1985513   520603 
 3102000    1.0108103   -3.7678349   -3.7678349   -2.5706373  0.072632332   -3.7678349    1.1971975   520603 
 3103000    1.0107543   -3.7676167   -3.7676167   -2.5704856  0.069042754   -3.7676167    1.1971311   520603 
 3104000    1.0110595   -3.7676589   -3.7676589   -2.5701662  0.058859975   -3.7676589    1.1974927   520603 
 3105000    1.0103606   -3.7669464   -3.7669464   -2.5702815  0.065939075   -3.7669464    1.1966649   520603 
 3106000    1.0100505   -3.7665706   -3.7665706    -2.570273  0.078159006   -3.7665706    1.1962976   520603 
 3107000    1.0104654   -3.7674555   -3.7674555   -2.5706665  0.077395309   -3.7674555     1.196789   520603 
 3108000    1.0097478   -3.7670646   -3.7670646   -2.5711255  0.074061853   -3.7670646    1.1959391   520603 
 3109000    1.0112459   -3.7675798   -3.7675798   -2.5698664  0.066229507   -3.7675798    1.1977134   520603 
 3110000    1.0115228   -3.7671553   -3.7671553   -2.5691139  0.064948243   -3.7671553    1.1980414   520603 
 3111000    1.0110347   -3.7671679   -3.7671679   -2.5697047  0.062288751   -3.7671679    1.1974633   520603 
 3112000    1.0104131   -3.7673835   -3.7673835   -2.5706564  0.085313264   -3.7673835    1.1967271   520603 
 3113000     1.011084   -3.7684625   -3.7684625   -2.5709407  0.067302306   -3.7684625    1.1975217   520603 
 3114000    1.0114326   -3.7684443   -3.7684443   -2.5705097  0.037986453   -3.7684443    1.1979346   520603 
 3115000    1.0102329   -3.7662651   -3.7662651   -2.5697514  0.073316429   -3.7662651    1.1965136   520603 
 3116000    1.0118629   -3.7684857   -3.7684857   -2.5700415   0.06593818   -3.7684857    1.1984442   520603 
 3117000    1.0109042   -3.7672171   -3.7672171   -2.5699083  0.068026411   -3.7672171    1.1973088   520603 
 3118000    1.0108334   -3.7685507   -3.7685507   -2.5713257  0.070523222   -3.7685507    1.1972249   520603 
 3119000    1.0102797    -3.768491    -3.768491   -2.5719219  0.075063761    -3.768491    1.1965691   520603 
 3120000    1.0099735   -3.7680722   -3.7680722   -2.5718657  0.078569909   -3.7680722    1.1962064   520603 
 3121000    1.0080394   -3.7666078   -3.7666078   -2.5726922   0.07429475   -3.7666078    1.1939156   520603 
 3122000    1.0098743     -3.76879     -3.76879   -2.5727011  0.071879639     -3.76879    1.1960889   520603 
 3123000     1.009942   -3.7673044   -3.7673044   -2.5711353  0.066856624   -3.7673044    1.1961691   520603 
 3124000    1.0105294   -3.7681057   -3.7681057   -2.5712409  0.079100579   -3.7681057    1.1968648   520603 
 3125000    1.0105868      -3.7685      -3.7685   -2.5715672  0.069328037      -3.7685    1.1969328   520603 
 3126000    1.0110961   -3.7689826   -3.7689826   -2.5714466  0.064749954   -3.7689826     1.197536   520603 
 3127000     1.010459   -3.7688754   -3.7688754    -2.572094  0.066466521   -3.7688754    1.1967814   520603 
 3128000    1.0108567   -3.7694523   -3.7694523   -2.5721999  0.075401759   -3.7694523    1.1972524   520603 
 3129000    1.0114013   -3.7700349   -3.7700349   -2.5721375  0.065892858   -3.7700349    1.1978974   520603 
 3130000    1.0122139   -3.7703995   -3.7703995   -2.5715395  0.057677642   -3.7703995      1.19886   520603 
 3131000    1.0133122    -3.771956    -3.771956   -2.5717952  0.075306774    -3.771956    1.2001608   520603 
 3132000    1.0112907   -3.7699214   -3.7699214   -2.5721549  0.048218203   -3.7699214    1.1977665   520603 
 3133000    1.0100795   -3.7683796   -3.7683796   -2.5720477  0.083128298   -3.7683796    1.1963319   520603 
 3134000    1.0122476   -3.7712774   -3.7712774   -2.5723776  0.068002477   -3.7712774    1.1988998   520603 
 3135000    1.0109899   -3.7698582   -3.7698582   -2.5724479  0.075377948   -3.7698582    1.1974103   520603 
 3136000    1.0100129   -3.7684352   -3.7684352   -2.5721821  0.068635229   -3.7684352     1.196253   520603 
 3137000    1.0103343   -3.7679042   -3.7679042   -2.5712704   0.07106726   -3.7679042    1.1966338   520603 
 3138000    1.0105756   -3.7674264   -3.7674264   -2.5705069  0.065259624   -3.7674264    1.1969195   520603 
 3139000    1.0098575   -3.7661606   -3.7661606   -2.5700916  0.067325945   -3.7661606     1.196069   520603 
 3140000    1.0099725   -3.7673597   -3.7673597   -2.5711544  0.080486348   -3.7673597    1.1962053   520603 
 3141000    1.0129701   -3.7709062   -3.7709062   -2.5711506  0.071930605   -3.7709062    1.1997556   520603 
 3142000    1.0109592   -3.7676768   -3.7676768   -2.5703029  0.064228585   -3.7676768    1.1973739   520603 
 3143000    1.0116409   -3.7695546   -3.7695546   -2.5713733  0.073100243   -3.7695546    1.1981813   520603 
 3144000    1.0120862   -3.7701036   -3.7701036    -2.571395  0.065918791   -3.7701036    1.1987087   520603 
 3145000    1.0089421   -3.7664641   -3.7664641   -2.5714793  0.062862826   -3.7664641    1.1949848   520603 
 3146000    1.0091211   -3.7666761   -3.7666761   -2.5714793  0.064773453   -3.7666761    1.1951968   520603 
 3147000    1.0097113   -3.7669716   -3.7669716   -2.5710758  0.077064112   -3.7669716    1.1958959   520603 
 3148000    1.0086899    -3.765488    -3.765488   -2.5708018  0.059371316    -3.765488    1.1946862   520603 
 3149000    1.0105143   -3.7670838   -3.7670838   -2.5702369  0.072056307   -3.7670838    1.1968469   520603 
 3150000    1.0108316   -3.7678751   -3.7678751   -2.5706524  0.057352451   -3.7678751    1.1972227   520603 
 3151000    1.0111427   -3.7685399   -3.7685399   -2.5709488   0.06518461   -3.7685399    1.1975912   520603 
 3152000    1.0093413   -3.7666373   -3.7666373   -2.5711796  0.073151967   -3.7666373    1.1954577   520603 
 3153000    1.0096698   -3.7670316   -3.7670316   -2.5711848   0.07969158   -3.7670316    1.1958468   520603 
 3154000    1.0124058   -3.7702042   -3.7702042    -2.571117  0.076309395   -3.7702042    1.1990872   520603 
 3155000    1.0112271    -3.769242    -3.769242   -2.5715508  0.061545809    -3.769242    1.1976912   520603 
 3156000    1.0113289   -3.7694311   -3.7694311   -2.5716194  0.068332963   -3.7694311    1.1978118   520603 
 3157000    1.0111798   -3.7695503   -3.7695503   -2.5719152  0.078762553   -3.7695503    1.1976351   520603 
 3158000    1.0098409   -3.7675138   -3.7675138   -2.5714644  0.082281052   -3.7675138    1.1960494   520603 
 3159000    1.0092189   -3.7671415   -3.7671415   -2.5718289  0.072095807   -3.7671415    1.1953127   520603 
 3160000    1.0104492   -3.7677181   -3.7677181   -2.5709483  0.074243364   -3.7677181    1.1967699   520603 
 3161000    1.0118441   -3.7699229   -3.7699229    -2.571501  0.075964814   -3.7699229     1.198422   520603 
 3162000     1.010276   -3.7686589   -3.7686589   -2.5720942   0.06852555   -3.7686589    1.1965647   520603 
 3163000    1.0105311    -3.768577    -3.768577   -2.5717101  0.084609799    -3.768577    1.1968669   520603 
 3164000    1.0127306    -3.771241    -3.771241    -2.571769  0.074418439    -3.771241     1.199472   520603 
 3165000    1.0109347   -3.7693063   -3.7693063   -2.5719614  0.073934329   -3.7693063    1.1973449   520603 
 3166000    1.0104569   -3.7677158   -3.7677158   -2.5709368  0.067756916   -3.7677158     1.196779   520603 
 3167000    1.0111013   -3.7691738   -3.7691738   -2.5716316  0.068201325   -3.7691738    1.1975422   520603 
 3168000     1.010015   -3.7692114   -3.7692114   -2.5729558  0.060242181   -3.7692114    1.1962556   520603 
 3169000    1.0097514   -3.7680113   -3.7680113   -2.5720679  0.063573043   -3.7680113    1.1959434   520603 
 3170000     1.009914   -3.7680697   -3.7680697   -2.5719338   0.05372554   -3.7680697     1.196136   520603 
 3171000     1.009137   -3.7671252   -3.7671252   -2.5719095  0.061143766   -3.7671252    1.1952157   520603 
 3172000    1.0093366   -3.7674512   -3.7674512   -2.5719992  0.072553075   -3.7674512    1.1954521   520603 
 3173000    1.0114791   -3.7699293   -3.7699293   -2.5719396  0.065085545   -3.7699293    1.1979897   520603 
 3174000    1.0102266   -3.7673226   -3.7673226   -2.5708164  0.074790073   -3.7673226    1.1965062   520603 
 3175000    1.0109709   -3.7691658   -3.7691658    -2.571778  0.069050359   -3.7691658    1.1973877   520603 
 3176000    1.0099535   -3.7679094   -3.7679094   -2.5717266  0.066120134   -3.7679094    1.1961827   520603 
 3177000    1.0113002   -3.7699174   -3.7699174   -2.5721396  0.060847689   -3.7699174    1.1977778   520603 
 3178000    1.0090307   -3.7670664   -3.7670664   -2.5719766  0.070233935   -3.7670664    1.1950898   520603 
 3179000    1.0101595   -3.7671043   -3.7671043   -2.5706776   0.08962746   -3.7671043    1.1964267   520603 
 3180000    1.0116057   -3.7693369   -3.7693369   -2.5711973  0.080477442   -3.7693369    1.1981396   520603 
 3181000     1.011543   -3.7690271   -3.7690271   -2.5709618  0.075615175   -3.7690271    1.1980653   520603 
 3182000    1.0122131    -3.769453    -3.769453   -2.5705941  0.062061953    -3.769453     1.198859   520603 
 3183000    1.0101708   -3.7668977   -3.7668977   -2.5704576   0.06913858   -3.7668977    1.1964401   520603 
 3184000    1.0109115   -3.7678185   -3.7678185    -2.570501  0.061667971   -3.7678185    1.1973174   520603 
 3185000    1.0102359   -3.7666287   -3.7666287   -2.5701116  0.064805649   -3.7666287    1.1965172   520603 
 3186000    1.0091863   -3.7655651   -3.7655651   -2.5702911  0.060318841   -3.7655651     1.195274   520603 
 3187000    1.0095417   -3.7657767   -3.7657767   -2.5700817  0.080235824   -3.7657767     1.195695   520603 
 3188000    1.0103413   -3.7677681   -3.7677681    -2.571126  0.062089627   -3.7677681    1.1966421   520603 
 3189000    1.0105633   -3.7671433   -3.7671433   -2.5702383  0.060289217   -3.7671433     1.196905   520603 
 3190000    1.0101411   -3.7669968   -3.7669968   -2.5705919  0.066979838   -3.7669968    1.1964049   520603 
 3191000     1.011595   -3.7697299   -3.7697299    -2.571603  0.061501924   -3.7697299    1.1981269   520603 
 3192000    1.0116584   -3.7686251   -3.7686251   -2.5704231  0.061899228   -3.7686251     1.198202   520603 
 3193000    1.0094713    -3.767557    -3.767557   -2.5719454  0.060766255    -3.767557    1.1956117   520603 
 3194000    1.0081467   -3.7654015   -3.7654015   -2.5713588  0.069024001   -3.7654015    1.1940427   520603 
 3195000    1.0094717   -3.7676998   -3.7676998   -2.5720877  0.079809383   -3.7676998    1.1956121   520603 
 3196000    1.0111356   -3.7693942   -3.7693942   -2.5718113  0.068163107   -3.7693942    1.1975828   520603 
 3197000    1.0106853   -3.7696041   -3.7696041   -2.5725547   0.06260824   -3.7696041    1.1970495   520603 
 3198000    1.0101073    -3.768957    -3.768957   -2.5725921  0.072663959    -3.768957    1.1963649   520603 
 3199000    1.0109094   -3.7702178   -3.7702178   -2.5729029  0.073059692   -3.7702178    1.1973149   520603 
 3200000    1.0079502   -3.7669993   -3.7669993   -2.5731893  0.071422248   -3.7669993      1.19381   520603 
 3201000    1.0086214   -3.7694509   -3.7694509   -2.5748459   0.05911371   -3.7694509     1.194605   520603 
 3202000    1.0088625   -3.7690896   -3.7690896   -2.5741991  0.054037449   -3.7690896    1.1948905   520603 
 3203000    1.0104223   -3.7705187   -3.7705187   -2.5737807  0.081169177   -3.7705187     1.196738   520603 
 3204000    1.0104143   -3.7702225   -3.7702225   -2.5734941  0.069929601   -3.7702225    1.1967285   520603 
 3205000    1.0111464   -3.7715613   -3.7715613   -2.5739657  0.071561763   -3.7715613    1.1975956   520603 
 3206000    1.0116579   -3.7720304   -3.7720304    -2.573829  0.071721143   -3.7720304    1.1982014   520603 
 3207000    1.0100805    -3.770385    -3.770385   -2.5740518  0.058060751    -3.770385    1.1963332   520603 
 3208000    1.0108669   -3.7707747   -3.7707747   -2.5735102  0.076286407   -3.7707747    1.1972645   520603 
 3209000    1.0105606   -3.7714827   -3.7714827   -2.5745809  0.072267564   -3.7714827    1.1969018   520603 
 3210000    1.0102816   -3.7715599   -3.7715599   -2.5749886  0.069517857   -3.7715599    1.1965713   520603 
 3211000    1.0104815   -3.7713109   -3.7713109   -2.5745028  0.069930624   -3.7713109     1.196808   520603 
 3212000    1.0081558   -3.7685404   -3.7685404   -2.5744869  0.064737262   -3.7685404    1.1940535   520603 
 3213000    1.0085497    -3.769971    -3.769971   -2.5754509  0.062414278    -3.769971      1.19452   520603 
 3214000    1.0075939   -3.7686101   -3.7686101    -2.575222  0.072351393   -3.7686101    1.1933881   520603 
 3215000    1.0107356   -3.7719843   -3.7719843   -2.5748752  0.055522455   -3.7719843     1.197109   520603 
 3216000    1.0107638   -3.7716984   -3.7716984    -2.574556   0.07073826   -3.7716984    1.1971424   520603 
 3217000    1.0099002   -3.7708748   -3.7708748   -2.5747552  0.071502273   -3.7708748    1.1961197   520603 
 3218000    1.0109257   -3.7718162   -3.7718162   -2.5744821  0.059289468   -3.7718162    1.1973342   520603 
 3219000    1.0110516   -3.7710997   -3.7710997   -2.5736164  0.070196712   -3.7710997    1.1974833   520603 
 3220000    1.0119177   -3.7715022   -3.7715022    -2.572993  0.082527799   -3.7715022    1.1985092   520603 
 3221000    1.0110053   -3.7713774   -3.7713774   -2.5739488  0.055772104   -3.7713774    1.1974285   520603 
 3222000    1.0107354   -3.7710959   -3.7710959   -2.5739871  0.065354374   -3.7710959    1.1971088   520603 
 3223000    1.0119004    -3.772423    -3.772423   -2.5739344  0.074937267    -3.772423    1.1984886   520603 
 3224000    1.0105616   -3.7715157   -3.7715157   -2.5746128  0.057290039   -3.7715157    1.1969029   520603 
 3225000    1.0108497   -3.7716347   -3.7716347   -2.5743905  0.073600002   -3.7716347    1.1972442   520603 
 3226000    1.0097692   -3.7714402   -3.7714402   -2.5754758  0.069811696   -3.7714402    1.1959644   520603 
 3227000    1.0090235   -3.7695521   -3.7695521   -2.5744709  0.068052149   -3.7695521    1.1950812   520603 
 3228000    1.0096757   -3.7698821   -3.7698821   -2.5740284  0.066070822   -3.7698821    1.1958537   520603 
 3229000    1.0104441   -3.7708844   -3.7708844   -2.5741206  0.067522936   -3.7708844    1.1967638   520603 
 3230000    1.0097521   -3.7696793   -3.7696793   -2.5737351  0.068380275   -3.7696793    1.1959442   520603 
 3231000    1.0096586   -3.7704925   -3.7704925    -2.574659  0.072305235   -3.7704925    1.1958335   520603 
 3232000     1.011641   -3.7725644   -3.7725644    -2.574383  0.066681689   -3.7725644    1.1981814   520603 
 3233000    1.0096214   -3.7701938   -3.7701938   -2.5744044  0.060302802   -3.7701938    1.1957894   520603 
 3234000    1.0112636   -3.7720257   -3.7720257   -2.5742913  0.066293054   -3.7720257    1.1977344   520603 
 3235000     1.010082   -3.7715663   -3.7715663   -2.5752314  0.061738297   -3.7715663    1.1963349   520603 
 3236000    1.0087693   -3.7690173   -3.7690173   -2.5742371  0.079535193   -3.7690173    1.1947802   520603 
 3237000    1.0104237   -3.7709153   -3.7709153   -2.5741756  0.069594624   -3.7709153    1.1967396   520603 
 3238000    1.0101737   -3.7707185   -3.7707185    -2.574275   0.07590642   -3.7707185    1.1964435   520603 
 3239000    1.0112202   -3.7713702   -3.7713702   -2.5736872  0.077667282   -3.7713702     1.197683   520603 
 3240000    1.0117729   -3.7722225   -3.7722225    -2.573885  0.060086232   -3.7722225    1.1983376   520603 
 3241000     1.011271   -3.7708877   -3.7708877   -2.5731445  0.064452365   -3.7708877    1.1977432   520603 
 3242000     1.010897   -3.7700227   -3.7700227   -2.5727225  0.072941196   -3.7700227    1.1973002   520603 
 3243000    1.0127647   -3.7722872   -3.7722872   -2.5727749  0.075439448   -3.7722872    1.1995122   520603 
 3244000    1.0108815   -3.7706022   -3.7706022   -2.5733203  0.069944565   -3.7706022    1.1972819   520603 
 3245000    1.0124399   -3.7726285   -3.7726285   -2.5735009  0.058034098   -3.7726285    1.1991276   520603 
 3246000      1.00955   -3.7690237   -3.7690237   -2.5733189  0.067686096   -3.7690237    1.1957048   520603 
 3247000    1.0106678   -3.7714718   -3.7714718   -2.5744431  0.066260293   -3.7714718    1.1970287   520603 
 3248000    1.0108355   -3.7727242   -3.7727242   -2.5754969  0.067002985   -3.7727242    1.1972273   520603 
 3249000    1.0084489   -3.7697007   -3.7697007      -2.5753  0.064764445   -3.7697007    1.1944007   520603 
 3250000    1.0090551   -3.7702444   -3.7702444   -2.5751257  0.064688384   -3.7702444    1.1951186   520603 
 3251000    1.0112023   -3.7720747   -3.7720747   -2.5744129  0.058907374   -3.7720747    1.1976618   520603 
 3252000     1.010441   -3.7709958   -3.7709958   -2.5742356  0.070272904   -3.7709958    1.1967601   520603 
 3253000    1.0091508   -3.7690391   -3.7690391   -2.5738071  0.068827706   -3.7690391     1.195232   520603 
 3254000    1.0096031   -3.7707669   -3.7707669   -2.5749992  0.077365834   -3.7707669    1.1957677   520603 
 3255000    1.0099994   -3.7718373   -3.7718373   -2.5756002  0.071854939   -3.7718373    1.1962371   520603 
 3256000    1.0095445   -3.7715678   -3.7715678   -2.5758694  0.060833228   -3.7715678    1.1956983   520603 
 3257000    1.0100742   -3.7720578   -3.7720578   -2.5757321  0.067501913   -3.7720578    1.1963257   520603 
 3258000    1.0100249   -3.7719926   -3.7719926   -2.5757254  0.062433921   -3.7719926    1.1962673   520603 
 3259000    1.0113214   -3.7746462   -3.7746462   -2.5768434  0.068329231   -3.7746462    1.1978029   520603 
 3260000    1.0098775   -3.7731557   -3.7731557   -2.5770629  0.078423688   -3.7731557    1.1960928   520603 
 3261000     1.009139   -3.7721419   -3.7721419    -2.576924  0.075885286   -3.7721419     1.195218   520603 
 3262000    1.0058579   -3.7685887   -3.7685887   -2.5772568  0.064188793   -3.7685887    1.1913319   520603 
 3263000    1.0075215    -3.770438    -3.770438   -2.5771357  0.059699376    -3.770438    1.1933022   520603 
 3264000     1.007039   -3.7696638   -3.7696638    -2.576933  0.071052731   -3.7696638    1.1927308   520603 
 3265000    1.0085828   -3.7716024   -3.7716024   -2.5770431  0.071089604   -3.7716024    1.1945593   520603 
 3266000    1.0094152   -3.7720502   -3.7720502    -2.576505  0.070198569   -3.7720502    1.1955452   520603 
 3267000    1.0115793   -3.7730154   -3.7730154   -2.5749071  0.073711777   -3.7730154    1.1981083   520603 
 3268000    1.0094455   -3.7716128   -3.7716128   -2.5760317  0.073724225   -3.7716128    1.1955811   520603 
 3269000    1.0098795   -3.7713699   -3.7713699   -2.5752748  0.079798272   -3.7713699    1.1960951   520603 
 3270000    1.0109258   -3.7722077   -3.7722077   -2.5748733  0.058883498   -3.7722077    1.1973343   520603 
 3271000    1.0131998   -3.7741206   -3.7741206    -2.574093  0.068866103   -3.7741206    1.2000277   520603 
 3272000    1.0109907   -3.7717283   -3.7717283   -2.5743171  0.059990065   -3.7717283    1.1974112   520603 
 3273000    1.0096464   -3.7697042   -3.7697042   -2.5738852  0.060604924   -3.7697042     1.195819   520603 
 3274000    1.0101975   -3.7712842   -3.7712842   -2.5748124  0.058787729   -3.7712842    1.1964718   520603 
 3275000     1.009477   -3.7699724   -3.7699724   -2.5743541  0.075287415   -3.7699724    1.1956184   520603 
 3276000    1.0099586   -3.7707169   -3.7707169    -2.574528  0.067352272   -3.7707169    1.1961888   520603 
 3277000     1.010803   -3.7722768   -3.7722768    -2.575088  0.055461143   -3.7722768    1.1971888   520603 
 3278000    1.0107674   -3.7724942   -3.7724942   -2.5753475  0.069674101   -3.7724942    1.1971467   520603 
 3279000    1.0093926   -3.7710922   -3.7710922   -2.5755738  0.053878162   -3.7710922    1.1955185   520603 
 3280000     1.009771   -3.7712982   -3.7712982   -2.5753316  0.083159797   -3.7712982    1.1959666   520603 
 3281000    1.0100271   -3.7717656   -3.7717656   -2.5754957  0.070221964   -3.7717656      1.19627   520603 
 3282000    1.0106727   -3.7726312   -3.7726312   -2.5755966  0.082107809   -3.7726312    1.1970346   520603 
 3283000     1.011486   -3.7737836   -3.7737836   -2.5757858  0.058500686   -3.7737836    1.1979978   520603 
 3284000    1.0103741   -3.7727584   -3.7727584   -2.5760775  0.072126078   -3.7727584    1.1966809   520603 
 3285000    1.0098785   -3.7721166   -3.7721166   -2.5760227   0.07069652   -3.7721166    1.1960939   520603 
 3286000    1.0105603   -3.7732203   -3.7732203   -2.5763189  0.072819564   -3.7732203    1.1969014   520603 
 3287000    1.0091724   -3.7708738   -3.7708738   -2.5756162  0.060041382   -3.7708738    1.1952576   520603 
 3288000    1.0106333   -3.7730148   -3.7730148    -2.576027  0.065735325   -3.7730148    1.1969879   520603 
 3289000    1.0105626   -3.7724531   -3.7724531    -2.575549  0.071696312   -3.7724531    1.1969042   520603 
 3290000    1.0088333   -3.7702843   -3.7702843   -2.5754283  0.059783289   -3.7702843     1.194856   520603 
 3291000     1.009954   -3.7721572   -3.7721572   -2.5759738  0.060174749   -3.7721572    1.1961834   520603 
 3292000    1.0090735   -3.7715358   -3.7715358   -2.5763954  0.086985704   -3.7715358    1.1951405   520603 
 3293000    1.0111542   -3.7733406   -3.7733406   -2.5757357  0.064380555   -3.7733406    1.1976049   520603 
 3294000    1.0090994   -3.7710823   -3.7710823   -2.5759112  0.054079825   -3.7710823    1.1951711   520603 
 3295000    1.0114733   -3.7748084   -3.7748084   -2.5768256  0.078662737   -3.7748084    1.1979828   520603 
 3296000     1.010229   -3.7733876   -3.7733876   -2.5768786  0.067565888   -3.7733876     1.196509   520603 
 3297000    1.0094034   -3.7722091   -3.7722091   -2.5766779  0.080010198   -3.7722091    1.1955312   520603 
 3298000    1.0093842   -3.7712638   -3.7712638   -2.5757554  0.074351961   -3.7712638    1.1955084   520603 
 3299000    1.0109553   -3.7735962   -3.7735962   -2.5762269  0.070317471   -3.7735962    1.1973692   520603 
 3300000    1.0102196   -3.7727825   -3.7727825   -2.5762846  0.073287635   -3.7727825    1.1964979   520603 
 3301000    1.0081727   -3.7703391   -3.7703391   -2.5762655   0.06756736   -3.7703391    1.1940736   520603 
 3302000    1.0087017   -3.7712051   -3.7712051    -2.576505  0.076557063   -3.7712051    1.1947001   520603 
 3303000    1.0096902   -3.7719872   -3.7719872   -2.5761163  0.063878085   -3.7719872    1.1958709   520603 
 3304000     1.010504   -3.7730763   -3.7730763   -2.5762416   0.04693911   -3.7730763    1.1968347   520603 
 3305000    1.0107382   -3.7725319   -3.7725319   -2.5754198  0.063163896   -3.7725319    1.1971121   520603 
 3306000    1.0097267   -3.7715658   -3.7715658   -2.5756517  0.070413738   -3.7715658    1.1959141   520603 
 3307000    1.0106223   -3.7724021   -3.7724021   -2.5754273  0.080812098   -3.7724021    1.1969748   520603 
 3308000    1.0075219   -3.7696107   -3.7696107   -2.5763079  0.056821574   -3.7696107    1.1933028   520603 
 3309000    1.0089894   -3.7705772   -3.7705772   -2.5755364  0.060837729   -3.7705772    1.1950408   520603 
 3310000    1.0093456   -3.7711376   -3.7711376   -2.5756749  0.080003929   -3.7711376    1.1954627   520603 
 3311000    1.0096507   -3.7723551   -3.7723551    -2.576531  0.070792505   -3.7723551    1.1958241   520603 
 3312000    1.0091602    -3.771954    -3.771954   -2.5767108  0.068461853    -3.771954    1.1952431   520603 
 3313000    1.0111225   -3.7735287   -3.7735287   -2.5759615  0.054400893   -3.7735287    1.1975673   520603 
 3314000    1.0090281   -3.7703266   -3.7703266   -2.5752399  0.073293801   -3.7703266    1.1950867   520603 
 3315000    1.0091496   -3.7697561   -3.7697561   -2.5745255  0.072366472   -3.7697561    1.1952306   520603 
 3316000    1.0102036   -3.7710084   -3.7710084   -2.5745294  0.071231848   -3.7710084     1.196479   520603 
 3317000    1.0103113   -3.7710019   -3.7710019   -2.5743955  0.071753689   -3.7710019    1.1966065   520603 
 3318000    1.0102211    -3.771673    -3.771673   -2.5751732  0.066354143    -3.771673    1.1964997   520603 
 3319000    1.0087286   -3.7702889   -3.7702889   -2.5755569  0.072036528   -3.7702889     1.194732   520603 
 3320000    1.0085689   -3.7706347   -3.7706347   -2.5760918  0.054524495   -3.7706347    1.1945429   520603 
 3321000    1.0085089   -3.7705578   -3.7705578   -2.5760861   0.05527496   -3.7705578    1.1944717   520603 
 3322000    1.0076701    -3.769344    -3.769344   -2.5758656  0.051635467    -3.769344    1.1934783   520603 
 3323000    1.0089106   -3.7696892   -3.7696892   -2.5747417  0.070903396   -3.7696892    1.1949475   520603 
 3324000    1.0088547   -3.7694446   -3.7694446   -2.5745633  0.080461827   -3.7694446    1.1948813   520603 
 3325000    1.0104599   -3.7718254   -3.7718254   -2.5750429  0.067927609   -3.7718254    1.1967825   520603 
 3326000    1.0101364   -3.7708368   -3.7708368   -2.5744375  0.057094721   -3.7708368    1.1963994   520603 
 3327000    1.0099911   -3.7709598   -3.7709598   -2.5747326  0.069662025   -3.7709598    1.1962272   520603 
 3328000    1.0110822   -3.7729631   -3.7729631   -2.5754436  0.069784762   -3.7729631    1.1975195   520603 
 3329000    1.0097826   -3.7717134   -3.7717134   -2.5757331  0.060832816   -3.7717134    1.1959804   520603 
 3330000    1.0099535   -3.7727913   -3.7727913   -2.5766086  0.064247017   -3.7727913    1.1961827   520603 
 3331000    1.0090629   -3.7723319   -3.7723319   -2.5772041  0.068848685   -3.7723319    1.1951279   520603 
 3332000    1.0095952   -3.7728265   -3.7728265   -2.5770681   0.06789651   -3.7728265    1.1957584   520603 
 3333000    1.0102512   -3.7736067   -3.7736067   -2.5770713  0.064385019   -3.7736067    1.1965354   520603 
 3334000    1.0094767    -3.773112    -3.773112    -2.577494  0.067742331    -3.773112     1.195618   520603 
 3335000    1.0091221   -3.7726442   -3.7726442   -2.5774462    0.0723978   -3.7726442     1.195198   520603 
 3336000    1.0091482   -3.7723978   -3.7723978   -2.5771688  0.078217096   -3.7723978     1.195229   520603 
 3337000    1.0106524   -3.7748339   -3.7748339   -2.5778234  0.067462822   -3.7748339    1.1970105   520603 
 3338000    1.0093414   -3.7743229   -3.7743229   -2.5788651  0.075891541   -3.7743229    1.1954578   520603 
 3339000    1.0081455   -3.7734582   -3.7734582   -2.5794168  0.070989415   -3.7734582    1.1940414   520603 
 3340000    1.0091038   -3.7751724   -3.7751724   -2.5799959  0.062834606   -3.7751724    1.1951764   520603 
 3341000    1.0092863   -3.7749831   -3.7749831   -2.5795906  0.054749997   -3.7749831    1.1953925   520603 
 3342000    1.0085963   -3.7746223   -3.7746223    -2.580047  0.066928671   -3.7746223    1.1945753   520603 
 3343000    1.0089885   -3.7737803   -3.7737803   -2.5787404     0.056817   -3.7737803    1.1950398   520603 
 3344000    1.0101025   -3.7752652   -3.7752652    -2.578906  0.057723848   -3.7752652    1.1963592   520603 
 3345000    1.0099266   -3.7745352   -3.7745352   -2.5783844  0.065989186   -3.7745352    1.1961509   520603 
 3346000    1.0091494   -3.7732645   -3.7732645   -2.5780341  0.058360526   -3.7732645    1.1952304   520603 
 3347000    1.0097731   -3.7739686   -3.7739686   -2.5779995  0.064528063   -3.7739686    1.1959691   520603 
 3348000    1.0091857    -3.773668    -3.773668   -2.5783947  0.052745295    -3.773668    1.1952734   520603 
 3349000    1.0094766   -3.7741004   -3.7741004   -2.5784825  0.086324522   -3.7741004    1.1956179   520603 
 3350000     1.009168   -3.7733782   -3.7733782   -2.5781259   0.06471794   -3.7733782    1.1952524   520603 
 3351000    1.0091329   -3.7728283   -3.7728283   -2.5776175  0.058567913   -3.7728283    1.1952108   520603 
 3352000    1.0096425   -3.7729156   -3.7729156   -2.5771012  0.063110567   -3.7729156    1.1958144   520603 
 3353000    1.0093126   -3.7729269   -3.7729269   -2.5775032  0.058201158   -3.7729269    1.1954237   520603 
 3354000    1.0106112   -3.7760113   -3.7760113   -2.5790496  0.060439084   -3.7760113    1.1969617   520603 
 3355000    1.0104168   -3.7753644   -3.7753644    -2.578633  0.067824286   -3.7753644    1.1967314   520603 
 3356000    1.0096584   -3.7739076   -3.7739076   -2.5780744  0.076581926   -3.7739076    1.1958332   520603 
 3357000    1.0076199   -3.7726094   -3.7726094   -2.5791906  0.074888298   -3.7726094    1.1934188   520603 
 3358000    1.0074884   -3.7722726   -3.7722726   -2.5790095  0.076016045   -3.7722726    1.1932631   520603 
 3359000    1.0076846   -3.7725107   -3.7725107   -2.5790153  0.071227297   -3.7725107    1.1934954   520603 
 3360000    1.0090599   -3.7739337   -3.7739337   -2.5788093  0.068475364   -3.7739337    1.1951243   520603 
 3361000    1.0079861   -3.7728005   -3.7728005    -2.578948  0.071121994   -3.7728005    1.1938525   520603 
 3362000    1.0090977   -3.7738176   -3.7738176   -2.5786484  0.074126718   -3.7738176    1.1951692   520603 
 3363000    1.0093224   -3.7734636   -3.7734636   -2.5780284  0.064297816   -3.7734636    1.1954352   520603 
 3364000    1.0090216   -3.7733007   -3.7733007   -2.5782217   0.06643148   -3.7733007     1.195079   520603 
 3365000    1.0098519   -3.7740928   -3.7740928   -2.5780304  0.059993417   -3.7740928    1.1960623   520603 
 3366000      1.00929   -3.7734275   -3.7734275   -2.5780306  0.065740416   -3.7734275    1.1953969   520603 
 3367000    1.0082132   -3.7727909   -3.7727909   -2.5786694  0.064367608   -3.7727909    1.1941215   520603 
 3368000    1.0099694   -3.7747589   -3.7747589   -2.5785573  0.072500149   -3.7747589    1.1962015   520603 
 3369000    1.0096207   -3.7741644   -3.7741644   -2.5783758  0.063441102   -3.7741644    1.1957886   520603 
 3370000    1.0098731   -3.7743108   -3.7743108   -2.5782233  0.082609072   -3.7743108    1.1960875   520603 
 3371000    1.0095546   -3.7737472   -3.7737472    -2.578037  0.074671197   -3.7737472    1.1957103   520603 
 3372000    1.0095602   -3.7735936   -3.7735936   -2.5778768  0.072115248   -3.7735936    1.1957169   520603 
 3373000     1.010654   -3.7749868   -3.7749868   -2.5779744  0.073462586   -3.7749868    1.1970124   520603 
 3374000    1.0093486   -3.7737163   -3.7737163     -2.57825  0.070807865   -3.7737163    1.1954662   520603 
 3375000    1.0083638    -3.772946    -3.772946    -2.578646  0.066304303    -3.772946    1.1942999   520603 
 3376000    1.0091411   -3.7728609   -3.7728609   -2.5776403  0.069701551   -3.7728609    1.1952205   520603 
 3377000    1.0099663   -3.7743395   -3.7743395   -2.5781415  0.051024928   -3.7743395    1.1961979   520603 
 3378000    1.0103548   -3.7740205   -3.7740205   -2.5773625   0.06223632   -3.7740205     1.196658   520603 
 3379000    1.0100265   -3.7740004   -3.7740004   -2.5777312  0.049332782   -3.7740004    1.1962692   520603 
 3380000    1.0104595   -3.7731951   -3.7731951   -2.5764131  0.070436062   -3.7731951     1.196782   520603 
 3381000    1.0112801   -3.7743883   -3.7743883   -2.5766344  0.057523317   -3.7743883    1.1977539   520603 
 3382000    1.0078967   -3.7715276   -3.7715276   -2.5777809  0.056010497   -3.7715276    1.1937467   520603 
 3383000    1.0078636   -3.7717091   -3.7717091   -2.5780016  0.059306201   -3.7717091    1.1937074   520603 
 3384000     1.007904    -3.771684    -3.771684   -2.5779286  0.066391129    -3.771684    1.1937553   520603 
 3385000    1.0081197   -3.7718707   -3.7718707     -2.57786  0.054597656   -3.7718707    1.1940107   520603 
 3386000    1.0095277   -3.7733534   -3.7733534    -2.577675  0.063788253   -3.7733534    1.1956784   520603 
 3387000    1.0090485   -3.7729164   -3.7729164   -2.5778055  0.069608578   -3.7729164    1.1951108   520603 
 3388000    1.0093723   -3.7736027   -3.7736027   -2.5781084   0.05563302   -3.7736027    1.1954943   520603 
 3389000    1.0097026   -3.7741148   -3.7741148   -2.5782292  0.073406355   -3.7741148    1.1958856   520603 
 3390000    1.0109811   -3.7752724   -3.7752724   -2.5778726  0.069442139   -3.7752724    1.1973998   520603 
 3391000    1.0099531   -3.7735886   -3.7735886   -2.5774064  0.074085278   -3.7735886    1.1961822   520603 
 3392000    1.0080281   -3.7718225   -3.7718225   -2.5779202  0.074823873   -3.7718225    1.1939023   520603 
 3393000    1.0094983   -3.7729966   -3.7729966   -2.5773529  0.064703754   -3.7729966    1.1956436   520603 
 3394000    1.0099884   -3.7746018   -3.7746018   -2.5783778  0.073852943   -3.7746018    1.1962241   520603 
 3395000    1.0081358   -3.7731535   -3.7731535   -2.5791237  0.066425436   -3.7731535    1.1940298   520603 
 3396000     1.009351   -3.7744818   -3.7744818   -2.5790126  0.062491161   -3.7744818    1.1954692   520603 
 3397000    1.0101613   -3.7753126   -3.7753126   -2.5788837  0.054570642   -3.7753126    1.1964288   520603 
 3398000    1.0091314   -3.7748481   -3.7748481    -2.579639  0.070107763   -3.7748481    1.1952091   520603 
 3399000    1.0079582   -3.7735938   -3.7735938   -2.5797742  0.067685371   -3.7735938    1.1938196   520603 
 3400000    1.0077553    -3.773666    -3.773666   -2.5800868  0.065743763    -3.773666    1.1935792   520603 
 3401000    1.0102846   -3.7765842   -3.7765842   -2.5800093  0.063156146   -3.7765842    1.1965749   520603 
 3402000    1.0088859   -3.7745803   -3.7745803    -2.579662  0.058841765   -3.7745803    1.1949183   520603 
 3403000    1.0101688   -3.7745997   -3.7745997   -2.5781619   0.07886887   -3.7745997    1.1964377   520603 
 3404000    1.0112591   -3.7769206   -3.7769206   -2.5791915  0.068351566   -3.7769206    1.1977291   520603 
 3405000    1.0097194   -3.7751036   -3.7751036   -2.5791981  0.070224573   -3.7751036    1.1959055   520603 
 3406000    1.0099851   -3.7760912   -3.7760912    -2.579871  0.069247595   -3.7760912    1.1962201   520603 
 3407000    1.0094232   -3.7748925   -3.7748925   -2.5793378  0.059093475   -3.7748925    1.1955546   520603 
 3408000    1.0102937   -3.7754406   -3.7754406    -2.578855  0.068246157   -3.7754406    1.1965856   520603 
 3409000    1.0104352    -3.776584    -3.776584   -2.5798307   0.06831874    -3.776584    1.1967533   520603 
 3410000    1.0113469   -3.7769455   -3.7769455   -2.5791125  0.065425938   -3.7769455     1.197833   520603 
 3411000    1.0101156   -3.7749327   -3.7749327   -2.5785579  0.082347423   -3.7749327    1.1963747   520603 
 3412000    1.0106121   -3.7757282   -3.7757282   -2.5787655  0.069131861   -3.7757282    1.1969627   520603 
 3413000    1.0100616   -3.7750173   -3.7750173   -2.5787066  0.066305727   -3.7750173    1.1963107   520603 
 3414000    1.0102151   -3.7753367   -3.7753367   -2.5788441  0.079844316   -3.7753367    1.1964926   520603 
 3415000    1.0101613    -3.775064    -3.775064   -2.5786352  0.069680433    -3.775064    1.1964288   520603 
 3416000    1.0092606   -3.7748017   -3.7748017   -2.5794397  0.066708091   -3.7748017     1.195362   520603 
 3417000    1.0089358   -3.7753299   -3.7753299   -2.5803526   0.06401192   -3.7753299    1.1949774   520603 
 3418000    1.0076655   -3.7727172   -3.7727172   -2.5792443  0.072298918   -3.7727172    1.1934729   520603 
 3419000    1.0084601   -3.7733072   -3.7733072   -2.5788933  0.064900963   -3.7733072    1.1944139   520603 
 3420000    1.0094321   -3.7744189   -3.7744189   -2.5788538  0.059297888   -3.7744189    1.1955652   520603 
 3421000    1.0105773   -3.7755919   -3.7755919   -2.5786703  0.062855214   -3.7755919    1.1969216   520603 
 3422000    1.0090297   -3.7741443   -3.7741443   -2.5790557  0.062909653   -3.7741443    1.1950886   520603 
 3423000    1.0088507   -3.7732919   -3.7732919   -2.5784154  0.065737788   -3.7732919    1.1948765   520603 
 3424000    1.0087507   -3.7731698   -3.7731698   -2.5784116  0.054671577   -3.7731698    1.1947582   520603 
 3425000    1.0109603   -3.7745287   -3.7745287   -2.5771535  0.060347815   -3.7745287    1.1973752   520603 
 3426000    1.0122443   -3.7758368   -3.7758368   -2.5769409  0.068365697   -3.7758368    1.1988959   520603 
 3427000    1.0112561   -3.7748371   -3.7748371   -2.5771116   0.06709717   -3.7748371    1.1977255   520603 
 3428000    1.0099569   -3.7738711   -3.7738711   -2.5776843  0.058920502   -3.7738711    1.1961868   520603 
 3429000    1.0102547   -3.7747022   -3.7747022   -2.5781627  0.060968031   -3.7747022    1.1965395   520603 
 3430000    1.0112607   -3.7758852   -3.7758852   -2.5781542   0.06032648   -3.7758852    1.1977309   520603 
 3431000    1.0107676   -3.7763283   -3.7763283   -2.5791813  0.077682551   -3.7763283     1.197147   520603 
 3432000    1.0105989   -3.7756824   -3.7756824   -2.5787353   0.07962034   -3.7756824    1.1969471   520603 
 3433000    1.0101334   -3.7756527   -3.7756527   -2.5792568  0.067288813   -3.7756527    1.1963958   520603 
 3434000    1.0112058   -3.7768977   -3.7768977   -2.5792317  0.081250734   -3.7768977     1.197666   520603 
 3435000    1.0096065   -3.7763635   -3.7763635   -2.5805918  0.047289472   -3.7763635    1.1957717   520603 
 3436000    1.0111684    -3.778068    -3.778068   -2.5804463  0.058841573    -3.778068    1.1976217   520603 
 3437000    1.0095929   -3.7763279   -3.7763279   -2.5805722   0.07149817   -3.7763279    1.1957557   520603 
 3438000    1.0084801   -3.7753523   -3.7753523   -2.5809147  0.060324539   -3.7753523    1.1944376   520603 
 3439000    1.0084459   -3.7753038   -3.7753038   -2.5809066  0.065965801   -3.7753038    1.1943972   520603 
 3440000    1.0094351   -3.7755612   -3.7755612   -2.5799924  0.060120736   -3.7755612    1.1955687   520603 
 3441000    1.0091279   -3.7749485   -3.7749485   -2.5797436  0.069585069   -3.7749485    1.1952049   520603 
 3442000    1.0087526   -3.7751301   -3.7751301   -2.5803697  0.072382861   -3.7751301    1.1947604   520603 
 3443000    1.0098033   -3.7768439   -3.7768439   -2.5808391  0.064170236   -3.7768439    1.1960048   520603 
 3444000    1.0073579   -3.7735234   -3.7735234   -2.5804149  0.069704732   -3.7735234    1.1931085   520603 
 3445000    1.0101257    -3.776747    -3.776747   -2.5803603  0.065796726    -3.776747    1.1963867   520603 
 3446000    1.0084762   -3.7747915   -3.7747915   -2.5803585  0.058674501   -3.7747915    1.1944331   520603 
 3447000    1.0083715   -3.7744135   -3.7744135   -2.5801044  0.080114539   -3.7744135    1.1943091   520603 
 3448000    1.0098892   -3.7760616   -3.7760616    -2.579955  0.072623178   -3.7760616    1.1961066   520603 
 3449000    1.0103486   -3.7769139   -3.7769139   -2.5802632  0.065514902   -3.7769139    1.1966507   520603 
 3450000    1.0084003   -3.7745329   -3.7745329   -2.5801897  0.076570088   -3.7745329    1.1943431   520603 
 3451000    1.0092783   -3.7754091   -3.7754091    -2.580026   0.06635858   -3.7754091     1.195383   520603 
 3452000    1.0121244   -3.7793437   -3.7793437   -2.5805897  0.060039442   -3.7793437    1.1987539   520603 
 3453000    1.0097393   -3.7754679   -3.7754679   -2.5795389  0.080046618   -3.7754679    1.1959291   520603 
 3454000    1.0086298   -3.7738947   -3.7738947   -2.5792797  0.079709697   -3.7738947    1.1946149   520603 
 3455000    1.0080391   -3.7742019   -3.7742019   -2.5802866   0.05743153   -3.7742019    1.1939153   520603 
 3456000    1.0087306   -3.7751211   -3.7751211   -2.5803867  0.063253259   -3.7751211    1.1947344   520603 
 3457000    1.0073532   -3.7740498   -3.7740498   -2.5809468  0.069420066   -3.7740498     1.193103   520603 
 3458000    1.0086698   -3.7761262   -3.7761262   -2.5814639  0.062132348   -3.7761262    1.1946623   520603 
 3459000    1.0092662   -3.7763728   -3.7763728   -2.5810041  0.065696528   -3.7763728    1.1953686   520603 
 3460000    1.0089721   -3.7748718   -3.7748718   -2.5798514  0.076153941   -3.7748718    1.1950204   520603 
 3461000    1.0089189   -3.7740854   -3.7740854    -2.579128    0.0741948   -3.7740854    1.1949574   520603 
 3462000    1.0091649   -3.7742566   -3.7742566   -2.5790078  0.063571635   -3.7742566    1.1952488   520603 
 3463000    1.0087762   -3.7743475   -3.7743475   -2.5795592  0.067592897   -3.7743475    1.1947883   520603 
 3464000    1.0087325   -3.7734581   -3.7734581   -2.5787216  0.067910672   -3.7734581    1.1947365   520603 
 3465000    1.0093791   -3.7741878   -3.7741878   -2.5786853  0.074456381   -3.7741878    1.1955024   520603 
 3466000    1.0091229   -3.7733006   -3.7733006   -2.5781016   0.08020553   -3.7733006     1.195199   520603 
 3467000    1.0107776   -3.7754888   -3.7754888     -2.57833  0.067440133   -3.7754888    1.1971587   520603 
 3468000    1.0122782   -3.7768061   -3.7768061     -2.57787  0.070047986   -3.7768061    1.1989361   520603 
 3469000    1.0103764   -3.7745061   -3.7745061   -2.5778224  0.065542656   -3.7745061    1.1966837   520603 
 3470000     1.010397   -3.7749632   -3.7749632   -2.5782551  0.075134676   -3.7749632     1.196708   520603 
 3471000    1.0100692   -3.7744716   -3.7744716   -2.5781518  0.070644652   -3.7744716    1.1963198   520603 
 3472000    1.0095375   -3.7741161   -3.7741161   -2.5784261  0.062097496   -3.7741161      1.19569   520603 
 3473000    1.0091269   -3.7727405   -3.7727405   -2.5775367  0.078128103   -3.7727405    1.1952037   520603 
 3474000    1.0104422   -3.7751293   -3.7751293   -2.5783678  0.063118553   -3.7751293    1.1967615   520603 
 3475000    1.0107312   -3.7753159   -3.7753159    -2.578212  0.072063073   -3.7753159    1.1971039   520603 
 3476000     1.007992   -3.7729728   -3.7729728   -2.5791133  0.065869648   -3.7729728    1.1938595   520603 
 3477000    1.0104249   -3.7750896   -3.7750896   -2.5783486  0.065839556   -3.7750896     1.196741   520603 
 3478000    1.0096236   -3.7743683   -3.7743683   -2.5785763  0.068522188   -3.7743683     1.195792   520603 
 3479000    1.0090926   -3.7743934   -3.7743934   -2.5792303  0.047874479   -3.7743934    1.1951631   520603 
 3480000    1.0072292   -3.7733065   -3.7733065   -2.5803505  0.059277468   -3.7733065    1.1929561   520603 
 3481000    1.0077025    -3.774844    -3.774844   -2.5813274  0.063053456    -3.774844    1.1935167   520603 
 3482000    1.0079732   -3.7740732   -3.7740732   -2.5802359   0.05264097   -3.7740732    1.1938373   520603 
 3483000    1.0075259   -3.7730928   -3.7730928   -2.5797853  0.061512938   -3.7730928    1.1933075   520603 
 3484000     1.008599   -3.7734694   -3.7734694   -2.5788909   0.06178051   -3.7734694    1.1945785   520603 
 3485000    1.0095534   -3.7742929   -3.7742929    -2.578584  0.061108521   -3.7742929    1.1957089   520603 
 3486000    1.0111737     -3.77528     -3.77528   -2.5776521  0.075431855     -3.77528    1.1976279   520603 
 3487000    1.0097927   -3.7729558   -3.7729558   -2.5769636  0.065034778   -3.7729558    1.1959923   520603 
 3488000    1.0109075   -3.7744969   -3.7744969   -2.5771842  0.065847381   -3.7744969    1.1973127   520603 
 3489000    1.0103474   -3.7745903   -3.7745903    -2.577941  0.066599503   -3.7745903    1.1966493   520603 
 3490000    1.0105312   -3.7747946   -3.7747946   -2.5779276   0.07170017   -3.7747946    1.1968669   520603 
 3491000    1.0107741    -3.775778    -3.775778   -2.5786234  0.083332758    -3.775778    1.1971546   520603 
 3492000    1.0108217   -3.7757531   -3.7757531    -2.578542  0.070981245   -3.7757531     1.197211   520603 
 3493000    1.0098312   -3.7756643   -3.7756643   -2.5796265  0.075524326   -3.7756643    1.1960379   520603 
 3494000    1.0087377   -3.7746447   -3.7746447    -2.579902  0.068786183   -3.7746447    1.1947427   520603 
 3495000     1.010987   -3.7771264   -3.7771264   -2.5797197  0.068436542   -3.7771264    1.1974068   520603 
 3496000    1.0077204   -3.7740722   -3.7740722   -2.5805343  0.070809126   -3.7740722    1.1935379   520603 
 3497000    1.0102352    -3.777637    -3.777637   -2.5811207  0.068318505    -3.777637    1.1965164   520603 
 3498000    1.0087671   -3.7753056   -3.7753056    -2.580528  0.074669035   -3.7753056    1.1947776   520603 
 3499000    1.0078652    -3.774844    -3.774844   -2.5811346  0.062973857    -3.774844    1.1937094   520603 
 3500000    1.0085349   -3.7757243   -3.7757243   -2.5812218    0.0614984   -3.7757243    1.1945025   520603 
 3501000    1.0103265    -3.777386    -3.777386   -2.5807616  0.062697045    -3.777386    1.1966245   520603 
 3502000    1.0096842   -3.7751584   -3.7751584   -2.5792946  0.062366687   -3.7751584    1.1958638   520603 
 3503000     1.009292   -3.7742731   -3.7742731   -2.5788738  0.069941648   -3.7742731    1.1953993   520603 
 3504000    1.0078123   -3.7727756   -3.7727756   -2.5791289  0.075695426   -3.7727756    1.1936467   520603 
 3505000     1.010084   -3.7746296   -3.7746296   -2.5782924  0.077056464   -3.7746296    1.1963372   520603 
 3506000    1.0079645   -3.7724925   -3.7724925   -2.5786656  0.065191855   -3.7724925    1.1938269   520603 
 3507000    1.0111134   -3.7760232   -3.7760232   -2.5784667  0.067113459   -3.7760232    1.1975565   520603 
 3508000    1.0104707    -3.775527    -3.775527   -2.5787318  0.071073117    -3.775527    1.1967953   520603 
 3509000    1.0091409   -3.7738346   -3.7738346   -2.5786143  0.054643793   -3.7738346    1.1952203   520603 
 3510000     1.009312   -3.7746335   -3.7746335   -2.5792106  0.057187238   -3.7746335    1.1954229   520603 
 3511000     1.007812   -3.7726428   -3.7726428   -2.5789965  0.065401685   -3.7726428    1.1936463   520603 
 3512000     1.008489   -3.7738884   -3.7738884   -2.5794401  0.067488161   -3.7738884    1.1944482   520603 
 3513000     1.008723   -3.7738242   -3.7738242   -2.5790989   0.05916192   -3.7738242    1.1947253   520603 
 3514000    1.0086249   -3.7740424   -3.7740424   -2.5794332  0.057850419   -3.7740424    1.1946091   520603 
 3515000    1.0092996    -3.775701    -3.775701   -2.5802928  0.064135596    -3.775701    1.1954082   520603 
 3516000    1.0103319   -3.7758212   -3.7758212   -2.5791903  0.076901851   -3.7758212    1.1966309   520603 
 3517000    1.0089279   -3.7750379   -3.7750379   -2.5800699  0.068845944   -3.7750379     1.194968   520603 
 3518000    1.0083117   -3.7734738   -3.7734738   -2.5792356  0.062917577   -3.7734738    1.1942382   520603 
 3519000    1.0100318   -3.7745309   -3.7745309   -2.5782555  0.061678011   -3.7745309    1.1962754   520603 
 3520000    1.0082794   -3.7727726   -3.7727726   -2.5785726  0.074566321   -3.7727726       1.1942   520603 
 3521000    1.0090998   -3.7731962   -3.7731962   -2.5780247  0.072850057   -3.7731962    1.1951716   520603 
 3522000    1.0095565   -3.7731574   -3.7731574   -2.5774449  0.071563804   -3.7731574    1.1957125   520603 
 3523000    1.0105553   -3.7748982   -3.7748982   -2.5780027  0.072885871   -3.7748982    1.1968955   520603 
 3524000     1.011241   -3.7756459   -3.7756459   -2.5779382  0.062032704   -3.7756459    1.1977077   520603 
 3525000    1.0117848   -3.7768017   -3.7768017     -2.57845  0.064181127   -3.7768017    1.1983517   520603 
 3526000    1.0098344   -3.7741676   -3.7741676   -2.5781258  0.067828758   -3.7741676    1.1960417   520603 
 3527000    1.0092607   -3.7737588   -3.7737588   -2.5783966  0.080219533   -3.7737588    1.1953621   520603 
 3528000    1.0086318   -3.7728306   -3.7728306   -2.5782132  0.060183878   -3.7728306    1.1946174   520603 
 3529000    1.0086485   -3.7731424   -3.7731424   -2.5785054  0.073212333   -3.7731424     1.194637   520603 
 3530000    1.0071558    -3.771563    -3.771563   -2.5786938  0.065766349    -3.771563    1.1928692   520603 
 3531000    1.0086313   -3.7724919   -3.7724919   -2.5778751  0.075564459   -3.7724919    1.1946167   520603 
 3532000    1.0079352   -3.7719472   -3.7719472    -2.578155  0.066127196   -3.7719472    1.1937922   520603 
 3533000    1.0077302    -3.772325    -3.772325   -2.5787755  0.058069813    -3.772325    1.1935495   520603 
 3534000    1.0078683   -3.7715279   -3.7715279   -2.5778148  0.072268133   -3.7715279     1.193713   520603 
 3535000    1.0083715    -3.772658    -3.772658    -2.578349   0.06278311    -3.772658    1.1943091   520603 
 3536000    1.0086084    -3.773499    -3.773499   -2.5789094  0.061483225    -3.773499    1.1945896   520603 
 3537000    1.0073141   -3.7723184   -3.7723184   -2.5792617  0.060037265   -3.7723184    1.1930567   520603 
 3538000    1.0065355   -3.7719632   -3.7719632   -2.5798286  0.064219073   -3.7719632    1.1921345   520603 
 3539000    1.0081966   -3.7746731   -3.7746731   -2.5805712  0.058167311   -3.7746731    1.1941019   520603 
 3540000    1.0082991   -3.7743639   -3.7743639   -2.5801407   0.05406644   -3.7743639    1.1942232   520603 
 3541000    1.0065833   -3.7719373   -3.7719373   -2.5797463  0.076382249   -3.7719373     1.192191   520603 
 3542000     1.007475   -3.7735086   -3.7735086   -2.5802613  0.060460204   -3.7735086    1.1932472   520603 
 3543000    1.0074977   -3.7731995   -3.7731995   -2.5799254   0.06526404   -3.7731995    1.1932741   520603 
 3544000    1.0075839   -3.7733163   -3.7733163   -2.5799401  0.065519556   -3.7733163    1.1933762   520603 
 3545000     1.007371   -3.7738001   -3.7738001   -2.5806761  0.067889581   -3.7738001    1.1931241   520603 
 3546000    1.0090599   -3.7762631   -3.7762631   -2.5811388  0.068084637   -3.7762631    1.1951243   520603 
 3547000    1.0082692   -3.7745589   -3.7745589    -2.580371  0.069189691   -3.7745589    1.1941879   520603 
 3548000    1.0100783   -3.7772055   -3.7772055    -2.580875  0.064252356   -3.7772055    1.1963305   520603 
 3549000     1.008065   -3.7750301   -3.7750301   -2.5810841  0.078443668   -3.7750301     1.193946   520603 
 3550000    1.0094526   -3.7761219   -3.7761219   -2.5805325  0.071422618   -3.7761219    1.1955894   520603 
 3551000    1.0098753   -3.7764793   -3.7764793   -2.5803892  0.066344133   -3.7764793    1.1960901   520603 
 3552000    1.0076217   -3.7738473   -3.7738473   -2.5804264  0.079798075   -3.7738473    1.1934209   520603 
 3553000    1.0089629   -3.7756562   -3.7756562   -2.5806467  0.075629897   -3.7756562    1.1950095   520603 
 3554000    1.0101365   -3.7763775   -3.7763775   -2.5799781   0.06928826   -3.7763775    1.1963994   520603 
 3555000    1.0111974   -3.7785735   -3.7785735   -2.5809175  0.079848865   -3.7785735     1.197656   520603 
 3556000     1.010536   -3.7768016   -3.7768016    -2.579929  0.076102694   -3.7768016    1.1968726   520603 
 3557000     1.012866   -3.7797752   -3.7797752   -2.5801429  0.066695392   -3.7797752    1.1996323   520603 
 3558000    1.0096437   -3.7768188   -3.7768188   -2.5810029  0.071251969   -3.7768188    1.1958158   520603 
 3559000    1.0099511   -3.7770834   -3.7770834   -2.5809035  0.065196611   -3.7770834    1.1961799   520603 
 3560000    1.0082869   -3.7740675   -3.7740675   -2.5798587  0.066894089   -3.7740675    1.1942088   520603 
 3561000    1.0086356   -3.7741563   -3.7741563   -2.5795345  0.074519031   -3.7741563    1.1946219   520603 
 3562000    1.0077425   -3.7723517   -3.7723517   -2.5787877  0.067623085   -3.7723517     1.193564   520603 
 3563000    1.0077615   -3.7730545   -3.7730545   -2.5794679  0.062621112   -3.7730545    1.1935866   520603 
 3564000    1.0072278   -3.7733396   -3.7733396   -2.5803851  0.070102748   -3.7733396    1.1929544   520603 
 3565000    1.0081158   -3.7734375   -3.7734375   -2.5794313  0.050758274   -3.7734375    1.1940061   520603 
 3566000    1.0068355    -3.772418    -3.772418   -2.5799281  0.063552121    -3.772418    1.1924898   520603 
 3567000    1.0063111   -3.7718159   -3.7718159   -2.5799472  0.074859444   -3.7718159    1.1918687   520603 
 3568000    1.0060904   -3.7709707   -3.7709707   -2.5793633  0.076963949   -3.7709707    1.1916073   520603 
 3569000    1.0091899   -3.7748814   -3.7748814   -2.5796031   0.05298495   -3.7748814    1.1952783   520603 
 3570000     1.008993    -3.773539    -3.773539   -2.5784938  0.078119268    -3.773539    1.1950451   520603 
 3571000    1.0071033   -3.7709825   -3.7709825   -2.5781756  0.063917566   -3.7709825     1.192807   520603 
 3572000    1.0099476   -3.7739987   -3.7739987   -2.5778229  0.066657307   -3.7739987    1.1961758   520603 
 3573000    1.0078888   -3.7706396   -3.7706396   -2.5769022  0.064429588   -3.7706396    1.1937374   520603 
 3574000    1.0090089   -3.7727418   -3.7727418   -2.5776779   0.07685769   -3.7727418    1.1950639   520603 
 3575000    1.0085969    -3.773212    -3.773212    -2.578636  0.068731036    -3.773212     1.194576   520603 
 3576000    1.0094438   -3.7739002   -3.7739002   -2.5783212  0.054070869   -3.7739002     1.195579   520603 
 3577000    1.0098792   -3.7744697   -3.7744697    -2.578375  0.054630348   -3.7744697    1.1960948   520603 
 3578000    1.0087708   -3.7731627   -3.7731627   -2.5783807  0.064804233   -3.7731627    1.1947819   520603 
 3579000    1.0096444   -3.7749925   -3.7749925   -2.5791758   0.06073538   -3.7749925    1.1958166   520603 
 3580000    1.0091839   -3.7743492   -3.7743492    -2.579078  0.072293622   -3.7743492    1.1952712   520603 
 3581000     1.009034   -3.7738541   -3.7738541   -2.5787604  0.066279269   -3.7738541    1.1950937   520603 
 3582000    1.0099116   -3.7744727   -3.7744727   -2.5783396  0.061820246   -3.7744727    1.1961331   520603 
 3583000    1.0090622   -3.7724553   -3.7724553   -2.5773283  0.073546454   -3.7724553     1.195127   520603 
 3584000    1.0098404   -3.7738217   -3.7738217   -2.5777729  0.072489206   -3.7738217    1.1960487   520603 
 3585000     1.010572   -3.7745425   -3.7745425   -2.5776272   0.05795605   -3.7745425    1.1969153   520603 
 3586000    1.0082192   -3.7717773   -3.7717773   -2.5776487  0.067605178   -3.7717773    1.1941286   520603 
 3587000    1.0087953   -3.7726843   -3.7726843   -2.5778734  0.068503953   -3.7726843    1.1948109   520603 
 3588000    1.0087785   -3.7729929   -3.7729929   -2.5782019  0.070806678   -3.7729929     1.194791   520603 
 3589000    1.0087901   -3.7725522   -3.7725522   -2.5777474  0.066619225   -3.7725522    1.1948048   520603 
 3590000    1.0093184   -3.7735048   -3.7735048   -2.5780743  0.066970165   -3.7735048    1.1954305   520603 
 3591000    1.0092185    -3.774131    -3.774131   -2.5788187  0.075298786    -3.774131    1.1953123   520603 
 3592000     1.008963   -3.7736314   -3.7736314   -2.5786218  0.077235857   -3.7736314    1.1950095   520603 
 3593000    1.0078154   -3.7729987   -3.7729987   -2.5793483  0.059979325   -3.7729987    1.1936504   520603 
 3594000    1.0085073   -3.7729886   -3.7729886   -2.5785188  0.064307491   -3.7729886    1.1944699   520603 
 3595000    1.0107571   -3.7749144   -3.7749144   -2.5777799  0.071674862   -3.7749144    1.1971345   520603 
 3596000    1.0091021   -3.7740294   -3.7740294    -2.578855  0.064463012   -3.7740294    1.1951743   520603 
 3597000    1.0104082   -3.7756231   -3.7756231   -2.5789018  0.058498799   -3.7756231    1.1967213   520603 
 3598000    1.0105279   -3.7756665   -3.7756665   -2.5788034  0.070053122   -3.7756665    1.1968631   520603 
 3599000    1.0092778   -3.7739075   -3.7739075    -2.578525  0.070357442   -3.7739075    1.1953824   520603 
 3600000      1.00854   -3.7730797   -3.7730797   -2.5785711  0.066336911   -3.7730797    1.1945086   520603 
 3601000    1.0084864    -3.773143    -3.773143   -2.5786979   0.07766643    -3.773143    1.1944451   520603 
 3602000    1.0089438   -3.7740291   -3.7740291   -2.5790423  0.066233461   -3.7740291    1.1949868   520603 
 3603000    1.0106794   -3.7759467   -3.7759467   -2.5789042  0.066098608   -3.7759467    1.1970425   520603 
 3604000    1.0094618    -3.775094    -3.775094   -2.5794936  0.067663599    -3.775094    1.1956003   520603 
 3605000    1.0093015   -3.7753394   -3.7753394   -2.5799289  0.058219568   -3.7753394    1.1954105   520603 
 3606000    1.0074541   -3.7737125   -3.7737125     -2.58049  0.067550212   -3.7737125    1.1932225   520603 
 3607000    1.0086644   -3.7759308   -3.7759308   -2.5812749  0.063931032   -3.7759308    1.1946559   520603 
 3608000    1.0096753   -3.7767123   -3.7767123    -2.580859  0.063231114   -3.7767123    1.1958533   520603 
 3609000    1.0108173    -3.777081    -3.777081   -2.5798752  0.083862688    -3.777081    1.1972058   520603 
 3610000    1.0087093    -3.774862    -3.774862   -2.5801529  0.062617904    -3.774862    1.1947091   520603 
 3611000    1.0094186   -3.7760192   -3.7760192   -2.5804701  0.068573355   -3.7760192    1.1955492   520603 
 3612000    1.0093576   -3.7756339   -3.7756339   -2.5801569  0.069427982   -3.7756339    1.1954769   520603 
 3613000     1.009128   -3.7747313   -3.7747313   -2.5795263  0.060528136   -3.7747313     1.195205   520603 
 3614000    1.0095367   -3.7750909   -3.7750909   -2.5794019  0.075891401   -3.7750909    1.1956891   520603 
 3615000    1.0091717   -3.7747309   -3.7747309   -2.5794742  0.074451363   -3.7747309    1.1952568   520603 
 3616000    1.0077539   -3.7738006   -3.7738006   -2.5802231  0.069941572   -3.7738006    1.1935775   520603 
 3617000    1.0070318   -3.7735815   -3.7735815   -2.5808592  0.077543573   -3.7735815    1.1927223   520603 
 3618000    1.0070466   -3.7741574   -3.7741574   -2.5814176  0.060106815   -3.7741574    1.1927398   520603 
 3619000     1.007614   -3.7749661   -3.7749661   -2.5815543  0.077920639   -3.7749661    1.1934118   520603 
 3620000    1.0082456   -3.7764104   -3.7764104   -2.5822505   0.05895056   -3.7764104    1.1941599   520603 
 3621000    1.0065364   -3.7733933   -3.7733933   -2.5812578  0.068734881   -3.7733933    1.1921356   520603 
 3622000    1.0058784   -3.7726471   -3.7726471   -2.5812909  0.074107162   -3.7726471    1.1913563   520603 
 3623000    1.0069857   -3.7736472   -3.7736472   -2.5809795  0.064709048   -3.7736472    1.1926677   520603 
 3624000    1.0073449   -3.7738527   -3.7738527   -2.5807596   0.06348392   -3.7738527    1.1930931   520603 
 3625000    1.0073488   -3.7732886   -3.7732886   -2.5801908  0.056246362   -3.7732886    1.1930978   520603 
 3626000    1.0054038   -3.7713332   -3.7713332   -2.5805392  0.061940616   -3.7713332    1.1907941   520603 
 3627000    1.0065136   -3.7733636   -3.7733636    -2.581255  0.065570121   -3.7733636    1.1921086   520603 
 3628000    1.0066431   -3.7750832   -3.7750832   -2.5828213  0.061905148   -3.7750832     1.192262   520603 
 3629000    1.0070658   -3.7743738   -3.7743738   -2.5816113   0.05707681   -3.7743738    1.1927625   520603 
 3630000    1.0075344   -3.7746102   -3.7746102   -2.5812926  0.077480987   -3.7746102    1.1933176   520603 
 3631000    1.0090799   -3.7766562   -3.7766562   -2.5815081  0.070776834   -3.7766562    1.1951481   520603 
 3632000    1.0086434   -3.7762368   -3.7762368   -2.5816057  0.068281047   -3.7762368    1.1946311   520603 
 3633000    1.0099377   -3.7775702   -3.7775702   -2.5814062  0.069568241   -3.7775702     1.196164   520603 
 3634000    1.0086311   -3.7764046   -3.7764046   -2.5817881  0.079571612   -3.7764046    1.1946165   520603 
 3635000    1.0108209   -3.7791005   -3.7791005   -2.5818905   0.07271967   -3.7791005    1.1972101   520603 
 3636000    1.0086594   -3.7772767   -3.7772767   -2.5826267  0.058701352   -3.7772767      1.19465   520603 
 3637000    1.0093917   -3.7788272   -3.7788272   -2.5833099  0.072889488   -3.7788272    1.1955173   520603 
 3638000    1.0089249   -3.7785043   -3.7785043   -2.5835399  0.071145242   -3.7785043    1.1949644   520603 
 3639000    1.0095182   -3.7795031   -3.7795031    -2.583836  0.080890853   -3.7795031    1.1956671   520603 
 3640000    1.0113486   -3.7814643   -3.7814643   -2.5836292  0.073179905   -3.7814643    1.1978351   520603 
 3641000    1.0101911   -3.7794051   -3.7794051    -2.582941  0.072350341   -3.7794051    1.1964641   520603 
 3642000    1.0097921   -3.7793185   -3.7793185   -2.5833269  0.071515156   -3.7793185    1.1959916   520603 
 3643000    1.0096882   -3.7792845   -3.7792845    -2.583416  0.059122548   -3.7792845    1.1958685   520603 
 3644000    1.0095774   -3.7782782   -3.7782782    -2.582541  0.074101926   -3.7782782    1.1957372   520603 
 3645000    1.0093298   -3.7776858   -3.7776858   -2.5822418  0.065125363   -3.7776858     1.195444   520603 
 3646000    1.0103717   -3.7794963   -3.7794963   -2.5828182  0.069381464   -3.7794963    1.1966781   520603 
 3647000    1.0095366   -3.7783359   -3.7783359    -2.582647  0.063480332   -3.7783359     1.195689   520603 
 3648000    1.0098269   -3.7782288   -3.7782288    -2.582196  0.067329235   -3.7782288    1.1960328   520603 
 3649000     1.008214   -3.7761529   -3.7761529   -2.5820304  0.065748001   -3.7761529    1.1941225   520603 
 3650000    1.0085865    -3.776286    -3.776286   -2.5817223   0.06134381    -3.776286    1.1945637   520603 
 3651000    1.0084581   -3.7761319   -3.7761319   -2.5817203  0.054684198   -3.7761319    1.1944115   520603 
 3652000    1.0066281   -3.7738244   -3.7738244   -2.5815802  0.053450212   -3.7738244    1.1922442   520603 
 3653000    1.0071686   -3.7745744   -3.7745744   -2.5816901  0.058146926   -3.7745744    1.1928843   520603 
 3654000    1.0059112   -3.7740259   -3.7740259   -2.5826308  0.058826963   -3.7740259    1.1913951   520603 
 3655000     1.005301   -3.7730652   -3.7730652   -2.5823928  0.066697434   -3.7730652    1.1906723   520603 
 3656000    1.0064332   -3.7737981   -3.7737981   -2.5817849  0.062764441   -3.7737981    1.1920133   520603 
 3657000    1.0076758   -3.7756748   -3.7756748   -2.5821897  0.072934862   -3.7756748     1.193485   520603 
 3658000    1.0083538   -3.7755536   -3.7755536   -2.5812655  0.068852234   -3.7755536    1.1942881   520603 
 3659000     1.006612   -3.7741241   -3.7741241    -2.581899  0.082008833   -3.7741241    1.1922251   520603 
 3660000    1.0075818   -3.7755933   -3.7755933   -2.5822196  0.063897245   -3.7755933    1.1933737   520603 
 3661000    1.0081247   -3.7763063   -3.7763063   -2.5822896  0.072109468   -3.7763063    1.1940167   520603 
 3662000    1.0095643    -3.777986    -3.777986   -2.5822642  0.073091374    -3.777986    1.1957218   520603 
 3663000    1.0101646    -3.778044    -3.778044   -2.5816112  0.074798673    -3.778044    1.1964327   520603 
 3664000     1.009482   -3.7775772   -3.7775772   -2.5819529   0.07041572   -3.7775772    1.1956243   520603 
 3665000    1.0070125   -3.7752902   -3.7752902   -2.5825909  0.080091308   -3.7752902    1.1926994   520603 
 3666000     1.009691   -3.7783626   -3.7783626   -2.5824908  0.070092126   -3.7783626    1.1958718   520603 
 3667000    1.0088677   -3.7776893   -3.7776893   -2.5827926  0.074092605   -3.7776893    1.1948968   520603 
 3668000    1.0096895   -3.7782816   -3.7782816   -2.5824115  0.071799259   -3.7782816      1.19587   520603 
 3669000    1.0109608   -3.7798995   -3.7798995   -2.5825237  0.069629894   -3.7798995    1.1973758   520603 
 3670000     1.009002   -3.7779132   -3.7779132   -2.5828575  0.089235752   -3.7779132    1.1950557   520603 
 3671000    1.0103777   -3.7800443   -3.7800443   -2.5833592  0.072116608   -3.7800443    1.1966851   520603 
 3672000    1.0095647   -3.7805525   -3.7805525   -2.5848303  0.084488152   -3.7805525    1.1957223   520603 
 3673000    1.0096567   -3.7794039   -3.7794039   -2.5835727  0.086537914   -3.7794039    1.1958312   520603 
 3674000    1.0092634     -3.77903     -3.77903   -2.5836646  0.077956275     -3.77903    1.1953653   520603 
 3675000    1.0090997   -3.7787663   -3.7787663   -2.5835949   0.07247629   -3.7787663    1.1951715   520603 
 3676000    1.0072478    -3.776593    -3.776593   -2.5836149  0.075901427    -3.776593    1.1929781   520603 
 3677000    1.0079077   -3.7774595   -3.7774595   -2.5836997  0.059729671   -3.7774595    1.1937598   520603 
 3678000    1.0080573   -3.7776108   -3.7776108   -2.5836739  0.081131989   -3.7776108    1.1939369   520603 
 3679000    1.0078644   -3.7785448   -3.7785448   -2.5848364  0.064417861   -3.7785448    1.1937084   520603 
 3680000    1.0082597   -3.7791302   -3.7791302   -2.5849536  0.054925362   -3.7791302    1.1941766   520603 
 3681000    1.0075118    -3.778353    -3.778353   -2.5850622  0.055662496    -3.778353    1.1932908   520603 
 3682000    1.0081046   -3.7792349   -3.7792349    -2.585242  0.073505286   -3.7792349    1.1939929   520603 
 3683000    1.0067726   -3.7774594   -3.7774594   -2.5850441  0.064148201   -3.7774594    1.1924153   520603 
 3684000    1.0082057   -3.7777333   -3.7777333   -2.5836207  0.072057971   -3.7777333    1.1941126   520603 
 3685000    1.0075976    -3.777656    -3.777656   -2.5842636  0.062510471    -3.777656    1.1933924   520603 
 3686000     1.006813   -3.7771711   -3.7771711    -2.584708  0.063096029   -3.7771711    1.1924632   520603 
 3687000    1.0074316    -3.777341    -3.777341   -2.5841452  0.078354831    -3.777341    1.1931958   520603 
 3688000    1.0079042   -3.7771758   -3.7771758   -2.5834203  0.073539125   -3.7771758    1.1937555   520603 
 3689000    1.0085857   -3.7781601   -3.7781601   -2.5835975  0.078223695   -3.7781601    1.1945627   520603 
 3690000    1.0086159   -3.7774599   -3.7774599   -2.5828615  0.071365477   -3.7774599    1.1945984   520603 
 3691000    1.0088377   -3.7782989   -3.7782989   -2.5834377  0.055619389   -3.7782989    1.1948611   520603 
 3692000    1.0086258   -3.7775967   -3.7775967   -2.5829864  0.068992539   -3.7775967    1.1946103   520603 
 3693000      1.00779   -3.7770811   -3.7770811   -2.5834609  0.063213675   -3.7770811    1.1936202   520603 
 3694000    1.0076029   -3.7772479   -3.7772479   -2.5838492  0.079055342   -3.7772479    1.1933987   520603 
 3695000    1.0084146   -3.7785168   -3.7785168   -2.5841568  0.069336827   -3.7785168      1.19436   520603 
 3696000    1.0096705   -3.7793065   -3.7793065   -2.5834589  0.065673947   -3.7793065    1.1958476   520603 
 3697000    1.0096698   -3.7789754   -3.7789754   -2.5831286  0.077094649   -3.7789754    1.1958468   520603 
 3698000    1.0093318   -3.7785304   -3.7785304    -2.583084  0.069405638   -3.7785304    1.1954463   520603 
 3699000    1.0088687   -3.7775555   -3.7775555   -2.5826576  0.073843966   -3.7775555    1.1948979   520603 
 3700000    1.0078025   -3.7765774   -3.7765774   -2.5829422  0.070935845   -3.7765774    1.1936351   520603 
 3701000    1.0065799   -3.7756996   -3.7756996   -2.5835125  0.068916594   -3.7756996    1.1921871   520603 
 3702000    1.0080583   -3.7772629   -3.7772629   -2.5833248  0.052508987   -3.7772629    1.1939381   520603 
 3703000    1.0085737    -3.777859    -3.777859   -2.5833105  0.050528236    -3.777859    1.1945485   520603 
 3704000    1.0076739   -3.7763127   -3.7763127   -2.5828299  0.064312336   -3.7763127    1.1934828   520603 
 3705000    1.0067623   -3.7752563   -3.7752563   -2.5828532  0.066693184   -3.7752563    1.1924031   520603 
 3706000    1.0091512   -3.7777544   -3.7777544   -2.5825219  0.069011595   -3.7777544    1.1952325   520603 
 3707000    1.0077099   -3.7766066   -3.7766066   -2.5830811  0.071075541   -3.7766066    1.1935255   520603 
 3708000     1.005905   -3.7748976   -3.7748976   -2.5835099  0.084204954   -3.7748976    1.1913877   520603 
 3709000    1.0081744   -3.7778581   -3.7778581   -2.5837825    0.0681373   -3.7778581    1.1940756   520603 
 3710000    1.0074918    -3.776911    -3.776911   -2.5836439  0.065100777    -3.776911    1.1932671   520603 
 3711000    1.0079138   -3.7780103   -3.7780103   -2.5842434  0.056257284   -3.7780103    1.1937669   520603 
 3712000    1.0059863   -3.7761722   -3.7761722   -2.5846881  0.071485042   -3.7761722     1.191484   520603 
 3713000    1.0075123   -3.7785476   -3.7785476   -2.5852562  0.067190764   -3.7785476    1.1932914   520603 
 3714000    1.0060335   -3.7765147   -3.7765147   -2.5849748  0.066868462   -3.7765147    1.1915399   520603 
 3715000    1.0086579   -3.7791919   -3.7791919   -2.5845436  0.063474187   -3.7791919    1.1946482   520603 
 3716000    1.0071425   -3.7781304   -3.7781304   -2.5852769  0.052604288   -3.7781304    1.1928534   520603 
 3717000    1.0089619   -3.7789513   -3.7789513    -2.583943  0.069096153   -3.7789513    1.1950083   520603 
 3718000    1.0076037   -3.7775157   -3.7775157   -2.5841161  0.067096787   -3.7775157    1.1933996   520603 
 3719000    1.0086304   -3.7789866   -3.7789866    -2.584371  0.059198292   -3.7789866    1.1946156   520603 
 3720000    1.0074623   -3.7780798   -3.7780798   -2.5848476  0.066325454   -3.7780798    1.1932322   520603 
 3721000     1.008084   -3.7790197   -3.7790197   -2.5850512  0.062480951   -3.7790197    1.1939685   520603 
 3722000    1.0083203   -3.7796213   -3.7796213   -2.5853729  0.059833996   -3.7796213    1.1942484   520603 
 3723000    1.0075527   -3.7787611   -3.7787611   -2.5854219  0.066734815   -3.7787611    1.1933392   520603 
 3724000    1.0091906    -3.780031    -3.780031   -2.5847519  0.052394392    -3.780031    1.1952791   520603 
 3725000    1.0103097   -3.7805689   -3.7805689   -2.5839643  0.072228686   -3.7805689    1.1966046   520603 
 3726000    1.0085981   -3.7794488   -3.7794488   -2.5848714  0.063791761   -3.7794488    1.1945774   520603 
 3727000    1.0100164    -3.781881    -3.781881   -2.5856237  0.074062943    -3.781881    1.1962572   520603 
 3728000    1.0073815   -3.7781601   -3.7781601   -2.5850236    0.0750863   -3.7781601    1.1931364   520603 
 3729000    1.0075659   -3.7792018   -3.7792018   -2.5858469  0.071166442   -3.7792018    1.1933549   520603 
 3730000    1.0083083   -3.7790652   -3.7790652    -2.584831  0.064820898   -3.7790652    1.1942342   520603 
 3731000    1.0091785   -3.7794152   -3.7794152   -2.5841503  0.064241852   -3.7794152    1.1952649   520603 
 3732000    1.0100654   -3.7806511   -3.7806511   -2.5843359  0.074514823   -3.7806511    1.1963152   520603 
 3733000     1.007462   -3.7775105   -3.7775105   -2.5842786  0.063232759   -3.7775105    1.1932318   520603 
 3734000    1.0070562   -3.7771874   -3.7771874   -2.5844362  0.057841747   -3.7771874    1.1927512   520603 
 3735000    1.0085701   -3.7774778   -3.7774778   -2.5829336  0.064339744   -3.7774778    1.1945442   520603 
 3736000    1.0099477   -3.7789478   -3.7789478    -2.582772  0.076199898   -3.7789478    1.1961759   520603 
 3737000    1.0082805   -3.7782703   -3.7782703   -2.5840691  0.062698572   -3.7782703    1.1942012   520603 
 3738000    1.0069915   -3.7762898   -3.7762898   -2.5836152  0.065125756   -3.7762898    1.1926746   520603 
 3739000    1.0073159   -3.7765468   -3.7765468   -2.5834881  0.055626014   -3.7765468    1.1930587   520603 
 3740000    1.0081391   -3.7767306   -3.7767306   -2.5826968  0.067478159   -3.7767306    1.1940338   520603 
 3741000    1.0092251   -3.7782374   -3.7782374   -2.5829173  0.060417811   -3.7782374    1.1953201   520603 
 3742000    1.0063931   -3.7755928   -3.7755928    -2.583627  0.065480487   -3.7755928    1.1919658   520603 
 3743000    1.0065438   -3.7758224   -3.7758224   -2.5836781  0.080585718   -3.7758224    1.1921443   520603 
 3744000    1.0063089   -3.7759345   -3.7759345   -2.5840683   0.06833966   -3.7759345    1.1918661   520603 
 3745000    1.0075428   -3.7773473   -3.7773473   -2.5840198   0.06490749   -3.7773473    1.1933276   520603 
 3746000    1.0062578   -3.7755744   -3.7755744   -2.5837687   0.06165586   -3.7755744    1.1918056   520603 
 3747000    1.0069174   -3.7764337   -3.7764337   -2.5838469   0.06829712   -3.7764337    1.1925868   520603 
 3748000    1.0083608   -3.7777226   -3.7777226   -2.5834262  0.078927167   -3.7777226    1.1942964   520603 
 3749000    1.0100746   -3.7797931   -3.7797931   -2.5834669  0.055285915   -3.7797931    1.1963261   520603 
 3750000    1.0084405   -3.7777493   -3.7777493   -2.5833585  0.061177763   -3.7777493    1.1943908   520603 
 3751000    1.0064401   -3.7760635   -3.7760635    -2.584042  0.053316641   -3.7760635    1.1920215   520603 
 3752000    1.0091403   -3.7782322   -3.7782322   -2.5830126  0.059953913   -3.7782322    1.1952196   520603 
 3753000    1.0094907   -3.7793021   -3.7793021   -2.5836675  0.065810965   -3.7793021    1.1956346   520603 
 3754000    1.0081097   -3.7775143   -3.7775143   -2.5835153   0.05996067   -3.7775143     1.193999   520603 
 3755000     1.009166   -3.7781433   -3.7781433   -2.5828933  0.056508737   -3.7781433      1.19525   520603 
 3756000    1.0098867   -3.7797421   -3.7797421   -2.5836384  0.071653423   -3.7797421    1.1961037   520603 
 3757000    1.0093368   -3.7793744   -3.7793744   -2.5839221  0.072373755   -3.7793744    1.1954523   520603 
 3758000     1.008162   -3.7773347   -3.7773347   -2.5832738  0.056121796   -3.7773347    1.1940609   520603 
 3759000    1.0085841   -3.7790845   -3.7790845   -2.5845237  0.066380028   -3.7790845    1.1945608   520603 
 3760000    1.0088232    -3.779931    -3.779931   -2.5850871  0.067178021    -3.779931     1.194844   520603 
 3761000    1.0070226   -3.7788799   -3.7788799   -2.5861684  0.074898029   -3.7788799    1.1927114   520603 
 3762000    1.0081848   -3.7795894   -3.7795894   -2.5855015  0.071707897   -3.7795894    1.1940879   520603 
 3763000    1.0075114   -3.7791885   -3.7791885   -2.5858982  0.059765019   -3.7791885    1.1932903   520603 
 3764000    1.0062051   -3.7761978   -3.7761978   -2.5844547  0.070572368   -3.7761978    1.1917431   520603 
 3765000    1.0088613   -3.7797265   -3.7797265   -2.5848374  0.062999836   -3.7797265    1.1948891   520603 
 3766000    1.0101502   -3.7805536   -3.7805536   -2.5841379  0.063877128   -3.7805536    1.1964157   520603 
 3767000    1.0096647    -3.779998    -3.779998   -2.5841573  0.076544995    -3.779998    1.1958407   520603 
 3768000    1.0097481   -3.7801201   -3.7801201   -2.5841806  0.075121509   -3.7801201    1.1959395   520603 
 3769000    1.0092475   -3.7795856   -3.7795856   -2.5842391  0.077121017   -3.7795856    1.1953465   520603 
 3770000     1.009152   -3.7791002   -3.7791002   -2.5838667   0.06552026   -3.7791002    1.1952334   520603 
 3771000     1.008942   -3.7786252   -3.7786252   -2.5836405  0.064524472   -3.7786252    1.1949847   520603 
 3772000    1.0091046   -3.7793374   -3.7793374   -2.5841601  0.072951098   -3.7793374    1.1951773   520603 
 3773000    1.0088086   -3.7790063   -3.7790063   -2.5841796  0.067116931   -3.7790063    1.1948267   520603 
 3774000    1.0074151   -3.7766886   -3.7766886   -2.5835123  0.067014023   -3.7766886    1.1931763   520603 
 3775000    1.0088066   -3.7782704   -3.7782704    -2.583446  0.069150015   -3.7782704    1.1948244   520603 
 3776000    1.0083439   -3.7777665   -3.7777665   -2.5834902  0.077280002   -3.7777665    1.1942764   520603 
 3777000    1.0061679   -3.7757439   -3.7757439   -2.5840449  0.056314174   -3.7757439    1.1916991   520603 
 3778000    1.0083872   -3.7789723   -3.7789723   -2.5846446  0.059464477   -3.7789723    1.1943276   520603 
 3779000    1.0078154   -3.7778902   -3.7778902   -2.5842397  0.067260529   -3.7778902    1.1936504   520603 
 3780000     1.006772   -3.7759411   -3.7759411   -2.5835264   0.07613115   -3.7759411    1.1924146   520603 
 3781000    1.0074546   -3.7762103   -3.7762103   -2.5829872   0.07647984   -3.7762103    1.1932231   520603 
 3782000    1.0096419   -3.7786124   -3.7786124   -2.5827987  0.056893285   -3.7786124    1.1958137   520603 
 3783000    1.0083113    -3.777537    -3.777537   -2.5832992  0.057128511    -3.777537    1.1942378   520603 
 3784000    1.0069931   -3.7759646   -3.7759646   -2.5832881  0.082520729   -3.7759646    1.1926765   520603 
 3785000    1.0090216   -3.7783479   -3.7783479   -2.5832689  0.059087063   -3.7783479    1.1950791   520603 
 3786000     1.008991   -3.7771333   -3.7771333   -2.5820906   0.06255086   -3.7771333    1.1950427   520603 
 3787000    1.0090517   -3.7775651   -3.7775651   -2.5824504  0.067733807   -3.7775651    1.1951146   520603 
 3788000    1.0082507   -3.7781849   -3.7781849   -2.5840189  0.061878035   -3.7781849     1.194166   520603 
 3789000    1.0075668    -3.777626    -3.777626   -2.5842701  0.054976245    -3.777626     1.193356   520603 
 3790000    1.0090537    -3.779226    -3.779226    -2.584109  0.061536506    -3.779226     1.195117   520603 
 3791000    1.0079879   -3.7773896   -3.7773896   -2.5835349  0.067740891   -3.7773896    1.1938547   520603 
 3792000    1.0072855   -3.7773032   -3.7773032   -2.5842805  0.072974809   -3.7773032    1.1930227   520603 
 3793000    1.0094561   -3.7798367   -3.7798367   -2.5842431  0.060313882   -3.7798367    1.1955937   520603 
 3794000    1.0075258   -3.7771045   -3.7771045    -2.583797  0.076866908   -3.7771045    1.1933074   520603 
 3795000    1.0083435   -3.7776994   -3.7776994   -2.5834235  0.064811774   -3.7776994    1.1942759   520603 
 3796000    1.0081997   -3.7779377   -3.7779377   -2.5838322  0.061250386   -3.7779377    1.1941055   520603 
 3797000     1.008927   -3.7775685   -3.7775685   -2.5826015  0.073130268   -3.7775685     1.194967   520603 
 3798000    1.0105814   -3.7793317   -3.7793317   -2.5824053  0.062982986   -3.7793317    1.1969264   520603 
 3799000    1.0101854   -3.7789106   -3.7789106   -2.5824532  0.068057268   -3.7789106    1.1964574   520603 
 3800000    1.0103446   -3.7794259   -3.7794259     -2.58278   0.07648238   -3.7794259     1.196646   520603 
 3801000    1.0112985   -3.7801879   -3.7801879   -2.5824121  0.067689577   -3.7801879    1.1977757   520603 
 3802000    1.0110865   -3.7800687   -3.7800687   -2.5825441  0.071082008   -3.7800687    1.1975246   520603 
 3803000     1.009949   -3.7781523   -3.7781523   -2.5819749  0.065426339   -3.7781523    1.1961774   520603 
 3804000     1.008753   -3.7779822   -3.7779822   -2.5832214    0.0606056   -3.7779822    1.1947608   520603 
 3805000     1.008148   -3.7774974   -3.7774974   -2.5834531  0.059301278   -3.7774974    1.1940443   520603 
 3806000    1.0090719    -3.778772    -3.778772   -2.5836335  0.074611253    -3.778772    1.1951385   520603 
 3807000    1.0076802   -3.7776056   -3.7776056   -2.5841154  0.066521955   -3.7776056    1.1934902   520603 
 3808000    1.0069099    -3.775681    -3.775681   -2.5831031  0.062969975    -3.775681    1.1925779   520603 
 3809000    1.0071177   -3.7764391   -3.7764391    -2.583615  0.066509888   -3.7764391    1.1928241   520603 
 3810000    1.0078905   -3.7765273   -3.7765273   -2.5827879   0.07017336   -3.7765273    1.1937394   520603 
 3811000    1.0086871   -3.7765377   -3.7765377   -2.5818549  0.074147572   -3.7765377    1.1946828   520603 
 3812000    1.0093873   -3.7776558   -3.7776558   -2.5821436  0.073600937   -3.7776558    1.1955122   520603 
 3813000     1.008212   -3.7760066   -3.7760066   -2.5818865  0.073703953   -3.7760066    1.1941201   520603 
 3814000    1.0094088   -3.7770949   -3.7770949   -2.5815574  0.058969479   -3.7770949    1.1955375   520603 
 3815000    1.0099127   -3.7783756   -3.7783756   -2.5822412  0.082294134   -3.7783756    1.1961345   520603 
 3816000    1.0104021   -3.7788072   -3.7788072   -2.5820932  0.079114918   -3.7788072    1.1967141   520603 
 3817000     1.009783   -3.7775272   -3.7775272   -2.5815464  0.068452533   -3.7775272    1.1959808   520603 
 3818000    1.0085454   -3.7757137   -3.7757137   -2.5811988  0.079106418   -3.7757137    1.1945149   520603 
 3819000    1.0093839   -3.7764113   -3.7764113   -2.5809032  0.069971708   -3.7764113    1.1955081   520603 
 3820000    1.0094965   -3.7769592   -3.7769592   -2.5813177  0.064737667   -3.7769592    1.1956415   520603 
 3821000    1.0079281   -3.7750945   -3.7750945   -2.5813106  0.065682936   -3.7750945    1.1937839   520603 
 3822000    1.0087365   -3.7751511   -3.7751511   -2.5804098  0.071687333   -3.7751511    1.1947414   520603 
 3823000    1.0072259    -3.773783    -3.773783   -2.5808308  0.072571278    -3.773783    1.1929522   520603 
 3824000    1.0086159    -3.775101    -3.775101   -2.5805026  0.065051385    -3.775101    1.1945985   520603 
 3825000    1.0096641   -3.7761201   -3.7761201   -2.5802802  0.068712199   -3.7761201    1.1958399   520603 
 3826000    1.0091793    -3.776532    -3.776532   -2.5812663  0.061029559    -3.776532    1.1952657   520603 
 3827000    1.0094983   -3.7772123   -3.7772123   -2.5815688  0.065603292   -3.7772123    1.1956436   520603 
 3828000    1.0094577   -3.7777449   -3.7777449   -2.5821494  0.064726216   -3.7777449    1.1955955   520603 
 3829000    1.0086399   -3.7756835   -3.7756835   -2.5810566  0.069362027   -3.7756835    1.1946269   520603 
 3830000    1.0072312   -3.7737591   -3.7737591   -2.5808007  0.061512556   -3.7737591    1.1929584   520603 
 3831000    1.0101457   -3.7771881   -3.7771881   -2.5807777  0.059956989   -3.7771881    1.1964104   520603 
 3832000    1.0078319   -3.7741335   -3.7741335   -2.5804636  0.067570062   -3.7741335    1.1936699   520603 
 3833000    1.0070401    -3.774522    -3.774522   -2.5817898  0.070943068    -3.774522    1.1927322   520603 
 3834000    1.0079385   -3.7752747   -3.7752747   -2.5814785  0.075362399   -3.7752747    1.1937962   520603 
 3835000    1.0083063   -3.7755919   -3.7755919   -2.5813601  0.075793321   -3.7755919    1.1942318   520603 
 3836000    1.0087823   -3.7755431   -3.7755431   -2.5807476  0.071105288   -3.7755431    1.1947955   520603 
 3837000    1.0101031   -3.7779253   -3.7779253   -2.5815653   0.07130702   -3.7779253    1.1963599   520603 
 3838000    1.0090878   -3.7774723   -3.7774723   -2.5823149  0.073280715   -3.7774723    1.1951574   520603 
 3839000    1.0084031   -3.7762504   -3.7762504   -2.5819039  0.057406501   -3.7762504    1.1943465   520603 
 3840000    1.0102459   -3.7773115   -3.7773115   -2.5807824  0.067438523   -3.7773115     1.196529   520603 
 3841000    1.0092458   -3.7765332   -3.7765332   -2.5811886  0.074242426   -3.7765332    1.1953446   520603 
 3842000    1.0102622   -3.7784108   -3.7784108   -2.5818624  0.064702086   -3.7784108    1.1965484   520603 
 3843000    1.0100303   -3.7773839   -3.7773839   -2.5811102   0.06843482   -3.7773839    1.1962736   520603 
 3844000    1.0111416   -3.7791043   -3.7791043   -2.5815144  0.065870464   -3.7791043    1.1975899   520603 
 3845000     1.007885   -3.7756395   -3.7756395   -2.5819066  0.077760182   -3.7756395    1.1937328   520603 
 3846000    1.0078007   -3.7756681   -3.7756681   -2.5820351  0.068900731   -3.7756681     1.193633   520603 
 3847000    1.0099574   -3.7771539   -3.7771539   -2.5809666  0.056790107   -3.7771539    1.1961873   520603 
 3848000    1.0089537   -3.7761939   -3.7761939   -2.5811953  0.076551389   -3.7761939    1.1949986   520603 
 3849000    1.0078284   -3.7760062   -3.7760062   -2.5823404  0.072206835   -3.7760062    1.1936657   520603 
 3850000    1.0075089   -3.7760752   -3.7760752   -2.5827879  0.068130126   -3.7760752    1.1932874   520603 
 3851000    1.0086256   -3.7773297   -3.7773297   -2.5827198   0.06861476   -3.7773297      1.19461   520603 
 3852000     1.006866    -3.775322    -3.775322    -2.582796  0.075890928    -3.775322     1.192526   520603 
 3853000    1.0078288   -3.7759237   -3.7759237   -2.5822575  0.061108346   -3.7759237    1.1936663   520603 
 3854000    1.0085333   -3.7767474   -3.7767474   -2.5822467  0.068528095   -3.7767474    1.1945007   520603 
 3855000    1.0072932   -3.7753011   -3.7753011   -2.5822692  0.075333477   -3.7753011    1.1930318   520603 
 3856000    1.0080738   -3.7770685   -3.7770685    -2.583112  0.072381509   -3.7770685    1.1939564   520603 
 3857000    1.0095782   -3.7788346   -3.7788346   -2.5830964  0.061133139   -3.7788346    1.1957382   520603 
 3858000    1.0082554   -3.7764171   -3.7764171   -2.5822456  0.058431559   -3.7764171    1.1941716   520603 
 3859000    1.0091193   -3.7770522   -3.7770522   -2.5818575  0.052523488   -3.7770522    1.1951947   520603 
 3860000    1.0090927   -3.7751212   -3.7751212    -2.579958  0.068682557   -3.7751212    1.1951632   520603 
 3861000    1.0096522   -3.7775727   -3.7775727   -2.5817467  0.068268164   -3.7775727    1.1958259   520603 
 3862000    1.0093918   -3.7761078   -3.7761078   -2.5805904  0.062364606   -3.7761078    1.1955175   520603 
 3863000    1.0110097   -3.7777818   -3.7777818   -2.5803481   0.06841233   -3.7777818    1.1974337   520603 
 3864000    1.0101159   -3.7773857   -3.7773857   -2.5810106  0.062112769   -3.7773857    1.1963751   520603 
 3865000    1.0098292    -3.776755    -3.776755   -2.5807195  0.064592711    -3.776755    1.1960355   520603 
 3866000     1.010281   -3.7780468   -3.7780468   -2.5814762  0.070809243   -3.7780468    1.1965706   520603 
 3867000    1.0100284   -3.7781746   -3.7781746   -2.5819032  0.075587331   -3.7781746    1.1962715   520603 
 3868000    1.0075566   -3.7755522   -3.7755522   -2.5822083  0.063281602   -3.7755522    1.1933439   520603 
 3869000    1.0084385   -3.7763141   -3.7763141   -2.5819258  0.079944968   -3.7763141    1.1943883   520603 
 3870000    1.0083452   -3.7771746   -3.7771746   -2.5828967  0.074733413   -3.7771746    1.1942779   520603 
 3871000    1.0082818   -3.7782663   -3.7782663   -2.5840635  0.057833769   -3.7782663    1.1942028   520603 
 3872000    1.0075225   -3.7767994   -3.7767994    -2.583496  0.060576722   -3.7767994    1.1933034   520603 
 3873000    1.0092332   -3.7782836   -3.7782836    -2.582954  0.070257389   -3.7782836    1.1953296   520603 
 3874000    1.0097101   -3.7787732   -3.7787732   -2.5828788  0.077845198   -3.7787732    1.1958944   520603 
 3875000    1.0079063   -3.7773446   -3.7773446   -2.5835865  0.063466874   -3.7773446    1.1937581   520603 
 3876000    1.0087016   -3.7777477   -3.7777477   -2.5830477  0.080907877   -3.7777477       1.1947   520603 
 3877000     1.009234   -3.7780863   -3.7780863   -2.5827557   0.07037858   -3.7780863    1.1953306   520603 
 3878000    1.0092494   -3.7778567   -3.7778567    -2.582508  0.074969094   -3.7778567    1.1953488   520603 
 3879000    1.0092178   -3.7778735   -3.7778735    -2.582562  0.065971146   -3.7778735    1.1953114   520603 
 3880000    1.0096001   -3.7787578   -3.7787578   -2.5829936  0.043827933   -3.7787578    1.1957642   520603 
 3881000    1.0090371   -3.7771149   -3.7771149   -2.5820175   0.06231189   -3.7771149    1.1950974   520603 
 3882000    1.0075667   -3.7764194   -3.7764194   -2.5830636  0.049040102   -3.7764194    1.1933558   520603 
 3883000    1.0066543   -3.7749441   -3.7749441    -2.582669  0.070458318   -3.7749441    1.1922751   520603 
 3884000    1.0081515   -3.7769343   -3.7769343   -2.5828858  0.068077674   -3.7769343    1.1940485   520603 
 3885000    1.0096866   -3.7784792   -3.7784792   -2.5826126  0.063860012   -3.7784792    1.1958667   520603 
 3886000     1.008269   -3.7777099   -3.7777099   -2.5835223  0.061471896   -3.7777099    1.1941876   520603 
 3887000    1.0076181   -3.7772511   -3.7772511   -2.5838345  0.066163027   -3.7772511    1.1934167   520603 
 3888000    1.0094432   -3.7796295   -3.7796295   -2.5840511  0.066944993   -3.7796295    1.1955783   520603 
 3889000    1.0102595   -3.7798081   -3.7798081   -2.5832629  0.069699157   -3.7798081    1.1965452   520603 
 3890000     1.013297   -3.7833862   -3.7833862   -2.5832435  0.068110654   -3.7833862    1.2001427   520603 
 3891000    1.0108615    -3.780353    -3.780353   -2.5830948  0.069321481    -3.780353    1.1972582   520603 
 3892000      1.01135   -3.7817404   -3.7817404   -2.5839036  0.071840792   -3.7817404    1.1978368   520603 
 3893000    1.0107085   -3.7807544   -3.7807544   -2.5836775  0.064685053   -3.7807544    1.1970769   520603 
 3894000     1.009899   -3.7799567   -3.7799567   -2.5838385  0.056290074   -3.7799567    1.1961182   520603 
 3895000    1.0109292   -3.7802185   -3.7802185   -2.5828801  0.074096537   -3.7802185    1.1973384   520603 
 3896000    1.0106564   -3.7796245   -3.7796245   -2.5826093  0.069931442   -3.7796245    1.1970152   520603 
 3897000    1.0106028   -3.7796462   -3.7796462   -2.5826944  0.068530139   -3.7796462    1.1969517   520603 
 3898000    1.0101723   -3.7790224   -3.7790224   -2.5825806  0.079279643   -3.7790224    1.1964419   520603 
 3899000    1.0103677   -3.7796858   -3.7796858   -2.5830125  0.061804353   -3.7796858    1.1966733   520603 
 3900000     1.010505   -3.7789662   -3.7789662   -2.5821302  0.058587813   -3.7789662    1.1968359   520603 
 3901000    1.0082656   -3.7766117   -3.7766117   -2.5824281  0.077188257   -3.7766117    1.1941836   520603 
 3902000    1.0084663    -3.777849    -3.777849   -2.5834277  0.064325068    -3.777849    1.1944213   520603 
 3903000    1.0099718   -3.7800546   -3.7800546   -2.5838502  0.063036937   -3.7800546    1.1962045   520603 
 3904000    1.0106197   -3.7807431   -3.7807431   -2.5837713  0.072714507   -3.7807431    1.1969718   520603 
 3905000    1.0086638   -3.7791289   -3.7791289   -2.5844736  0.066953242   -3.7791289    1.1946552   520603 
 3906000    1.0086423   -3.7790392   -3.7790392   -2.5844095   0.05939917   -3.7790392    1.1946297   520603 
 3907000    1.0077283   -3.7788938   -3.7788938   -2.5853466  0.069391603   -3.7788938    1.1935472   520603 
 3908000    1.0090847   -3.7800462   -3.7800462   -2.5848925  0.061017704   -3.7800462    1.1951537   520603 
 3909000    1.0097565   -3.7808739   -3.7808739   -2.5849245  0.058122744   -3.7808739    1.1959494   520603 
 3910000    1.0081915   -3.7800433   -3.7800433   -2.5859475  0.058001152   -3.7800433    1.1940958   520603 
 3911000    1.0079943   -3.7795097   -3.7795097   -2.5856474  0.061354593   -3.7795097    1.1938623   520603 
 3912000    1.0079547   -3.7794755   -3.7794755   -2.5856601  0.064276683   -3.7794755    1.1938153   520603 
 3913000    1.0079536   -3.7791923   -3.7791923   -2.5853782  0.072585487   -3.7791923    1.1938141   520603 
 3914000    1.0084103    -3.780327    -3.780327    -2.585972  0.045661809    -3.780327    1.1943549   520603 
 3915000    1.0082093   -3.7786799   -3.7786799    -2.584563  0.059600527   -3.7786799    1.1941169   520603 
 3916000    1.0092433   -3.7801493   -3.7801493   -2.5848077  0.071751494   -3.7801493    1.1953415   520603 
 3917000    1.0091266   -3.7804166   -3.7804166   -2.5852133  0.060343339   -3.7804166    1.1952033   520603 
 3918000    1.0078986   -3.7793018   -3.7793018   -2.5855529   0.06704986   -3.7793018    1.1937489   520603 
 3919000    1.0085915   -3.7805435   -3.7805435   -2.5859739  0.075467338   -3.7805435    1.1945696   520603 
 3920000     1.009286   -3.7810718   -3.7810718   -2.5856797  0.055121241   -3.7810718    1.1953921   520603 
 3921000    1.0077942   -3.7797123   -3.7797123    -2.586087  0.073556279   -3.7797123    1.1936253   520603 
 3922000    1.0093943   -3.7819172   -3.7819172   -2.5863967  0.067983591   -3.7819172    1.1955205   520603 
 3923000    1.0080538   -3.7803578   -3.7803578   -2.5864251  0.059317452   -3.7803578    1.1939327   520603 
 3924000    1.0087684   -3.7805966   -3.7805966   -2.5858175   0.07063309   -3.7805966    1.1947791   520603 
 3925000    1.0084637   -3.7804643   -3.7804643   -2.5860461  0.071437541   -3.7804643    1.1944183   520603 
 3926000    1.0081974   -3.7803948   -3.7803948    -2.586292  0.076897278   -3.7803948    1.1941028   520603 
 3927000    1.0088053   -3.7810044   -3.7810044   -2.5861817  0.070677678   -3.7810044    1.1948228   520603 
 3928000    1.0085012   -3.7803671   -3.7803671   -2.5859045  0.065087471   -3.7803671    1.1944626   520603 
 3929000    1.0088254   -3.7807716   -3.7807716    -2.585925   0.04866192   -3.7807716    1.1948466   520603 
 3930000    1.0099056   -3.7813072   -3.7813072   -2.5851813  0.079664557   -3.7813072     1.196126   520603 
 3931000     1.008841   -3.7791198   -3.7791198   -2.5842548   0.07132205   -3.7791198    1.1948651   520603 
 3932000    1.0091113   -3.7803349   -3.7803349   -2.5851497  0.057745475   -3.7803349    1.1951852   520603 
 3933000    1.0077665   -3.7783973   -3.7783973   -2.5848049  0.060739272   -3.7783973    1.1935925   520603 
 3934000    1.0072063   -3.7776778   -3.7776778   -2.5847488  0.072839304   -3.7776778     1.192929   520603 
 3935000    1.0083177   -3.7784569   -3.7784569   -2.5842117  0.055972667   -3.7784569    1.1942452   520603 
 3936000    1.0079675   -3.7779578   -3.7779578   -2.5841272  0.062365928   -3.7779578    1.1938305   520603 
 3937000    1.0075408   -3.7773834   -3.7773834   -2.5840583  0.071617571   -3.7773834    1.1933251   520603 
 3938000    1.0088767   -3.7786659   -3.7786659   -2.5837584  0.063799254   -3.7786659    1.1949074   520603 
 3939000    1.0077631   -3.7777626   -3.7777626   -2.5841742   0.06555828   -3.7777626    1.1935884   520603 
 3940000    1.0081824   -3.7784156   -3.7784156   -2.5843305  0.068546062   -3.7784156    1.1940851   520603 
 3941000    1.0078472   -3.7778602   -3.7778602   -2.5841722  0.081582199   -3.7778602     1.193688   520603 
 3942000    1.0083224   -3.7790725   -3.7790725   -2.5848217  0.069968137   -3.7790725    1.1942509   520603 
 3943000    1.0090195   -3.7795397   -3.7795397   -2.5844632  0.076817222   -3.7795397    1.1950765   520603 
 3944000    1.0091464   -3.7800884   -3.7800884   -2.5848616  0.067962443   -3.7800884    1.1952268   520603 
 3945000    1.0094282   -3.7797235   -3.7797235   -2.5841629  0.076773777   -3.7797235    1.1955606   520603 
 3946000    1.0084274   -3.7793951   -3.7793951   -2.5850199  0.063128707   -3.7793951    1.1943752   520603 
 3947000    1.0098149   -3.7807218   -3.7807218   -2.5847032  0.060507482   -3.7807218    1.1960186   520603 
 3948000    1.0100432   -3.7798749   -3.7798749   -2.5835858  0.068550585   -3.7798749     1.196289   520603 
 3949000    1.0100744    -3.781067    -3.781067   -2.5847411  0.073912816    -3.781067    1.1963259   520603 
 3950000    1.0073302    -3.778136    -3.778136   -2.5850602  0.068002899    -3.778136    1.1930758   520603 
 3951000    1.0084031   -3.7798644   -3.7798644    -2.585518  0.070768744   -3.7798644    1.1943464   520603 
 3952000    1.0076652   -3.7782146   -3.7782146   -2.5847422  0.070753635   -3.7782146    1.1934725   520603 
 3953000    1.0087654   -3.7788605   -3.7788605   -2.5840849  0.066511481   -3.7788605    1.1947755   520603 
 3954000    1.0097108   -3.7800745   -3.7800745   -2.5841792  0.072319463   -3.7800745    1.1958953   520603 
 3955000    1.0093466   -3.7801605   -3.7801605   -2.5846966  0.067560972   -3.7801605    1.1954639   520603 
 3956000    1.0100323   -3.7799288   -3.7799288   -2.5836527  0.062688155   -3.7799288    1.1962761   520603 
 3957000    1.0097627   -3.7791123   -3.7791123   -2.5831556  0.071166137   -3.7791123    1.1959567   520603 
 3958000    1.0094826   -3.7781209   -3.7781209   -2.5824959  0.060127385   -3.7781209    1.1956249   520603 
 3959000    1.0089977   -3.7785031   -3.7785031   -2.5834523  0.067508448   -3.7785031    1.1950507   520603 
 3960000     1.009896   -3.7798887   -3.7798887   -2.5837741  0.076196032   -3.7798887    1.1961147   520603 
 3961000    1.0087701    -3.778823    -3.778823   -2.5840418  0.072975316    -3.778823    1.1947812   520603 
 3962000    1.0059779   -3.7760366   -3.7760366   -2.5845626  0.050761825   -3.7760366     1.191474   520603 
 3963000    1.0083387   -3.7786021   -3.7786021    -2.584332   0.07005533   -3.7786021    1.1942701   520603 
 3964000    1.0089038   -3.7791499   -3.7791499   -2.5842105  0.063471137   -3.7791499    1.1949394   520603 
 3965000    1.0084773   -3.7775718   -3.7775718   -2.5831374  0.082903326   -3.7775718    1.1944344   520603 
 3966000    1.0087476   -3.7789516   -3.7789516   -2.5841971  0.057557738   -3.7789516    1.1947545   520603 
 3967000    1.0096017   -3.7798301   -3.7798301   -2.5840641  0.070700394   -3.7798301     1.195766   520603 
 3968000    1.0070453   -3.7775512   -3.7775512   -2.5848129  0.067254278   -3.7775512    1.1927382   520603 
 3969000    1.0084727   -3.7788057   -3.7788057   -2.5843768  0.067567761   -3.7788057    1.1944289   520603 
 3970000    1.0084662   -3.7776784   -3.7776784   -2.5832573  0.066621072   -3.7776784    1.1944212   520603 
 3971000    1.0082602   -3.7777919   -3.7777919   -2.5836147  0.067673279   -3.7777919    1.1941772   520603 
 3972000    1.0095155   -3.7790967   -3.7790967   -2.5834327  0.056155468   -3.7790967     1.195664   520603 
 3973000    1.0072402   -3.7772803   -3.7772803   -2.5843111  0.070171962   -3.7772803    1.1929691   520603 
 3974000    1.0074345   -3.7776131   -3.7776131   -2.5844139  0.073548466   -3.7776131    1.1931992   520603 
 3975000    1.0077547   -3.7786623   -3.7786623   -2.5850838  0.062549791   -3.7786623    1.1935785   520603 
 3976000    1.0103203    -3.781751    -3.781751   -2.5851338  0.063897235    -3.781751    1.1966172   520603 
 3977000    1.0093244   -3.7807394   -3.7807394   -2.5853018  0.059899655   -3.7807394    1.1954376   520603 
 3978000    1.0095563   -3.7808469   -3.7808469   -2.5851347  0.050502905   -3.7808469    1.1957123   520603 
 3979000    1.0102053   -3.7807212   -3.7807212   -2.5842402  0.068187477   -3.7807212     1.196481   520603 
 3980000    1.0099836   -3.7802588   -3.7802588   -2.5840404  0.073490379   -3.7802588    1.1962184   520603 
 3981000    1.0089314   -3.7796358   -3.7796358   -2.5846636  0.069794879   -3.7796358    1.1949721   520603 
 3982000    1.0114004   -3.7818004   -3.7818004    -2.583904  0.062886117   -3.7818004    1.1978964   520603 
 3983000    1.0113061   -3.7809973   -3.7809973   -2.5832125  0.064037487   -3.7809973    1.1977848   520603 
 3984000    1.0082787   -3.7780103   -3.7780103   -2.5838112  0.073911593   -3.7780103    1.1941991   520603 
 3985000     1.010216   -3.7797837   -3.7797837   -2.5832901  0.066288296   -3.7797837    1.1964937   520603 
 3986000    1.0098383   -3.7801046   -3.7801046   -2.5840583  0.069427463   -3.7801046    1.1960463   520603 
 3987000    1.0102316   -3.7802947   -3.7802947   -2.5837827  0.067254642   -3.7802947    1.1965121   520603 
 3988000    1.0086702    -3.778895    -3.778895   -2.5842322  0.072183351    -3.778895    1.1946628   520603 
 3989000    1.0111154   -3.7814417   -3.7814417   -2.5838828  0.076181937   -3.7814417    1.1975589   520603 
 3990000    1.0081006   -3.7778954   -3.7778954   -2.5839072  0.073850607   -3.7778954    1.1939882   520603 
 3991000    1.0094772   -3.7785999   -3.7785999   -2.5829813  0.059884752   -3.7785999    1.1956186   520603 
 3992000    1.0074095   -3.7764411   -3.7764411   -2.5832715  0.055490566   -3.7764411    1.1931696   520603 
 3993000    1.0086206   -3.7782782   -3.7782782   -2.5836742  0.074664777   -3.7782782     1.194604   520603 
 3994000    1.0068726   -3.7762081   -3.7762081   -2.5836744  0.048957371   -3.7762081    1.1925337   520603 
 3995000    1.0079224   -3.7775216   -3.7775216   -2.5837445  0.064686518   -3.7775216    1.1937772   520603 
 3996000    1.0077642   -3.7768573   -3.7768573   -2.5832676  0.055862086   -3.7768573    1.1935898   520603 
 3997000    1.0073875   -3.7760601   -3.7760601   -2.5829165  0.071430524   -3.7760601    1.1931436   520603 
 3998000    1.0083789   -3.7769658   -3.7769658    -2.582648  0.058564918   -3.7769658    1.1943178   520603 
 3999000    1.0075601   -3.7762685   -3.7762685   -2.5829206  0.075039745   -3.7762685     1.193348   520603 
 4000000    1.0072735   -3.7759831   -3.7759831   -2.5829746  0.071436614   -3.7759831    1.1930085   520603 
Loop time of 10550.8 on 288 procs for 4000000 steps with 520603 atoms

Performance: 163778.554 tau/day, 379.117 timesteps/s
98.6% CPU use with 288 MPI tasks x 1 OpenMP threads

MPI task timing breakdown:
Section |  min time  |  avg time  |  max time  |%varavg|  %CPU | %total
-----------------------------------------------------------------------
Pair    | 1109.1     | 2116.2     | 2716.7     | 786.1 |  98.6 | 20.06
Bond    | 2.6876     | 2.8023     | 2.9432     |   3.0 | 100.0 |  0.03
Neigh   | 1621       | 3257.5     | 4360.4     |1120.5 |  99.6 | 30.87
Comm    | 2069.3     | 3476.3     | 5208.6     |1240.2 |  98.3 | 32.95
Output  | 154.91     | 155.84     | 157.14     |   6.3 |  97.0 |  1.48
Modify  | 794.28     | 1456.6     | 3168       |1738.3 |  98.4 | 13.81
Other   |            | 85.5       |            |       |       |  0.81

Nlocal:        1807.65 ave        2332 max        1511 min
Histogram: 7 33 57 75 68 35 10 1 0 2
Nghost:        6486.19 ave        8786 max        3731 min
Histogram: 20 6 14 47 19 50 46 45 29 12
Neighs:        53009.4 ave       67639 max       15856 min
Histogram: 6 9 7 1 0 11 75 72 73 34

Total # of neighbors = 15266707
Ave neighs/atom = 29.325046
Ave special neighs/atom = 0.0000000
Neighbor list builds = 400000
Dangerous builds = 396000

Total wall time: 2:55:55
