LAMMPS (24 Dec 2020)
OMP_NUM_THREADS environment is not set. Defaulting to 1 thread. (src/comm.cpp:94)
  using 1 OpenMP thread(s) per MPI task
#Read the equilibrated lj fluid and add nanocubes

units           lj
atom_style      full
atom_modify     map array first cubes
dimension       3
boundary        p p f
pair_style      lj/cut/opt 2.5

variable        sigma           equal 1.0
variable        epsilon         equal 1.0
read_restart	restart.dat.3000000
Reading restart file ...
  restart file = 24 Dec 2020, LAMMPS = 24 Dec 2020
WARNING: Restart file used different # of processors: 144 vs. 240 (src/read_restart.cpp:697)
  restoring atom style full from restart
  orthogonal box = (0.0000000 0.0000000 0.0000000) to (100.00000 100.00000 200.00000)
  4 by 5 by 12 MPI processor grid
  restoring pair style lj/cut/opt from restart
  878832 atoms
Finding 1-2 1-3 1-4 neighbors ...
  special bond factors lj:    0        0        0       
  special bond factors coul:  0        0        0       
     0 = max # of 1-2 neighbors
     0 = max # of 1-3 neighbors
     0 = max # of 1-4 neighbors
     1 = max # of special neighbors
  special bonds CPU = 1.923 seconds
  read_restart CPU = 2.478 seconds

group		solvent type 1
878832 atoms in group solvent

read_data	data_half.cubes group cubes add append
Reading data file ...
  orthogonal box = (0.0000000 0.0000000 0.0000000) to (100.00000 100.00000 200.00000)
  4 by 5 by 12 MPI processor grid
  reading atoms ...
  285750 atoms
  reading velocities ...
  285750 velocities
Finding 1-2 1-3 1-4 neighbors ...
  special bond factors lj:    0        0        0       
  special bond factors coul:  0        0        0       
     0 = max # of 1-2 neighbors
     0 = max # of 1-3 neighbors
     0 = max # of 1-4 neighbors
     1 = max # of special neighbors
  special bonds CPU = 0.005 seconds
  read_data CPU = 0.671 seconds

group 		hull  type 2
111500 atoms in group hull
group 		dummy type 3
174250 atoms in group dummy

neighbor      0.4 bin
neigh_modify  exclude molecule/intra cubes


pair_modify   shift yes

pair_coeff    1 1 1.0 1.0 #solvent
pair_coeff    2 2 1.0 1.0 1.12 #np
pair_coeff    3 3 0.0 0.0 0.0 #dummy
pair_coeff    2 3 0.0 0.0 0.0 #np dummy
pair_coeff    1 2 ${sol} 1.0 #np solvent
pair_coeff    1 2 1.0 1.0 
pair_coeff    1 3 0.0 0.0 2.5 #dummy solvent

# delete solvent where the cubes are
delete_atoms  overlap 1.0 solvent cubes
System init for delete_atoms ...
Neighbor list info ...
  update every 1 steps, delay 10 steps, check yes
  max neighbors/atom: 2000, page size: 100000
  master list distance cutoff = 2.9
  ghost atom cutoff = 2.9
  binsize = 1.45, bins = 69 69 138
  2 neighbor lists, perpetual/occasional/extra = 1 1 0
  (1) command delete_atoms, occasional
      attributes: full, newton on
      pair build: full/bin
      stencil: full/bin/3d
      bin: standard
  (2) pair lj/cut/opt, perpetual
      attributes: half, newton on
      pair build: half/bin/newton
      stencil: half/bin/3d/newton
      bin: standard
WARNING: Delete_atoms cutoff > minimum neighbor cutoff (src/delete_atoms.cpp:307)
WARNING: Ignoring 'compress yes' for molecular system (src/delete_atoms.cpp:125)
Deleted 206602 atoms, new total = 957980



pair_coeff    1 1 1.0 1.0 #solvent
pair_coeff    2 2 1.0 1.0 1.12 #np
pair_coeff    3 3 0.0 0.0 0.0 #dummy
pair_coeff    2 3 0.0 0.0 0.0 #np dummy
pair_coeff    1 2 ${sol} 1.0 #np solvent
pair_coeff    1 2 1.0 1.0 
pair_coeff    1 3 0.0 0.0 0.0 #dummy solvent


comm_modify   mode multi cutoff/multi 1 2.5 cutoff/multi 2 2.5 cutoff/multi 3 6.95

reset_timestep 	0

balance 	1.05 shift z 10 1.05
Balancing ...
Neighbor list info ...
  update every 1 steps, delay 10 steps, check yes
  max neighbors/atom: 2000, page size: 100000
  master list distance cutoff = 2.9
  ghost atom cutoff = 6.95
  binsize = 1.45, bins = 69 69 138
  1 neighbor lists, perpetual/occasional/extra = 1 0 0
  (1) pair lj/cut/opt, perpetual
      attributes: half, newton on
      pair build: half/bin/newton
      stencil: half/bin/3d/newton
      bin: standard
 rebalancing time: 0.010 seconds
  iteration count = 4
  initial/final maximal load/proc = 6240.0000 5931.0000
  initial/final imbalance factor  = 1.5632894 1.4858765
  x cuts: 0.0000000 0.25000000 0.50000000 0.75000000 1.0000000
  y cuts: 0.0000000 0.20000000 0.40000000 0.60000000 0.80000000 1.0000000
  z cuts: 0.0000000 0.067708333 0.13020833 0.19270833 0.25520833 0.32291667 0.36458333 0.42708333 0.49479167 0.54687500 0.63020833 0.68229167 1.0000000

####################### WALLS ###########################

variable       epsilonWall equal 2*${epsilon}
variable       epsilonWall equal 2*1
variable       repulsive   equal   0.7147*${sigma}
variable       repulsive   equal   0.7147*1
variable       full	   equal   3*${sigma}
variable       full	   equal   3*1
region         lowWall block EDGE EDGE EDGE EDGE EDGE 2

fix            topWall all wall/lj93 zhi EDGE 	       ${epsilonWall} ${sigma} ${repulsive} units box
fix            topWall all wall/lj93 zhi EDGE 	       2 ${sigma} ${repulsive} units box
fix            topWall all wall/lj93 zhi EDGE 	       2 1 ${repulsive} units box
fix            topWall all wall/lj93 zhi EDGE 	       2 1 0.7147 units box
fix            lowSol solvent wall/lj93 zlo EDGE                ${epsilonWall} ${sigma} ${full} units box
fix            lowSol solvent wall/lj93 zlo EDGE                2 ${sigma} ${full} units box
fix            lowSol solvent wall/lj93 zlo EDGE                2 1 ${full} units box
fix            lowSol solvent wall/lj93 zlo EDGE                2 1 3 units box
fix 	       lowCub cubes wall/lj93 zlo EDGE                ${epsilonWall} ${sigma} ${repulsive} units box
fix 	       lowCub cubes wall/lj93 zlo EDGE                2 ${sigma} ${repulsive} units box
fix 	       lowCub cubes wall/lj93 zlo EDGE                2 1 ${repulsive} units box
fix 	       lowCub cubes wall/lj93 zlo EDGE                2 1 0.7147 units box


###################### COMPUTES ##########################

compute        bin1 solvent chunk/atom bin/1d z lower 1.0 units box


######################  FIXES ############################


fix             peclet solvent ave/chunk 10 10 10000 bin1 density/number norm                  none ave one file density.profile

fix              temp solvent ave/chunk 10 10 10000 bin1 temp norm                  none ave one file temp.profile

fix             1 cubes rigid/nve/small molecule
  create bodies CPU = 0.004 seconds
  250 rigid bodies with 285750 atoms
  6.9282032 = max distance from body owner to body atom

fix             2 solvent nve# temp ${temp} ${temp} 10


## Thermostat
region          regthermo block EDGE EDGE EDGE EDGE 0 15
group           thermo dynamic solvent region regthermo every 1000
dynamic group thermo defined
fix             3 thermo langevin ${temp} ${temp} 10 156453
fix             3 thermo langevin 1.0 ${temp} 10 156453
fix             3 thermo langevin 1.0 1.0 10 156453


#### Load balancing

fix             bal all balance 1000 1.05 shift z 10 1.05

############### Diagnostics and computes ###################

compute        	com cubes          rigid/local   1 mol x y z
compute        	quat cubes         rigid/local   1 mol quatw quati quatj quatk

compute 	cc2 cubes 	   chunk/atom 	 molecule
compute 	msd cubes 	   msd/chunk 	 cc2

fix 		msd all ave/time  1 1 10000 c_msd[*] file dump.msd ave one mode vector

dump            1 all custom 500000 dump.lammpstrj id mol type x y z
dump		cubetrj hull custom 500000 cubes.lammpstrj id mol type x y z
dump            com cubes local 10000 dump.*.xyz c_com[*]
dump	        xyz hull xyz 100000 cubes.xyz
dump            quat cubes      local 10000 dump.*.quat c_quat[*]
#dump		mol cubes molfile 10000 mol.xyz xyz


dump            2 all image 10000 image.*.png type type
dump_modify     2 pad 8
dump		image cubes image 10000 image_cubes.*.png type type
dump_modify	image pad 8
dump            3 all movie 5000 movie.avi type type
dump		4 cubes movie 5000 movie_cubes.avi type type


thermo          1000
thermo_style    custom step temp epair evdwl etotal press pe ke atoms

restart         1000000 restart.dat
timestep        0.005
timer           full
New timer settings: style=full  mode=nosync  timeout=off

run 		4000000
Per MPI rank memory allocation (min/avg/max) = 13.70 | 20.84 | 31.07 Mbytes
Step Temp E_pair E_vdwl TotEng Press PotEng KinEng Atoms 
       0   0.99714199    -2.338564    -2.338564    -1.288219  -0.14709541    -2.338564     1.050345   957980 
    1000    1.0266252   -2.3723482   -2.3723482   -1.2909469    0.0646635   -2.3723482    1.0814013   957980 
    2000    1.0280597   -2.3764627   -2.3764627   -1.2935504  0.068867215   -2.3764627    1.0829124   957980 
    3000    1.0280319   -2.3786536   -2.3786536   -1.2957706  0.071974007   -2.3786536     1.082883   957980 
    4000    1.0272604   -2.3797654   -2.3797654   -1.2976949  0.072983994   -2.3797654    1.0820704   957980 
    5000    1.0255892    -2.379901    -2.379901    -1.299591  0.062266894    -2.379901      1.08031   957980 
    6000    1.0235315   -2.3803083   -2.3803083   -1.3021657  0.058063429   -2.3803083    1.0781426   957980 
    7000    1.0221077   -2.3794813   -2.3794813   -1.3028386  0.060476624   -2.3794813    1.0766427   957980 
    8000    1.0199648   -2.3796992   -2.3796992   -1.3053136  0.058972133   -2.3796992    1.0743855   957980 
    9000    1.0190533   -2.3799747   -2.3799747   -1.3065494  0.050416858   -2.3799747    1.0734254   957980 
   10000    1.0151612   -2.3779707   -2.3779707   -1.3086451   0.05988537   -2.3779707    1.0693256   957980 
   11000    1.0161905   -2.3793111   -2.3793111   -1.3089012  0.049269318   -2.3793111    1.0704099   957980 
   12000      1.01578   -2.3796107   -2.3796107   -1.3096333  0.051589432   -2.3796107    1.0699774   957980 
   13000    1.0141723   -2.3794938   -2.3794938   -1.3112098  0.053518307   -2.3794938     1.068284   957980 
   14000    1.0141242   -2.3803041   -2.3803041   -1.3120708  0.049336789   -2.3803041    1.0682333   957980 
   15000    1.0132373   -2.3801946   -2.3801946   -1.3128955  0.056197326   -2.3801946    1.0672991   957980 
   16000    1.0135266   -2.3806487   -2.3806487   -1.3130449  0.057950866   -2.3806487    1.0676038   957980 
   17000    1.0150359   -2.3820057   -2.3820057   -1.3128121  0.054165883   -2.3820057    1.0691936   957980 
   18000     1.012396   -2.3797879   -2.3797879    -1.313375    0.0511696   -2.3797879    1.0664129   957980 
   19000    1.0135256   -2.3812676   -2.3812676   -1.3136648   0.05161364   -2.3812676    1.0676028   957980 
   20000    1.0140309   -2.3823577   -2.3823577   -1.3142227   0.05288089   -2.3823577     1.068135   957980 
   21000    1.0135348   -2.3814815   -2.3814815    -1.313869  0.043257274   -2.3814815    1.0676125   957980 
   22000    1.0131936   -2.3814888   -2.3814888   -1.3142358  0.048997666   -2.3814888     1.067253   957980 
   23000    1.0147383   -2.3829038   -2.3829038   -1.3140236  0.056654947   -2.3829038    1.0688802   957980 
   24000    1.0137457   -2.3827695   -2.3827695   -1.3149349  0.050211234   -2.3827695    1.0678346   957980 
   25000    1.0115174    -2.381047    -2.381047   -1.3155596  0.048699997    -2.381047    1.0654874   957980 
   26000    1.0129168   -2.3826743   -2.3826743   -1.3157128  0.047415892   -2.3826743    1.0669615   957980 
   27000     1.012097   -2.3821384   -2.3821384   -1.3160405  0.043554767   -2.3821384     1.066098   957980 
   28000    1.0128559   -2.3830674   -2.3830674   -1.3161701  0.051860767   -2.3830674    1.0668973   957980 
   29000    1.0134103   -2.3831086   -2.3831086   -1.3156272  0.050393896   -2.3831086    1.0674814   957980 
   30000     1.012926   -2.3828102   -2.3828102   -1.3158391  0.059426072   -2.3828102    1.0669712   957980 
   31000    1.0131538   -2.3839988   -2.3839988   -1.3167878  0.049443066   -2.3839988    1.0672111   957980 
   32000    1.0140189   -2.3851536   -2.3851536   -1.3170312  0.047941269   -2.3851536    1.0681224   957980 
   33000    1.0132313   -2.3847692   -2.3847692   -1.3174764  0.057253866   -2.3847692    1.0672928   957980 
   34000    1.0149192   -2.3859035   -2.3859035   -1.3168328  0.056707533   -2.3859035    1.0690708   957980 
   35000    1.0153177   -2.3865183   -2.3865183   -1.3170278  0.054093983   -2.3865183    1.0694905   957980 
   36000    1.0166776   -2.3886178   -2.3886178   -1.3176948  0.054087735   -2.3886178     1.070923   957980 
   37000    1.0158103   -2.3885327   -2.3885327   -1.3185233  0.056480468   -2.3885327    1.0700093   957980 
   38000    1.0157658   -2.3884895   -2.3884895    -1.318527  0.059985644   -2.3884895    1.0699625   957980 
   39000    1.0160784   -2.3888137   -2.3888137    -1.318522  0.064882467   -2.3888137    1.0702917   957980 
   40000    1.0168582   -2.3897813   -2.3897813   -1.3186681  0.053766484   -2.3897813    1.0711132   957980 
   41000    1.0163658   -2.3899281   -2.3899281   -1.3193336   0.05826834   -2.3899281    1.0705945   957980 
   42000    1.0160917   -2.3901802   -2.3901802   -1.3198744  0.059895962   -2.3901802    1.0703057   957980 
   43000    1.0176807   -2.3917822   -2.3917822   -1.3198027  0.055887835   -2.3917822    1.0719795   957980 
   44000    1.0164992   -2.3910595   -2.3910595   -1.3203244  0.056040351   -2.3910595    1.0707351   957980 
   45000    1.0164017   -2.3917817   -2.3917817   -1.3211494  0.051962438   -2.3917817    1.0706323   957980 
   46000    1.0169512   -2.3926198   -2.3926198   -1.3214086  0.055301953   -2.3926198    1.0712111   957980 
   47000     1.017382   -2.3938704   -2.3938704   -1.3222055  0.058960526   -2.3938704    1.0716649   957980 
   48000    1.0180843   -2.3951558   -2.3951558    -1.322751  0.062159745   -2.3951558    1.0724047   957980 
   49000    1.0158398   -2.3943099   -2.3943099   -1.3242695  0.060179138   -2.3943099    1.0700405   957980 
   50000    1.0167599   -2.3955327   -2.3955327   -1.3245231  0.053645255   -2.3955327    1.0710096   957980 
   51000    1.0160436   -2.3952521   -2.3952521    -1.324997  0.060655747   -2.3952521    1.0702551   957980 
   52000    1.0173565   -2.3964455   -2.3964455   -1.3248074  0.058697555   -2.3964455     1.071638   957980 
   53000    1.0170769   -2.3971322   -2.3971322   -1.3257886  0.059859146   -2.3971322    1.0713436   957980 
   54000    1.0160679   -2.3966801   -2.3966801   -1.3263994  0.059659539   -2.3966801    1.0702807   957980 
   55000    1.0153202   -2.3970671   -2.3970671    -1.327574  0.054773513   -2.3970671    1.0694931   957980 
   56000     1.017391   -2.3987495   -2.3987495   -1.3270752  0.056602751   -2.3987495    1.0716744   957980 
   57000    1.0157486   -2.3978676   -2.3978676   -1.3279232  0.061614031   -2.3978676    1.0699444   957980 
   58000    1.0159946    -2.398338    -2.398338   -1.3281345  0.065557748    -2.398338    1.0702034   957980 
   59000    1.0159667   -2.3987022   -2.3987022    -1.328528  0.057795481   -2.3987022    1.0701741   957980 
   60000    1.0153708   -2.3980982   -2.3980982   -1.3285518  0.055780589   -2.3980982    1.0695464   957980 
   61000    1.0171204   -2.4001395   -2.4001395   -1.3287501  0.053644547   -2.4001395    1.0713894   957980 
   62000    1.0158955   -2.3993784   -2.3993784   -1.3292793  0.058215813   -2.3993784    1.0700991   957980 
   63000    1.0159782   -2.3998823   -2.3998823   -1.3296961  0.054797791   -2.3998823    1.0701862   957980 
   64000    1.0142069   -2.3985268   -2.3985268   -1.3302064   0.05856999   -2.3985268    1.0683204   957980 
   65000    1.0145287   -2.3985204   -2.3985204   -1.3298611  0.058478859   -2.3985204    1.0686594   957980 
   66000    1.0155797   -2.3998618   -2.3998618   -1.3300954  0.061756687   -2.3998618    1.0697665   957980 
   67000    1.0165455   -2.4007208   -2.4007208    -1.329937  0.061424815   -2.4007208    1.0707838   957980 
   68000    1.0149823   -2.3992613   -2.3992613   -1.3301241  0.048628528   -2.3992613    1.0691372   957980 
   69000    1.0159608   -2.4004185   -2.4004185   -1.3302506   0.05347522   -2.4004185    1.0701679   957980 
   70000    1.0155265    -2.399996    -2.399996   -1.3302856  0.061418425    -2.399996    1.0697104   957980 
   71000    1.0159088   -2.3999535   -2.3999535   -1.3298403  0.063760397   -2.3999535    1.0701132   957980 
   72000    1.0156827   -2.3999024   -2.3999024   -1.3300275  0.055450867   -2.3999024    1.0698749   957980 
   73000    1.0163644   -2.4002574   -2.4002574   -1.3296645   0.05541899   -2.4002574     1.070593   957980 
   74000     1.016851   -2.4009539   -2.4009539   -1.3298482  0.054563405   -2.4009539    1.0711056   957980 
   75000    1.0149643   -2.3996531   -2.3996531   -1.3305349  0.056592385   -2.3996531    1.0691183   957980 
   76000    1.0167559   -2.4017762   -2.4017762   -1.3307708  0.053252441   -2.4017762    1.0710054   957980 
   77000    1.0153779    -2.398904    -2.398904   -1.3293502  0.059366185    -2.398904    1.0695539   957980 
   78000     1.014932   -2.3988901   -2.3988901   -1.3298059  0.057893638   -2.3988901    1.0690842   957980 
   79000    1.0149161   -2.3997726   -2.3997726   -1.3307051  0.056765948   -2.3997726    1.0690675   957980 
   80000    1.0158113   -2.4005747   -2.4005747   -1.3305643  0.057567632   -2.4005747    1.0700104   957980 
   81000    1.0151713   -2.4001655   -2.4001655   -1.3308292  0.059388088   -2.4001655    1.0693363   957980 
   82000    1.0158864    -2.401573    -2.401573   -1.3314835  0.051730242    -2.401573    1.0700895   957980 
   83000    1.0138361   -2.3993526   -2.3993526   -1.3314228  0.067960993   -2.3993526    1.0679298   957980 
   84000    1.0148306   -2.4007636   -2.4007636   -1.3317862  0.052476375   -2.4007636    1.0689773   957980 
   85000    1.0152595    -2.401098    -2.401098   -1.3316688   0.05371123    -2.401098    1.0694292   957980 
   86000     1.014622   -2.4007167   -2.4007167   -1.3319591  0.056800042   -2.4007167    1.0687577   957980 
   87000    1.0156732   -2.4021192   -2.4021192   -1.3322543  0.055357232   -2.4021192     1.069865   957980 
   88000    1.0153067   -2.4016006   -2.4016006   -1.3321217  0.055671352   -2.4016006    1.0694789   957980 
   89000    1.0156902    -2.402363    -2.402363   -1.3324801  0.050767268    -2.402363    1.0698829   957980 
   90000    1.0150353   -2.4022841   -2.4022841   -1.3330911  0.057316495   -2.4022841    1.0691931   957980 
   91000    1.0151721   -2.4024777   -2.4024777   -1.3331405  0.056387749   -2.4024777    1.0693371   957980 
   92000    1.0136501   -2.4006018   -2.4006018   -1.3328678  0.059479216   -2.4006018    1.0677339   957980 
   93000    1.0147906     -2.40161     -2.40161   -1.3326748  0.061174822     -2.40161    1.0689352   957980 
   94000    1.0153831   -2.4025031   -2.4025031   -1.3329437  0.063074364   -2.4025031    1.0695594   957980 
   95000    1.0144093   -2.4015531   -2.4015531   -1.3330195  0.061096204   -2.4015531    1.0685336   957980 
   96000    1.0135911   -2.4007833   -2.4007833   -1.3331115  0.058467689   -2.4007833    1.0676718   957980 
   97000    1.0124473   -2.3994621   -2.3994621   -1.3329951  0.057642119   -2.3994621     1.066467   957980 
   98000    1.0127255   -2.3999362   -2.3999362   -1.3331762   0.05618876   -2.3999362      1.06676   957980 
   99000    1.0138718   -2.4012611   -2.4012611   -1.3332936  0.055636975   -2.4012611    1.0679675   957980 
  100000    1.0130876   -2.4001734   -2.4001734    -1.333032  0.054157617   -2.4001734    1.0671414   957980 
  101000    1.0129622   -2.3998936   -2.3998936   -1.3328843   0.06135044   -2.3998936    1.0670093   957980 
  102000    1.0128948   -2.3998429   -2.3998429   -1.3329046  0.054195925   -2.3998429    1.0669383   957980 
  103000    1.0144751   -2.4019095   -2.4019095   -1.3333066  0.065012238   -2.4019095    1.0686029   957980 
  104000    1.0149457   -2.4020763   -2.4020763   -1.3329777  0.061375354   -2.4020763    1.0690986   957980 
  105000    1.0139689   -2.4011393   -2.4011393   -1.3330696  0.056917561   -2.4011393    1.0680697   957980 
  106000    1.0145194   -2.4017062   -2.4017062   -1.3330565  0.054011645   -2.4017062    1.0686496   957980 
  107000    1.0149897   -2.4026618   -2.4026618   -1.3335168  0.057021657   -2.4026618     1.069145   957980 
  108000    1.0160563   -2.4034707   -2.4034707   -1.3332023  0.052611998   -2.4034707    1.0702685   957980 
  109000    1.0159885   -2.4028849   -2.4028849   -1.3326878  0.062065672   -2.4028849     1.070197   957980 
  110000    1.0136139   -2.4009725   -2.4009725   -1.3332767  0.055682437   -2.4009725    1.0676958   957980 
  111000    1.0138763   -2.4012312   -2.4012312    -1.333259  0.053101257   -2.4012312    1.0679722   957980 
  112000    1.0155627   -2.4028656   -2.4028656    -1.333117  0.058638206   -2.4028656    1.0697486   957980 
  113000    1.0138699   -2.4015205   -2.4015205   -1.3335551  0.064699184   -2.4015205    1.0679654   957980 
  114000    1.0153202   -2.4031291   -2.4031291    -1.333636  0.061975954   -2.4031291    1.0694931   957980 
  115000    1.0151563   -2.4035533   -2.4035533   -1.3342328  0.054524286   -2.4035533    1.0693205   957980 
  116000    1.0150139   -2.4039224   -2.4039224   -1.3347519     0.062401   -2.4039224    1.0691705   957980 
  117000     1.014733   -2.4042337   -2.4042337   -1.3353591  0.057531992   -2.4042337    1.0688746   957980 
  118000      1.01427   -2.4038739   -2.4038739    -1.335487  0.061772315   -2.4038739    1.0683869   957980 
  119000    1.0143715   -2.4047957   -2.4047957   -1.3363019  0.058339447   -2.4047957    1.0684938   957980 
  120000     1.013511   -2.4047428   -2.4047428   -1.3371554  0.052487436   -2.4047428    1.0675874   957980 
  121000    1.0126767      -2.4041      -2.4041   -1.3373915  0.056262255      -2.4041    1.0667085   957980 
  122000     1.015817   -2.4070834   -2.4070834   -1.3370669   0.06100386   -2.4070834    1.0700164   957980 
  123000     1.014494   -2.4062971   -2.4062971   -1.3376743   0.06501642   -2.4062971    1.0686228   957980 
  124000     1.014984   -2.4071536   -2.4071536   -1.3380146  0.057056854   -2.4071536     1.069139   957980 
  125000    1.0141928   -2.4063924   -2.4063924   -1.3380868  0.052428368   -2.4063924    1.0683056   957980 
  126000    1.0147622   -2.4069782   -2.4069782   -1.3380729  0.055292765   -2.4069782    1.0689054   957980 
  127000    1.0154031   -2.4082077   -2.4082077   -1.3386273  0.056884493   -2.4082077    1.0695804   957980 
  128000    1.0156464   -2.4087827   -2.4087827    -1.338946  0.059453049   -2.4087827    1.0698367   957980 
  129000    1.0141293   -2.4076727   -2.4076727   -1.3394341  0.065493115   -2.4076727    1.0682387   957980 
  130000    1.0137585   -2.4077435   -2.4077435   -1.3398954  0.061625126   -2.4077435    1.0678481   957980 
  131000      1.01389   -2.4086485   -2.4086485   -1.3406618  0.059088984   -2.4086485    1.0679866   957980 
  132000    1.0147928   -2.4100785   -2.4100785   -1.3411409  0.059148382   -2.4100785    1.0689376   957980 
  133000    1.0136513   -2.4087886   -2.4087886   -1.3410535  0.060014825   -2.4087886    1.0677351   957980 
  134000    1.0132202   -2.4088627   -2.4088627   -1.3415816  0.059410977   -2.4088627    1.0672811   957980 
  135000    1.0144522   -2.4104072   -2.4104072   -1.3418284  0.054645821   -2.4104072    1.0685788   957980 
  136000    1.0148741   -2.4104696   -2.4104696   -1.3414464  0.057096723   -2.4104696    1.0690232   957980 
  137000    1.0147846   -2.4111005   -2.4111005   -1.3421716  0.060864697   -2.4111005    1.0689289   957980 
  138000    1.0138827    -2.410314    -2.410314   -1.3423351  0.062013595    -2.410314    1.0679789   957980 
  139000    1.0136238   -2.4101658   -2.4101658   -1.3424596  0.056176552   -2.4101658    1.0677062   957980 
  140000    1.0138686   -2.4107627   -2.4107627   -1.3427986  0.056579927   -2.4107627    1.0679641   957980 
  141000    1.0152127   -2.4120101   -2.4120101   -1.3426302   0.05772514   -2.4120101    1.0693799   957980 
  142000    1.0156693   -2.4125805   -2.4125805   -1.3427197  0.063498866   -2.4125805    1.0698608   957980 
  143000    1.0148526   -2.4124753   -2.4124753   -1.3434748  0.064092702   -2.4124753    1.0690005   957980 
  144000    1.0150585   -2.4126656   -2.4126656   -1.3434481  0.062281229   -2.4126656    1.0692175   957980 
  145000    1.0151105   -2.4129436   -2.4129436   -1.3436714  0.063632017   -2.4129436    1.0692722   957980 
  146000     1.015724   -2.4135652   -2.4135652   -1.3436467  0.056430835   -2.4135652    1.0699185   957980 
  147000    1.0150049   -2.4127885   -2.4127885   -1.3436274  0.055268095   -2.4127885     1.069161   957980 
  148000    1.0142612   -2.4124255   -2.4124255   -1.3440479  0.060305134   -2.4124255    1.0683776   957980 
  149000    1.0138104   -2.4119884   -2.4119884   -1.3440857  0.061459838   -2.4119884    1.0679028   957980 
  150000    1.0127934   -2.4116623   -2.4116623   -1.3448308  0.061759695   -2.4116623    1.0668315   957980 
  151000    1.0134804   -2.4126942   -2.4126942   -1.3451391  0.057199006   -2.4126942    1.0675552   957980 
  152000    1.0144038   -2.4132986   -2.4132986   -1.3447707  0.057319693   -2.4132986    1.0685278   957980 
  153000    1.0135359   -2.4124266   -2.4124266   -1.3448129   0.06289209   -2.4124266    1.0676137   957980 
  154000    1.0137794   -2.4127492   -2.4127492   -1.3448791   0.05777266   -2.4127492    1.0678701   957980 
  155000    1.0134805   -2.4116546   -2.4116546   -1.3440994  0.056374084   -2.4116546    1.0675552   957980 
  156000       1.0148   -2.4127077   -2.4127077   -1.3437625   0.06208086   -2.4127077    1.0689452   957980 
  157000    1.0153251   -2.4138338   -2.4138338   -1.3443355  0.056810975   -2.4138338    1.0694983   957980 
  158000     1.014718   -2.4130197   -2.4130197   -1.3441609  0.061070904   -2.4130197    1.0688588   957980 
  159000     1.014272   -2.4124931   -2.4124931   -1.3441041  0.059585829   -2.4124931     1.068389   957980 
  160000    1.0149287   -2.4136306   -2.4136306   -1.3445499  0.059894418   -2.4136306    1.0690807   957980 
  161000    1.0154716   -2.4148035   -2.4148035   -1.3451509  0.061996014   -2.4148035    1.0696526   957980 
  162000     1.014642   -2.4141198   -2.4141198    -1.345341  0.060832601   -2.4141198    1.0687787   957980 
  163000    1.0143677   -2.4134694   -2.4134694   -1.3449796   0.06319984   -2.4134694    1.0684898   957980 
  164000    1.0149131   -2.4142947   -2.4142947   -1.3452304   0.06139455   -2.4142947    1.0690643   957980 
  165000     1.013959   -2.4135968   -2.4135968   -1.3455375  0.056528247   -2.4135968    1.0680593   957980 
  166000    1.0124627   -2.4122814   -2.4122814   -1.3457982  0.058074929   -2.4122814    1.0664832   957980 
  167000    1.0131935   -2.4125438   -2.4125438   -1.3452909   0.06484816   -2.4125438    1.0672529   957980 
  168000    1.0123846   -2.4120696   -2.4120696   -1.3456687  0.058306707   -2.4120696    1.0664009   957980 
  169000    1.0126691   -2.4124844   -2.4124844   -1.3457839  0.055817195   -2.4124844    1.0667005   957980 
  170000    1.0136414   -2.4138877   -2.4138877   -1.3461629  0.058648659   -2.4138877    1.0677248   957980 
  171000    1.0122664   -2.4128564   -2.4128564   -1.3465801  0.062156593   -2.4128564    1.0662763   957980 
  172000    1.0138131   -2.4140841   -2.4140841   -1.3461785  0.052936492   -2.4140841    1.0679056   957980 
  173000    1.0129005   -2.4138359   -2.4138359   -1.3468916  0.058818691   -2.4138359    1.0669444   957980 
  174000    1.0131814   -2.4137546   -2.4137546   -1.3465145  0.061895902   -2.4137546    1.0672402   957980 
  175000    1.0132248   -2.4134048   -2.4134048   -1.3461189  0.065858856   -2.4134048    1.0672859   957980 
  176000    1.0146315   -2.4148479   -2.4148479   -1.3460803  0.056419315   -2.4148479    1.0687677   957980 
  177000    1.0148812   -2.4147581   -2.4147581   -1.3457274  0.059885466   -2.4147581    1.0690307   957980 
  178000    1.0132123   -2.4132275   -2.4132275   -1.3459548  0.059685096   -2.4132275    1.0672727   957980 
  179000    1.0134656   -2.4139956   -2.4139956   -1.3464561  0.058745237   -2.4139956    1.0675395   957980 
  180000    1.0128636   -2.4135729   -2.4135729   -1.3466675  0.060261075   -2.4135729    1.0669055   957980 
  181000    1.0139936   -2.4152602   -2.4152602   -1.3471644  0.062478912   -2.4152602    1.0680957   957980 
  182000    1.0130836    -2.413919    -2.413919   -1.3467818  0.053976413    -2.413919    1.0671371   957980 
  183000    1.0139625   -2.4153347   -2.4153347   -1.3472718  0.062406971   -2.4153347     1.068063   957980 
  184000    1.0131533   -2.4146073   -2.4146073   -1.3473967  0.054697744   -2.4146073    1.0672106   957980 
  185000    1.0126118   -2.4142413   -2.4142413   -1.3476011  0.055912919   -2.4142413    1.0666403   957980 
  186000    1.0136031   -2.4152512   -2.4152512   -1.3475669  0.064025326   -2.4152512    1.0676844   957980 
  187000    1.0134594   -2.4157447   -2.4157447   -1.3482116  0.060640618   -2.4157447    1.0675331   957980 
  188000    1.0121685   -2.4151761   -2.4151761   -1.3490028  0.056184678   -2.4151761    1.0661732   957980 
  189000    1.0129094    -2.414989    -2.414989   -1.3480353  0.059174377    -2.414989    1.0669537   957980 
  190000    1.0124679   -2.4146966   -2.4146966    -1.348208  0.053223003   -2.4146966    1.0664887   957980 
  191000    1.0111803    -2.413615    -2.413615   -1.3484826  0.064059226    -2.413615    1.0651324   957980 
  192000    1.0125744   -2.4154724   -2.4154724   -1.3488717   0.06472327   -2.4154724    1.0666008   957980 
  193000    1.0129903   -2.4157888   -2.4157888   -1.3487499  0.060980928   -2.4157888    1.0670389   957980 
  194000    1.0122336   -2.4153432   -2.4153432   -1.3491014  0.054869819   -2.4153432    1.0662418   957980 
  195000    1.0125057   -2.4155831   -2.4155831   -1.3490547    0.0654349   -2.4155831    1.0665284   957980 
  196000    1.0126815   -2.4159281   -2.4159281   -1.3492144  0.058473148   -2.4159281    1.0667136   957980 
  197000    1.0124432   -2.4156132   -2.4156132   -1.3491506  0.059524579   -2.4156132    1.0664626   957980 
  198000    1.0130113   -2.4162913   -2.4162913   -1.3492304  0.062602793   -2.4162913     1.067061   957980 
  199000    1.0121598   -2.4154683   -2.4154683   -1.3493041  0.053679214   -2.4154683    1.0661641   957980 
  200000    1.0121647   -2.4151391   -2.4151391   -1.3489698  0.060396182   -2.4151391    1.0661693   957980 
  201000    1.0136984   -2.4168807   -2.4168807    -1.349096  0.062579558   -2.4168807    1.0677848   957980 
  202000    1.0129292   -2.4164561   -2.4164561   -1.3494816  0.063380964   -2.4164561    1.0669745   957980 
  203000    1.0121647   -2.4157875   -2.4157875   -1.3496183  0.059880615   -2.4157875    1.0661692   957980 
  204000    1.0143204   -2.4171903   -2.4171903   -1.3487503  0.054511887   -2.4171903      1.06844   957980 
  205000    1.0150898    -2.417374    -2.417374   -1.3481236  0.059628931    -2.417374    1.0692504   957980 
  206000    1.0140613   -2.4171909   -2.4171909   -1.3490238  0.059311538   -2.4171909    1.0681671   957980 
  207000    1.0122086   -2.4152785   -2.4152785    -1.349063  0.061938661   -2.4152785    1.0662154   957980 
  208000    1.0136507    -2.416633    -2.416633   -1.3488985  0.059083601    -2.416633    1.0677345   957980 
  209000     1.014872   -2.4175804   -2.4175804   -1.3485593  0.059254898   -2.4175804     1.069021   957980 
  210000    1.0138521   -2.4168071   -2.4168071   -1.3488604  0.055100339   -2.4168071    1.0679467   957980 
  211000    1.0144968   -2.4175079   -2.4175079   -1.3488821  0.059772636   -2.4175079    1.0686258   957980 
  212000    1.0144392   -2.4177539   -2.4177539   -1.3491888  0.060041317   -2.4177539    1.0685651   957980 
  213000    1.0124271   -2.4161106   -2.4161106   -1.3496649    0.0585483   -2.4161106    1.0664457   957980 
  214000    1.0127781   -2.4164772   -2.4164772   -1.3496619  0.059752531   -2.4164772    1.0668153   957980 
  215000    1.0127577   -2.4162602   -2.4162602   -1.3494663    0.0554785   -2.4162602    1.0667939   957980 
  216000    1.0132936   -2.4170718   -2.4170718   -1.3497134  0.063108938   -2.4170718    1.0673584   957980 
  217000    1.0122788   -2.4166597   -2.4166597   -1.3503703  0.052153353   -2.4166597    1.0662894   957980 
  218000    1.0120742   -2.4164812   -2.4164812   -1.3504073  0.059362304   -2.4164812    1.0660739   957980 
  219000    1.0125082   -2.4164938   -2.4164938   -1.3499628  0.066620876   -2.4164938     1.066531   957980 
  220000    1.0143145   -2.4190094   -2.4190094   -1.3505757  0.058303748   -2.4190094    1.0684337   957980 
  221000    1.0139311   -2.4180469   -2.4180469   -1.3500169  0.070461892   -2.4180469    1.0680299   957980 
  222000    1.0132135   -2.4183304   -2.4183304   -1.3510563  0.061278364   -2.4183304     1.067274   957980 
  223000    1.0135622   -2.4188527   -2.4188527   -1.3512114  0.067342111   -2.4188527    1.0676413   957980 
  224000    1.0123463   -2.4177595   -2.4177595    -1.351399  0.059822658   -2.4177595    1.0663605   957980 
  225000    1.0131889   -2.4186714   -2.4186714   -1.3514233  0.060872347   -2.4186714    1.0672481   957980 
  226000    1.0131876   -2.4187575   -2.4187575   -1.3515107  0.052147534   -2.4187575    1.0672468   957980 
  227000    1.0122977   -2.4176443   -2.4176443    -1.351335  0.061353429   -2.4176443    1.0663093   957980 
  228000    1.0134129   -2.4186809   -2.4186809   -1.3511968  0.060103579   -2.4186809    1.0674841   957980 
  229000    1.0137381   -2.4191118   -2.4191118   -1.3512852  0.060596683   -2.4191118    1.0678266   957980 
  230000    1.0123553   -2.4178544   -2.4178544   -1.3514843  0.056461464   -2.4178544    1.0663701   957980 
  231000    1.0137901   -2.4189549   -2.4189549   -1.3510735  0.055687707   -2.4189549    1.0678814   957980 
  232000    1.0117333   -2.4173355   -2.4173355   -1.3516207  0.055390643   -2.4173355    1.0657148   957980 
  233000    1.0116634   -2.4175834   -2.4175834   -1.3519422  0.056395486   -2.4175834    1.0656412   957980 
  234000    1.0120216   -2.4183079   -2.4183079   -1.3522894  0.053926417   -2.4183079    1.0660185   957980 
  235000    1.0120508   -2.4173327   -2.4173327   -1.3512834  0.057016884   -2.4173327    1.0660492   957980 
  236000    1.0114404   -2.4170644   -2.4170644    -1.351658   0.06072324   -2.4170644    1.0654063   957980 
  237000     1.012217    -2.418028    -2.418028   -1.3518036  0.063697823    -2.418028    1.0662244   957980 
  238000    1.0126018   -2.4182674   -2.4182674   -1.3516377  0.058511553   -2.4182674    1.0666297   957980 
  239000    1.0119639   -2.4174205   -2.4174205   -1.3514628  0.063933169   -2.4174205    1.0659577   957980 
  240000    1.0118071    -2.417583    -2.417583   -1.3517904   0.06339268    -2.417583    1.0657926   957980 
  241000    1.0121895   -2.4180636   -2.4180636   -1.3518682  0.057071204   -2.4180636    1.0661954   957980 
  242000    1.0118349    -2.417904    -2.417904   -1.3520821  0.058146569    -2.417904    1.0658219   957980 
  243000    1.0121215   -2.4181787   -2.4181787    -1.352055  0.050730827   -2.4181787    1.0661237   957980 
  244000     1.012281    -2.418758    -2.418758   -1.3524662  0.056223495    -2.418758    1.0662918   957980 
  245000    1.0118955   -2.4178906   -2.4178906   -1.3520049  0.061159625   -2.4178906    1.0658857   957980 
  246000    1.0121584   -2.4182074   -2.4182074   -1.3520448  0.061680915   -2.4182074    1.0661626   957980 
  247000    1.0123519   -2.4185707   -2.4185707   -1.3522043  0.059458295   -2.4185707    1.0663664   957980 
  248000    1.0135855   -2.4197946   -2.4197946   -1.3521287   0.05051534   -2.4197946    1.0676659   957980 
  249000    1.0109039   -2.4176715   -2.4176715   -1.3528304  0.063081251   -2.4176715    1.0648412   957980 
  250000    1.0121885   -2.4191077   -2.4191077   -1.3529134  0.061310104   -2.4191077    1.0661943   957980 
  251000    1.0139422    -2.420711    -2.420711   -1.3526694  0.055655434    -2.420711    1.0680416   957980 
  252000    1.0127865   -2.4191886   -2.4191886   -1.3523644  0.065288926   -2.4191886    1.0668242   957980 
  253000    1.0132456   -2.4200239   -2.4200239    -1.352716  0.064640844   -2.4200239    1.0673079   957980 
  254000    1.0118479   -2.4187887   -2.4187887   -1.3529531  0.064749703   -2.4187887    1.0658356   957980 
  255000    1.0118957   -2.4186619   -2.4186619    -1.352776  0.070098368   -2.4186619    1.0658859   957980 
  256000    1.0130594    -2.419996    -2.419996   -1.3528844  0.062502389    -2.419996    1.0671116   957980 
  257000    1.0143791   -2.4214018   -2.4214018      -1.3529  0.064785949   -2.4214018    1.0685018   957980 
  258000    1.0128976   -2.4201434   -2.4201434   -1.3532021  0.070307625   -2.4201434    1.0669413   957980 
  259000    1.0138019   -2.4213637   -2.4213637   -1.3534698  0.056314533   -2.4213637    1.0678938   957980 
  260000    1.0138503   -2.4211371   -2.4211371   -1.3531923  0.067650444   -2.4211371    1.0679448   957980 
  261000    1.0131189   -2.4205969   -2.4205969   -1.3534225  0.059904736   -2.4205969    1.0671743   957980 
  262000    1.0138773   -2.4216594   -2.4216594   -1.3536862  0.061891926   -2.4216594    1.0679732   957980 
  263000    1.0151606   -2.4233607   -2.4233607   -1.3540357  0.070082316   -2.4233607     1.069325   957980 
  264000    1.0141541   -2.4225291   -2.4225291   -1.3542643  0.066007664   -2.4225291    1.0682648   957980 
  265000    1.0151705   -2.4240275   -2.4240275    -1.354692  0.057126049   -2.4240275    1.0693355   957980 
  266000    1.0127681   -2.4219444   -2.4219444   -1.3551395  0.066196882   -2.4219444    1.0668049   957980 
  267000    1.0131112   -2.4223834   -2.4223834   -1.3552172  0.065081977   -2.4223834    1.0671662   957980 
  268000    1.0119757   -2.4215403   -2.4215403   -1.3555701  0.059890873   -2.4215403    1.0659702   957980 
  269000    1.0111204   -2.4210994   -2.4210994   -1.3560302  0.060514548   -2.4210994    1.0650693   957980 
  270000     1.012247   -2.4217209   -2.4217209    -1.355465  0.064549151   -2.4217209    1.0662559   957980 
  271000    1.0112833   -2.4217427   -2.4217427   -1.3565018  0.059878901   -2.4217427    1.0652409   957980 
  272000    1.0132627   -2.4230543   -2.4230543   -1.3557284  0.064751565   -2.4230543    1.0673259   957980 
  273000    1.0125128   -2.4223239   -2.4223239   -1.3557879  0.059961268   -2.4223239     1.066536   957980 
  274000    1.0109152   -2.4209616   -2.4209616   -1.3561085  0.063151909   -2.4209616    1.0648531   957980 
  275000    1.0118995   -2.4225321   -2.4225321   -1.3566421  0.057841968   -2.4225321    1.0658899   957980 
  276000    1.0107638   -2.4213312   -2.4213312   -1.3566376  0.058791933   -2.4213312    1.0646936   957980 
  277000    1.0106456   -2.4206973   -2.4206973   -1.3561282   0.05467871   -2.4206973    1.0645691   957980 
  278000    1.0117658   -2.4216549   -2.4216549   -1.3559059  0.059679898   -2.4216549     1.065749   957980 
  279000    1.0125231   -2.4238016   -2.4238016   -1.3572548  0.056912463   -2.4238016    1.0665468   957980 
  280000    1.0114586   -2.4224784   -2.4224784   -1.3570529   0.05819149   -2.4224784    1.0654255   957980 
  281000    1.0113011   -2.4227191   -2.4227191   -1.3574595  0.055559548   -2.4227191    1.0652596   957980 
  282000    1.0126381   -2.4237902   -2.4237902   -1.3571223  0.058149588   -2.4237902    1.0666679   957980 
  283000    1.0121203   -2.4228523   -2.4228523   -1.3567298  0.057225762   -2.4228523    1.0661225   957980 
  284000    1.0118408   -2.4224054   -2.4224054   -1.3565774   0.05289516   -2.4224054     1.065828   957980 
  285000    1.0116508   -2.4228125   -2.4228125   -1.3571846  0.065786753   -2.4228125    1.0656279   957980 
  286000    1.0133082   -2.4243246   -2.4243246   -1.3569509  0.053646435   -2.4243246    1.0673737   957980 
  287000     1.011585   -2.4224563   -2.4224563   -1.3568977  0.058857162   -2.4224563    1.0655586   957980 
  288000    1.0126995   -2.4236237   -2.4236237   -1.3568911  0.058370092   -2.4236237    1.0667326   957980 
  289000    1.0118124   -2.4228018   -2.4228018   -1.3570037  0.056582351   -2.4228018    1.0657982   957980 
  290000    1.0131936   -2.4236943   -2.4236943   -1.3564413  0.064840234   -2.4236943     1.067253   957980 
  291000    1.0137417   -2.4244885   -2.4244885   -1.3566582  0.064211105   -2.4244885    1.0678304   957980 
  292000    1.0121092   -2.4236231   -2.4236231   -1.3575123  0.061613107   -2.4236231    1.0661108   957980 
  293000    1.0111638    -2.422913    -2.422913    -1.357798  0.059536341    -2.422913     1.065115   957980 
  294000    1.0113286   -2.4222265   -2.4222265   -1.3569379  0.058076391   -2.4222265    1.0652886   957980 
  295000    1.0119765   -2.4231721   -2.4231721   -1.3572012  0.058718403   -2.4231721     1.065971   957980 
  296000     1.012095   -2.4237256   -2.4237256   -1.3576298  0.061177271   -2.4237256    1.0660958   957980 
  297000    1.0130267   -2.4243747   -2.4243747   -1.3572974  0.058910101   -2.4243747    1.0670773   957980 
  298000    1.0119013   -2.4231361   -2.4231361   -1.3572443  0.053302319   -2.4231361    1.0658918   957980 
  299000    1.0124037   -2.4236413   -2.4236413   -1.3572202  0.065492619   -2.4236413     1.066421   957980 
  300000     1.012573   -2.4237771   -2.4237771   -1.3571778  0.059317525   -2.4237771    1.0665994   957980 
  301000     1.011993   -2.4239714   -2.4239714    -1.357983  0.052777522   -2.4239714    1.0659884   957980 
  302000      1.01294   -2.4243522   -2.4243522   -1.3573663  0.061205268   -2.4243522    1.0669859   957980 
  303000     1.013324   -2.4248532   -2.4248532   -1.3574628  0.063757588   -2.4248532    1.0673904   957980 
  304000    1.0118824   -2.4242242   -2.4242242   -1.3583524  0.063849864   -2.4242242    1.0658718   957980 
  305000    1.0130222   -2.4258942   -2.4258942   -1.3588217  0.063773687   -2.4258942    1.0670725   957980 
  306000    1.0123005   -2.4258138   -2.4258138   -1.3595015  0.057340918   -2.4258138    1.0663123   957980 
  307000    1.0122775   -2.4258724   -2.4258724   -1.3595844  0.059467005   -2.4258724     1.066288   957980 
  308000    1.0118532   -2.4255825   -2.4255825   -1.3597414  0.050767971   -2.4255825    1.0658411   957980 
  309000    1.0134079   -2.4269102   -2.4269102   -1.3594315  0.056076466   -2.4269102    1.0674787   957980 
  310000     1.012893    -2.426733    -2.426733   -1.3597966  0.061374146    -2.426733    1.0669364   957980 
  311000    1.0121809   -2.4260404   -2.4260404    -1.359854  0.067160498   -2.4260404    1.0661864   957980 
  312000    1.0116891   -2.4257657   -2.4257657   -1.3600974  0.059321064   -2.4257657    1.0656683   957980 
  313000    1.0121468   -2.4266428   -2.4266428   -1.3604924  0.056581116   -2.4266428    1.0661504   957980 
  314000     1.012461   -2.4275822   -2.4275822   -1.3611009   0.06725194   -2.4275822    1.0664813   957980 
  315000    1.0121155   -2.4270811   -2.4270811   -1.3609636  0.064154744   -2.4270811    1.0661174   957980 
  316000    1.0122332   -2.4275346   -2.4275346   -1.3612933  0.057854223   -2.4275346    1.0662414   957980 
  317000    1.0121408   -2.4270751   -2.4270751    -1.360931  0.063388571   -2.4270751    1.0661441   957980 
  318000    1.0126174   -2.4279772   -2.4279772   -1.3613311  0.059978524   -2.4279772    1.0666461   957980 
  319000    1.0130269   -2.4286946   -2.4286946   -1.3616172  0.062972782   -2.4286946    1.0670774   957980 
  320000    1.0121033   -2.4274733   -2.4274733   -1.3613687  0.063903838   -2.4274733    1.0661046   957980 
  321000    1.0123879   -2.4275546   -2.4275546   -1.3611502  0.056176487   -2.4275546    1.0664044   957980 
  322000    1.0114974   -2.4264424   -2.4264424   -1.3609761  0.060373368   -2.4264424    1.0654663   957980 
  323000    1.0119211   -2.4269538   -2.4269538   -1.3610411  0.052786717   -2.4269538    1.0659127   957980 
  324000    1.0105508   -2.4248572   -2.4248572    -1.360388  0.058242186   -2.4248572    1.0644692   957980 
  325000    1.0114033   -2.4253082   -2.4253082   -1.3599409  0.059858597   -2.4253082    1.0653672   957980 
  326000    1.0132691   -2.4277898   -2.4277898   -1.3604573  0.059105035   -2.4277898    1.0673326   957980 
  327000     1.011585   -2.4262344   -2.4262344   -1.3606758  0.059083183   -2.4262344    1.0655587   957980 
  328000    1.0121404   -2.4268228   -2.4268228   -1.3606792  0.063578503   -2.4268228    1.0661436   957980 
  329000    1.0134876    -2.427785    -2.427785   -1.3602223  0.061066619    -2.427785    1.0675627   957980 
  330000    1.0126928    -2.427594    -2.427594   -1.3608685  0.056163336    -2.427594    1.0667255   957980 
  331000     1.012191   -2.4265527   -2.4265527   -1.3603557  0.068317685   -2.4265527    1.0661969   957980 
  332000    1.0117382    -2.426855    -2.426855    -1.361135  0.058842492    -2.426855      1.06572   957980 
  333000    1.0125547   -2.4278526   -2.4278526   -1.3612725  0.055624727   -2.4278526    1.0665801   957980 
  334000    1.0108636   -2.4254663   -2.4254663   -1.3606675  0.060578334   -2.4254663    1.0647988   957980 
  335000    1.0127033   -2.4269341   -2.4269341   -1.3601975  0.063839626   -2.4269341    1.0667366   957980 
  336000    1.0112378   -2.4252727   -2.4252727   -1.3600799   0.06426208   -2.4252727    1.0651929   957980 
  337000    1.0095319   -2.4235214   -2.4235214   -1.3601254  0.063712211   -2.4235214     1.063396   957980 
  338000    1.0119004   -2.4254814   -2.4254814   -1.3595905  0.065841268   -2.4254814    1.0658909   957980 
  339000    1.0121078    -2.425796    -2.425796   -1.3596867   0.06450275    -2.425796    1.0661093   957980 
  340000    1.0122465    -2.425915    -2.425915   -1.3596596   0.06172802    -2.425915    1.0662554   957980 
  341000     1.013024   -2.4268813   -2.4268813   -1.3598069  0.061124202   -2.4268813    1.0670744   957980 
  342000    1.0130756   -2.4275754   -2.4275754   -1.3604466  0.059682865   -2.4275754    1.0671288   957980 
  343000    1.0118016   -2.4255262   -2.4255262   -1.3597394  0.060505662   -2.4255262    1.0657868   957980 
  344000      1.01215   -2.4265468   -2.4265468   -1.3603931     0.062987   -2.4265468    1.0661538   957980 
  345000    1.0105708     -2.42477     -2.42477   -1.3602797  0.062238984     -2.42477    1.0644903   957980 
  346000    1.0105565   -2.4249868   -2.4249868   -1.3605115  0.062879776   -2.4249868    1.0644753   957980 
  347000    1.0109123   -2.4247666   -2.4247666   -1.3599167  0.058021419   -2.4247666      1.06485   957980 
  348000      1.01112   -2.4254979   -2.4254979    -1.360429  0.053398713   -2.4254979    1.0650688   957980 
  349000    1.0106921   -2.4248747   -2.4248747   -1.3602567  0.054676423   -2.4248747    1.0646181   957980 
  350000    1.0099685   -2.4238923   -2.4238923   -1.3600364  0.063371922   -2.4238923    1.0638559   957980 
  351000    1.0098862   -2.4238226   -2.4238226   -1.3600534  0.049220834   -2.4238226    1.0637692   957980 
  352000    1.0128961   -2.4268229   -2.4268229   -1.3598832  0.056379299   -2.4268229    1.0669396   957980 
  353000    1.0115003   -2.4254045   -2.4254045   -1.3599351  0.062664428   -2.4254045    1.0654694   957980 
  354000      1.01265   -2.4270766   -2.4270766   -1.3603962  0.057406278   -2.4270766    1.0666804   957980 
  355000    1.0128152   -2.4269327   -2.4269327   -1.3600782  0.062962474   -2.4269327    1.0668545   957980 
  356000    1.0117466   -2.4259934   -2.4259934   -1.3602646  0.065752629   -2.4259934    1.0657288   957980 
  357000    1.0123013   -2.4269774   -2.4269774   -1.3606643  0.062938606   -2.4269774    1.0663131   957980 
  358000    1.0125641   -2.4281462   -2.4281462   -1.3615562  0.058196953   -2.4281462      1.06659   957980 
  359000    1.0113642   -2.4271297   -2.4271297   -1.3618037  0.068603068   -2.4271297    1.0653261   957980 
  360000    1.0112819   -2.4271245   -2.4271245   -1.3618851   0.05927103   -2.4271245    1.0652394   957980 
  361000    1.0124542   -2.4276632   -2.4276632    -1.361189  0.064706677   -2.4276632    1.0664742   957980 
  362000    1.0121296   -2.4277865   -2.4277865   -1.3616542  0.056780524   -2.4277865    1.0661323   957980 
  363000    1.0108058   -2.4270681   -2.4270681   -1.3623303  0.056622127   -2.4270681    1.0647379   957980 
  364000    1.0102102   -2.4266416   -2.4266416   -1.3625311  0.060228005   -2.4266416    1.0641105   957980 
  365000    1.0118025   -2.4288371   -2.4288371   -1.3630494  0.058323985   -2.4288371    1.0657877   957980 
  366000    1.0105912   -2.4272325   -2.4272325   -1.3627207   0.06366284   -2.4272325    1.0645118   957980 
  367000    1.0124185   -2.4292065   -2.4292065   -1.3627699  0.067605126   -2.4292065    1.0664366   957980 
  368000    1.0128272   -2.4297444   -2.4297444   -1.3628773  0.061628987   -2.4297444    1.0668671   957980 
  369000    1.0127063   -2.4294523   -2.4294523   -1.3627125  0.058320259   -2.4294523    1.0667397   957980 
  370000    1.0115475   -2.4287461   -2.4287461    -1.363227  0.063256323   -2.4287461    1.0655191   957980 
  371000    1.0108319   -2.4276169   -2.4276169   -1.3628516   0.05939966   -2.4276169    1.0647654   957980 
  372000    1.0130141   -2.4305211   -2.4305211   -1.3634571   0.04998744   -2.4305211     1.067064   957980 
  373000    1.0121165   -2.4290024   -2.4290024   -1.3628838  0.063851018   -2.4290024    1.0661185   957980 
  374000    1.0119854    -2.429235    -2.429235   -1.3632546   0.06330182    -2.429235    1.0659804   957980 
  375000    1.0127617   -2.4302316   -2.4302316   -1.3634335  0.066062927   -2.4302316    1.0667981   957980 
  376000    1.0126016   -2.4297933   -2.4297933   -1.3631638  0.061519184   -2.4297933    1.0666295   957980 
  377000    1.0126768   -2.4300341   -2.4300341   -1.3633254  0.067323165   -2.4300341    1.0667086   957980 
  378000    1.0112967    -2.429288    -2.429288   -1.3640331  0.059879527    -2.429288    1.0652549   957980 
  379000    1.0114786   -2.4291429   -2.4291429   -1.3636963  0.066540297   -2.4291429    1.0654466   957980 
  380000    1.0115192   -2.4292017   -2.4292017   -1.3637124  0.060924735   -2.4292017    1.0654893   957980 
  381000    1.0125097   -2.4307594   -2.4307594   -1.3642268  0.064452417   -2.4307594    1.0665327   957980 
  382000    1.0115432   -2.4301872   -2.4301872   -1.3646726  0.064493671   -2.4301872    1.0655146   957980 
  383000    1.0121253   -2.4307676   -2.4307676   -1.3646398    0.0633586   -2.4307676    1.0661278   957980 
  384000    1.0122927    -2.431204    -2.431204      -1.3649  0.061065553    -2.431204     1.066304   957980 
  385000    1.0111368   -2.4306427   -2.4306427   -1.3655562  0.058657408   -2.4306427    1.0650865   957980 
  386000    1.0106631   -2.4301124   -2.4301124   -1.3655249  0.065203413   -2.4301124    1.0645876   957980 
  387000    1.0117664   -2.4316273   -2.4316273   -1.3658776  0.060720144   -2.4316273    1.0657497   957980 
  388000    1.0105147   -2.4309054   -2.4309054   -1.3664742  0.055620408   -2.4309054    1.0644312   957980 
  389000    1.0113283   -2.4313773   -2.4313773   -1.3660891  0.054049851   -2.4313773    1.0652882   957980 
  390000    1.0103873   -2.4300253   -2.4300253   -1.3657283  0.062665453   -2.4300253     1.064297   957980 
  391000    1.0108709   -2.4309046   -2.4309046   -1.3660982  0.059419993   -2.4309046    1.0648064   957980 
  392000    1.0105322    -2.430958    -2.430958   -1.3665083  0.067770394    -2.430958    1.0644497   957980 
  393000    1.0115306   -2.4319878   -2.4319878   -1.3664864   0.05924485   -2.4319878    1.0655014   957980 
  394000    1.0103147   -2.4304148   -2.4304148   -1.3661943   0.06139069   -2.4304148    1.0642206   957980 
  395000    1.0116557   -2.4317684   -2.4317684   -1.3661354  0.063434155   -2.4317684    1.0656331   957980 
  396000    1.0105345   -2.4307633   -2.4307633   -1.3663112  0.064939086   -2.4307633    1.0644521   957980 
  397000    1.0111622   -2.4317131   -2.4317131   -1.3665998  0.054097935   -2.4317131    1.0651133   957980 
  398000    1.0115823   -2.4326216   -2.4326216   -1.3670659  0.063706323   -2.4326216    1.0655557   957980 
  399000    1.0106689   -2.4318088   -2.4318088   -1.3672152  0.058285898   -2.4318088    1.0645936   957980 
  400000    1.0107957   -2.4317717   -2.4317717   -1.3670444  0.061148826   -2.4317717    1.0647273   957980 
  401000    1.0107614   -2.4315446   -2.4315446   -1.3668535  0.063206142   -2.4315446     1.064691   957980 
  402000    1.0105585   -2.4316475   -2.4316475   -1.3671702  0.056683364   -2.4316475    1.0644774   957980 
  403000    1.0101503   -2.4319234   -2.4319234    -1.367876  0.063620555   -2.4319234    1.0640474   957980 
  404000    1.0115689   -2.4335997   -2.4335997   -1.3680581  0.063031983   -2.4335997    1.0655416   957980 
  405000    1.0116701   -2.4325552   -2.4325552   -1.3669069  0.059842689   -2.4325552    1.0656483   957980 
  406000    1.0115695   -2.4325618   -2.4325618   -1.3670195  0.065084783   -2.4325618    1.0655423   957980 
  407000    1.0113828   -2.4313282   -2.4313282   -1.3659825  0.060731822   -2.4313282    1.0653456   957980 
  408000    1.0117486   -2.4327882   -2.4327882   -1.3670572    0.0626177   -2.4327882     1.065731   957980 
  409000    1.0119394   -2.4338359   -2.4338359    -1.367904  0.058186422   -2.4338359    1.0659319   957980 
  410000    1.0118151   -2.4339315   -2.4339315   -1.3681305  0.059298641   -2.4339315     1.065801   957980 
  411000    1.0117594   -2.4340125   -2.4340125   -1.3682701  0.062118706   -2.4340125    1.0657423   957980 
  412000    1.0101691   -2.4319505   -2.4319505   -1.3678834  0.061072294   -2.4319505    1.0640671   957980 
  413000    1.0111841   -2.4329213   -2.4329213    -1.367785  0.061148758   -2.4329213    1.0651363   957980 
  414000    1.0115573   -2.4343086   -2.4343086   -1.3687792  0.068313858   -2.4343086    1.0655295   957980 
  415000    1.0097942   -2.4332994   -2.4332994   -1.3696272  0.064340349   -2.4332994    1.0636722   957980 
  416000    1.0095113   -2.4327948   -2.4327948   -1.3694206  0.063445229   -2.4327948    1.0633742   957980 
  417000    1.0113032   -2.4337836   -2.4337836   -1.3685218  0.057349003   -2.4337836    1.0652618   957980 
  418000    1.0104451   -2.4330758   -2.4330758   -1.3687178  0.056045943   -2.4330758     1.064358   957980 
  419000    1.0102937   -2.4334734   -2.4334734   -1.3692751  0.060969201   -2.4334734    1.0641984   957980 
  420000    1.0095156   -2.4321616   -2.4321616   -1.3687829   0.06046607   -2.4321616    1.0633788   957980 
  421000    1.0106508   -2.4339709   -2.4339709   -1.3693963  0.066323704   -2.4339709    1.0645746   957980 
  422000    1.0109739    -2.434519    -2.434519   -1.3696041  0.057777166    -2.434519    1.0649149   957980 
  423000    1.0110781   -2.4344741   -2.4344741   -1.3694494  0.063672697   -2.4344741    1.0650247   957980 
  424000    1.0098757   -2.4341993   -2.4341993   -1.3704412  0.057403185   -2.4341993    1.0637581   957980 
  425000    1.0097752   -2.4338631   -2.4338631   -1.3702108  0.057208189   -2.4338631    1.0636523   957980 
  426000    1.0088411   -2.4323661   -2.4323661   -1.3696978   0.06937387   -2.4323661    1.0626683   957980 
  427000    1.0093922   -2.4329093   -2.4329093   -1.3696605    0.0564485   -2.4329093    1.0632489   957980 
  428000    1.0098015   -2.4330737   -2.4330737   -1.3693938  0.060664552   -2.4330737    1.0636799   957980 
  429000    1.0101021   -2.4338978   -2.4338978   -1.3699012  0.061529525   -2.4338978    1.0639966   957980 
  430000    1.0098569   -2.4334256   -2.4334256   -1.3696873  0.054244014   -2.4334256    1.0637383   957980 
  431000    1.0115218   -2.4348473   -2.4348473   -1.3693553  0.058575253   -2.4348473     1.065492   957980 
  432000    1.0097049   -2.4326967   -2.4326967   -1.3691185  0.060094294   -2.4326967    1.0635782   957980 
  433000    1.0106969   -2.4341265   -2.4341265   -1.3695034  0.066991457   -2.4341265    1.0646232   957980 
  434000    1.0114151   -2.4346232   -2.4346232   -1.3692435  0.061389418   -2.4346232    1.0653797   957980 
  435000    1.0112726   -2.4350344   -2.4350344   -1.3698049  0.057061907   -2.4350344    1.0652295   957980 
  436000    1.0106958   -2.4342857   -2.4342857   -1.3696637  0.064544385   -2.4342857     1.064622   957980 
  437000    1.0097653   -2.4331799   -2.4331799   -1.3695381  0.066631494   -2.4331799    1.0636418   957980 
  438000    1.0105111   -2.4337627   -2.4337627   -1.3693352  0.068628305   -2.4337627    1.0644274   957980 
  439000    1.0110366   -2.4344205   -2.4344205   -1.3694395  0.064108629   -2.4344205     1.064981   957980 
  440000     1.010889   -2.4348634   -2.4348634    -1.370038  0.060858871   -2.4348634    1.0648254   957980 
  441000    1.0109116   -2.4351528   -2.4351528   -1.3703036  0.058384268   -2.4351528    1.0648493   957980 
  442000    1.0108831   -2.4349548   -2.4349548   -1.3701355  0.057840026   -2.4349548    1.0648193   957980 
  443000     1.010899   -2.4351732   -2.4351732   -1.3703371   0.06760425   -2.4351732     1.064836   957980 
  444000    1.0109223   -2.4353486   -2.4353486   -1.3704881  0.057694692   -2.4353486    1.0648605   957980 
  445000    1.0108106   -2.4355898   -2.4355898   -1.3708469  0.066537748   -2.4355898    1.0647429   957980 
  446000    1.0112082   -2.4358202   -2.4358202   -1.3706585  0.056873365   -2.4358202    1.0651617   957980 
  447000    1.0110727   -2.4357913   -2.4357913   -1.3707723  0.065384273   -2.4357913     1.065019   957980 
  448000    1.0111276   -2.4362796   -2.4362796   -1.3712028  0.064108914   -2.4362796    1.0650768   957980 
  449000    1.0096492   -2.4347784   -2.4347784   -1.3712589  0.059171064   -2.4347784    1.0635195   957980 
  450000    1.0105897   -2.4357354   -2.4357354   -1.3712251   0.05702593   -2.4357354    1.0645103   957980 
  451000     1.009157   -2.4343451   -2.4343451    -1.371344  0.061647817   -2.4343451    1.0630011   957980 
  452000    1.0105058   -2.4351485   -2.4351485   -1.3707267  0.056532315   -2.4351485    1.0644218   957980 
  453000    1.0103341    -2.435168    -2.435168   -1.3709271  0.059733476    -2.435168    1.0642409   957980 
  454000    1.0102434   -2.4352116   -2.4352116   -1.3710662  0.067084293   -2.4352116    1.0641455   957980 
  455000    1.0097915   -2.4358537   -2.4358537   -1.3721843  0.065698049   -2.4358537    1.0636694   957980 
  456000    1.0105849   -2.4369275   -2.4369275   -1.3724224  0.061371464   -2.4369275    1.0645051   957980 
  457000    1.0103388   -2.4364116   -2.4364116   -1.3721657  0.060740479   -2.4364116    1.0642459   957980 
  458000    1.0096746   -2.4354534   -2.4354534   -1.3719071  0.059776498   -2.4354534    1.0635463   957980 
  459000    1.0109713   -2.4361055   -2.4361055   -1.3711933  0.067185919   -2.4361055    1.0649122   957980 
  460000    1.0102856   -2.4361102   -2.4361102   -1.3719204  0.056588582   -2.4361102    1.0641898   957980 
  461000    1.0105252   -2.4360522   -2.4360522   -1.3716099  0.064424779   -2.4360522    1.0644423   957980 
  462000    1.0101818   -2.4354194   -2.4354194   -1.3713388   0.06119007   -2.4354194    1.0640806   957980 
  463000    1.0112725   -2.4368585   -2.4368585   -1.3716291  0.062288097   -2.4368585    1.0652294   957980 
  464000     1.010534   -2.4362006   -2.4362006   -1.3717491  0.069509372   -2.4362006    1.0644516   957980 
  465000    1.0109799    -2.436708    -2.436708   -1.3717868  0.058912133    -2.436708    1.0649212   957980 
  466000    1.0109912   -2.4362772   -2.4362772    -1.371344  0.057798018   -2.4362772    1.0649332   957980 
  467000     1.009994   -2.4356892   -2.4356892   -1.3718065  0.059959219   -2.4356892    1.0638827   957980 
  468000    1.0102952   -2.4360577   -2.4360577   -1.3718577  0.067809415   -2.4360577       1.0642   957980 
  469000    1.0106005   -2.4368054   -2.4368054   -1.3722839  0.052344908   -2.4368054    1.0645216   957980 
  470000     1.011115   -2.4370375   -2.4370375   -1.3719739  0.067164879   -2.4370375    1.0650636   957980 
  471000    1.0112425   -2.4375502   -2.4375502   -1.3723523  0.062159794   -2.4375502    1.0651979   957980 
  472000    1.0102661   -2.4369571   -2.4369571   -1.3727877  0.057837485   -2.4369571    1.0641694   957980 
  473000    1.0107128   -2.4367548   -2.4367548   -1.3721148    0.0558021   -2.4367548    1.0646399   957980 
  474000    1.0103282   -2.4368112   -2.4368112   -1.3725764  0.061605412   -2.4368112    1.0642348   957980 
  475000    1.0107485   -2.4368222   -2.4368222   -1.3721447    0.0568807   -2.4368222    1.0646775   957980 
  476000    1.0091254   -2.4355282   -2.4355282   -1.3725603  0.063423896   -2.4355282    1.0629678   957980 
  477000    1.0098061   -2.4362081   -2.4362081   -1.3725233  0.058971486   -2.4362081    1.0636848   957980 
  478000    1.0108053    -2.436874    -2.436874   -1.3721367   0.06234369    -2.436874    1.0647373   957980 
  479000    1.0119516   -2.4381558   -2.4381558    -1.372211  0.062799336   -2.4381558    1.0659448   957980 
  480000    1.0109869   -2.4371536   -2.4371536    -1.372225  0.058352288   -2.4371536    1.0649286   957980 
  481000    1.0103801   -2.4369594   -2.4369594   -1.3726699  0.064904256   -2.4369594    1.0642895   957980 
  482000    1.0100834   -2.4364533   -2.4364533   -1.3724763  0.069880688   -2.4364533    1.0639769   957980 
  483000    1.0101399   -2.4363292   -2.4363292   -1.3722927  0.064785878   -2.4363292    1.0640364   957980 
  484000    1.0112775   -2.4380638   -2.4380638    -1.372829  0.067175129   -2.4380638    1.0652347   957980 
  485000    1.0106987   -2.4381992   -2.4381992   -1.3735741  0.065673167   -2.4381992    1.0646251   957980 
  486000    1.0101695   -2.4382301   -2.4382301   -1.3741625  0.058286578   -2.4382301    1.0640676   957980 
  487000    1.0094402   -2.4371007   -2.4371007   -1.3738013   0.06011367   -2.4371007    1.0632994   957980 
  488000    1.0098464   -2.4376435   -2.4376435   -1.3739163  0.066618501   -2.4376435    1.0637272   957980 
  489000    1.0097284   -2.4375491   -2.4375491   -1.3739461  0.061631722   -2.4375491     1.063603   957980 
  490000    1.0090191   -2.4367788   -2.4367788    -1.373923  0.054231397   -2.4367788    1.0628558   957980 
  491000    1.0106433   -2.4379767   -2.4379767   -1.3734101  0.061767843   -2.4379767    1.0645666   957980 
  492000    1.0106471   -2.4370837   -2.4370837    -1.372513  0.066089088   -2.4370837    1.0645707   957980 
  493000    1.0107975   -2.4377905   -2.4377905   -1.3730615  0.067644376   -2.4377905    1.0647291   957980 
  494000    1.0100962   -2.4377285   -2.4377285   -1.3737382  0.055657766   -2.4377285    1.0639903   957980 
  495000    1.0108928   -2.4387016   -2.4387016   -1.3738721  0.064459753   -2.4387016    1.0648295   957980 
  496000    1.0100866   -2.4377433   -2.4377433    -1.373763   0.06399069   -2.4377433    1.0639803   957980 
  497000    1.0106991   -2.4382856   -2.4382856   -1.3736601  0.057498613   -2.4382856    1.0646255   957980 
  498000    1.0100522   -2.4366408   -2.4366408   -1.3726967  0.069997124   -2.4366408    1.0639441   957980 
  499000    1.0102908   -2.4374575   -2.4374575   -1.3732622  0.060248756   -2.4374575    1.0641953   957980 
  500000    1.0099001   -2.4366951   -2.4366951   -1.3729113   0.05764793   -2.4366951    1.0637838   957980 
  501000    1.0094946    -2.436642    -2.436642   -1.3732853   0.05699854    -2.436642    1.0633567   957980 
  502000    1.0082988   -2.4358713   -2.4358713   -1.3737742  0.063640167   -2.4358713    1.0620971   957980 
  503000    1.0095022   -2.4366661   -2.4366661   -1.3733015  0.058873152   -2.4366661    1.0633647   957980 
  504000    1.0094609   -2.4361332   -2.4361332    -1.372812  0.062546347   -2.4361332    1.0633212   957980 
  505000    1.0108322   -2.4379673   -2.4379673   -1.3732016    0.0650324   -2.4379673    1.0647657   957980 
  506000    1.0102062   -2.4379917   -2.4379917   -1.3738855  0.055742905   -2.4379917    1.0641062   957980 
  507000    1.0110942    -2.438738    -2.438738   -1.3736964  0.056086349    -2.438738    1.0650416   957980 
  508000    1.0113963   -2.4393498   -2.4393498     -1.37399  0.063391647   -2.4393498    1.0653598   957980 
  509000    1.0100962   -2.4382245   -2.4382245   -1.3742341  0.060547095   -2.4382245    1.0639904   957980 
  510000    1.0096807   -2.4379715   -2.4379715   -1.3744188  0.056180526   -2.4379715    1.0635527   957980 
  511000    1.0089715    -2.437375    -2.437375   -1.3745692  0.055639241    -2.437375    1.0628057   957980 
  512000    1.0091643   -2.4373232   -2.4373232   -1.3743145  0.053138166   -2.4373232    1.0630087   957980 
  513000    1.0092931   -2.4372094   -2.4372094    -1.374065   0.06084197   -2.4372094    1.0631444   957980 
  514000    1.0089946   -2.4372349   -2.4372349   -1.3744048  0.062246327   -2.4372349      1.06283   957980 
  515000    1.0089998    -2.436525    -2.436525   -1.3736896  0.062774037    -2.436525    1.0628354   957980 
  516000    1.0112408   -2.4389307   -2.4389307   -1.3737346  0.060785311   -2.4389307     1.065196   957980 
  517000     1.009778   -2.4374619   -2.4374619   -1.3738067  0.061725269   -2.4374619    1.0636552   957980 
  518000    1.0108045    -2.438293    -2.438293   -1.3735565  0.061104163    -2.438293    1.0647365   957980 
  519000    1.0102484   -2.4377668   -2.4377668   -1.3736161  0.056688892   -2.4377668    1.0641507   957980 
  520000     1.011309    -2.438682    -2.438682   -1.3734141  0.056651215    -2.438682    1.0652679   957980 
  521000    1.0116909   -2.4391089   -2.4391089   -1.3734388   0.06133168   -2.4391089    1.0656702   957980 
  522000    1.0105896   -2.4377013   -2.4377013   -1.3731913  0.063079749   -2.4377013    1.0645101   957980 
  523000    1.0110283   -2.4395961   -2.4395961   -1.3746239  0.062026672   -2.4395961    1.0649722   957980 
  524000    1.0110929   -2.4391945   -2.4391945   -1.3741543  0.061043069   -2.4391945    1.0650402   957980 
  525000    1.0113676   -2.4387939   -2.4387939   -1.3734643  0.068591074   -2.4387939    1.0653296   957980 
  526000    1.0110473   -2.4388504   -2.4388504   -1.3738582   0.07267764   -2.4388504    1.0649922   957980 
  527000    1.0120347    -2.440069    -2.440069   -1.3740366  0.062363994    -2.440069    1.0660324   957980 
  528000     1.012442   -2.4401392   -2.4401392   -1.3736779  0.064013342   -2.4401392    1.0664614   957980 
  529000    1.0117894   -2.4393066   -2.4393066   -1.3735327  0.058323906   -2.4393066    1.0657739   957980 
  530000    1.0094628   -2.4379037   -2.4379037   -1.3745805  0.063845573   -2.4379037    1.0633232   957980 
  531000    1.0106076   -2.4394573   -2.4394573   -1.3749283   0.07168745   -2.4394573    1.0645291   957980 
  532000    1.0098159   -2.4385758   -2.4385758   -1.3748807  0.064023521   -2.4385758    1.0636951   957980 
  533000    1.0099439   -2.4399087   -2.4399087   -1.3760787   0.06512019   -2.4399087      1.06383   957980 
  534000     1.010003   -2.4398107   -2.4398107   -1.3759185  0.062850545   -2.4398107    1.0638922   957980 
  535000    1.0108714   -2.4411274   -2.4411274   -1.3763205  0.063408101   -2.4411274    1.0648069   957980 
  536000    1.0115381   -2.4416361   -2.4416361   -1.3761269  0.058011997   -2.4416361    1.0655092   957980 
  537000     1.010479   -2.4415284   -2.4415284   -1.3771347  0.058426635   -2.4415284    1.0643937   957980 
  538000    1.0093545   -2.4408803   -2.4408803   -1.3776713   0.05627603   -2.4408803    1.0632091   957980 
  539000    1.0095675   -2.4411114   -2.4411114   -1.3776779  0.058899427   -2.4411114    1.0634335   957980 
  540000    1.0093504   -2.4400863   -2.4400863   -1.3768815  0.069997206   -2.4400863    1.0632048   957980 
  541000    1.0105382    -2.441591    -2.441591    -1.377135  0.066135326    -2.441591     1.064456   957980 
  542000    1.0103959   -2.4408483   -2.4408483   -1.3765422  0.060450189   -2.4408483    1.0643061   957980 
  543000    1.0101434    -2.441051    -2.441051    -1.377011  0.061110493    -2.441051    1.0640401   957980 
  544000    1.0094127   -2.4403009   -2.4403009   -1.3770305  0.065420815   -2.4403009    1.0632704   957980 
  545000    1.0092881   -2.4405462   -2.4405462   -1.3774071  0.060547523   -2.4405462    1.0631391   957980 
  546000    1.0086925   -2.4401377   -2.4401377   -1.3776258  0.059460035   -2.4401377    1.0625118   957980 
  547000    1.0087797   -2.4392806   -2.4392806   -1.3766769  0.065999777   -2.4392806    1.0626036   957980 
  548000    1.0109751   -2.4418026   -2.4418026   -1.3768864  0.067026316   -2.4418026    1.0649162   957980 
  549000    1.0111428   -2.4421589   -2.4421589   -1.3770661  0.061787126   -2.4421589    1.0650929   957980 
  550000    1.0099004   -2.4406218   -2.4406218   -1.3768377  0.068080994   -2.4406218    1.0637841   957980 
  551000    1.0091809   -2.4393564   -2.4393564   -1.3763302  0.062008288   -2.4393564    1.0630262   957980 
  552000    1.0105319   -2.4409621   -2.4409621   -1.3765128  0.063556646   -2.4409621    1.0644493   957980 
  553000    1.0097623   -2.4403077   -2.4403077    -1.376669  0.065277824   -2.4403077    1.0636387   957980 
  554000    1.0103763   -2.4410357   -2.4410357   -1.3767503  0.060300709   -2.4410357    1.0642854   957980 
  555000    1.0096727   -2.4397451   -2.4397451   -1.3762008  0.069194551   -2.4397451    1.0635443   957980 
  556000    1.0099044    -2.440168    -2.440168   -1.3763797   0.05811762    -2.440168    1.0637883   957980 
  557000    1.0092467    -2.439909    -2.439909   -1.3768134  0.057301308    -2.439909    1.0630956   957980 
  558000    1.0096817   -2.4404984   -2.4404984   -1.3769446  0.067981803   -2.4404984    1.0635538   957980 
  559000    1.0081262   -2.4394032   -2.4394032    -1.377488  0.058856626   -2.4394032    1.0619152   957980 
  560000    1.0097527   -2.4404848   -2.4404848   -1.3768562  0.070866891   -2.4404848    1.0636285   957980 
  561000    1.0080826   -2.4388249   -2.4388249   -1.3769555  0.061503188   -2.4388249    1.0618693   957980 
  562000    1.0098803   -2.4404742   -2.4404742   -1.3767112  0.067184676   -2.4404742    1.0637629   957980 
  563000    1.0099091   -2.4400359   -2.4400359   -1.3762426  0.067052064   -2.4400359    1.0637933   957980 
  564000    1.0087718   -2.4394749   -2.4394749   -1.3768795  0.056425754   -2.4394749    1.0625954   957980 
  565000    1.0097941    -2.439928    -2.439928   -1.3762559  0.064894457    -2.439928    1.0636721   957980 
  566000    1.0091683   -2.4396753   -2.4396753   -1.3766623  0.062888938   -2.4396753     1.063013   957980 
  567000    1.0096976   -2.4403086   -2.4403086   -1.3767382  0.063289779   -2.4403086    1.0635705   957980 
  568000     1.010902   -2.4413417   -2.4413417   -1.3765025  0.063177253   -2.4413417    1.0648392   957980 
  569000    1.0102323   -2.4413043   -2.4413043   -1.3771705   0.06550738   -2.4413043    1.0641338   957980 
  570000    1.0088682   -2.4401323   -2.4401323   -1.3774355  0.060375065   -2.4401323    1.0626969   957980 
  571000    1.0107094   -2.4415596   -2.4415596   -1.3769233   0.06636942   -2.4415596    1.0646363   957980 
  572000    1.0089206   -2.4390036   -2.4390036   -1.3762515  0.057551424   -2.4390036     1.062752   957980 
  573000    1.0097239   -2.4396357   -2.4396357   -1.3760374  0.061248702   -2.4396357    1.0635983   957980 
  574000     1.008611   -2.4392596   -2.4392596   -1.3768337  0.062018885   -2.4392596     1.062426   957980 
  575000    1.0092325    -2.439408    -2.439408   -1.3763274  0.060439109    -2.439408    1.0630806   957980 
  576000    1.0095322   -2.4395796   -2.4395796   -1.3761833  0.062847097   -2.4395796    1.0633963   957980 
  577000    1.0102977   -2.4414236   -2.4414236    -1.377221  0.054654596   -2.4414236    1.0642026   957980 
  578000    1.0079157   -2.4381978   -2.4381978   -1.3765042  0.062117276   -2.4381978    1.0616935   957980 
  579000    1.0097665   -2.4399074   -2.4399074   -1.3762643  0.056960549   -2.4399074    1.0636431   957980 
  580000    1.0096573   -2.4399889   -2.4399889   -1.3764608  0.062110897   -2.4399889    1.0635281   957980 
  581000    1.0086089   -2.4392404   -2.4392404   -1.3768167  0.068276576   -2.4392404    1.0624237   957980 
  582000    1.0087937   -2.4395589   -2.4395589   -1.3769405  0.054534492   -2.4395589    1.0626184   957980 
  583000     1.008963    -2.439664    -2.439664   -1.3768673  0.065628054    -2.439664    1.0627967   957980 
  584000    1.0086885    -2.439931    -2.439931   -1.3774234  0.063399033    -2.439931    1.0625076   957980 
  585000    1.0078782   -2.4387792   -2.4387792   -1.3771252  0.061477965   -2.4387792     1.061654   957980 
  586000    1.0079463   -2.4390225   -2.4390225   -1.3772967  0.067679271   -2.4390225    1.0617258   957980 
  587000    1.0090339    -2.439751    -2.439751   -1.3768796  0.061304594    -2.439751    1.0628714   957980 
  588000     1.009384   -2.4403022   -2.4403022    -1.377062  0.060507713   -2.4403022    1.0632402   957980 
  589000     1.009404   -2.4406906   -2.4406906   -1.3774293  0.058345904   -2.4406906    1.0632613   957980 
  590000    1.0095236   -2.4403398   -2.4403398   -1.3769525  0.058013144   -2.4403398    1.0633873   957980 
  591000      1.00945   -2.4403489   -2.4403489   -1.3770391  0.066282882   -2.4403489    1.0633098   957980 
  592000    1.0101174   -2.4405236   -2.4405236    -1.376511  0.062307924   -2.4405236    1.0640127   957980 
  593000    1.0095554   -2.4404259   -2.4404259   -1.3770051  0.062982765   -2.4404259    1.0634207   957980 
  594000    1.0095614   -2.4408623   -2.4408623   -1.3774353  0.060748413   -2.4408623     1.063427   957980 
  595000    1.0097927   -2.4410103   -2.4410103   -1.3773396  0.060378651   -2.4410103    1.0636707   957980 
  596000    1.0096247   -2.4410132   -2.4410132   -1.3775195   0.06176486   -2.4410132    1.0634937   957980 
  597000    1.0099076   -2.4411134   -2.4411134   -1.3773217  0.059435903   -2.4411134    1.0637917   957980 
  598000      1.00978   -2.4409314   -2.4409314   -1.3772741  0.065247478   -2.4409314    1.0636573   957980 
  599000    1.0091953   -2.4404483   -2.4404483   -1.3774068  0.068101544   -2.4404483    1.0630415   957980 
  600000    1.0097494   -2.4409877   -2.4409877   -1.3773626  0.065978091   -2.4409877    1.0636251   957980 
  601000    1.0094026   -2.4413047   -2.4413047   -1.3780449  0.065231456   -2.4413047    1.0632598   957980 
  602000    1.0099049   -2.4422166   -2.4422166   -1.3784277  0.056788662   -2.4422166    1.0637888   957980 
  603000    1.0103026   -2.4421811   -2.4421811   -1.3779733  0.066940041   -2.4421811    1.0642078   957980 
  604000    1.0085836   -2.4401524   -2.4401524   -1.3777552  0.070425718   -2.4401524    1.0623971   957980 
  605000    1.0097597   -2.4421052   -2.4421052   -1.3784693  0.063144366   -2.4421052     1.063636   957980 
  606000    1.0091071   -2.4417128   -2.4417128   -1.3787643  0.067093899   -2.4417128    1.0629485   957980 
  607000    1.0086281   -2.4418377   -2.4418377   -1.3793938  0.061722374   -2.4418377     1.062444   957980 
  608000    1.0100037   -2.4427282   -2.4427282   -1.3788352  0.066131082   -2.4427282     1.063893   957980 
  609000    1.0095439   -2.4427217   -2.4427217   -1.3793131  0.060281595   -2.4427217    1.0634086   957980 
  610000    1.0091534   -2.4428914   -2.4428914   -1.3798941   0.06037668   -2.4428914    1.0629973   957980 
  611000    1.0095695    -2.443046    -2.443046   -1.3796104  0.060082693    -2.443046    1.0634356   957980 
  612000    1.0097462   -2.4431848   -2.4431848   -1.3795631  0.070336952   -2.4431848    1.0636217   957980 
  613000    1.0084938   -2.4422499   -2.4422499   -1.3799474  0.067689404   -2.4422499    1.0623025   957980 
  614000    1.0102736   -2.4436047   -2.4436047   -1.3794274  0.060552044   -2.4436047    1.0641772   957980 
  615000    1.0089935   -2.4421073   -2.4421073   -1.3792784  0.062275986   -2.4421073    1.0628289   957980 
  616000    1.0104072   -2.4435913   -2.4435913   -1.3792734  0.064314732   -2.4435913     1.064318   957980 
  617000    1.0096382   -2.4433279   -2.4433279     -1.37982  0.063710448   -2.4433279     1.063508   957980 
  618000    1.0102375   -2.4443022   -2.4443022    -1.380163  0.067011504   -2.4443022    1.0641392   957980 
  619000    1.0089517   -2.4431617   -2.4431617   -1.3803768  0.062774651   -2.4431617    1.0627848   957980 
  620000    1.0097284   -2.4439845   -2.4439845   -1.3803816  0.060551656   -2.4439845    1.0636029   957980 
  621000     1.009544    -2.443274    -2.443274   -1.3798653  0.065481539    -2.443274    1.0634087   957980 
  622000    1.0094413   -2.4433397   -2.4433397   -1.3800391  0.059243439   -2.4433397    1.0633006   957980 
  623000    1.0094571   -2.4433394   -2.4433394   -1.3800222  0.070246313   -2.4433394    1.0633171   957980 
  624000    1.0101437    -2.443806    -2.443806   -1.3797656  0.062939187    -2.443806    1.0640404   957980 
  625000    1.0095809   -2.4431053   -2.4431053   -1.3796576  0.067320663   -2.4431053    1.0634476   957980 
  626000    1.0105771   -2.4436865   -2.4436865   -1.3791896  0.063743555   -2.4436865    1.0644969   957980 
  627000    1.0096882    -2.443579    -2.443579   -1.3800184  0.060863759    -2.443579    1.0635606   957980 
  628000    1.0094548   -2.4431866   -2.4431866   -1.3798718  0.065598119   -2.4431866    1.0633148   957980 
  629000    1.0090933   -2.4424026   -2.4424026   -1.3794686  0.066664306   -2.4424026     1.062934   957980 
  630000    1.0105914   -2.4444875   -2.4444875   -1.3799755  0.066648493   -2.4444875     1.064512   957980 
  631000    1.0116983   -2.4456285   -2.4456285   -1.3799505  0.065833385   -2.4456285     1.065678   957980 
  632000    1.0105738   -2.4449493   -2.4449493   -1.3804558   0.05855893   -2.4449493    1.0644935   957980 
  633000    1.0094357   -2.4432436   -2.4432436    -1.379949  0.077654879   -2.4432436    1.0632946   957980 
  634000    1.0103127   -2.4444202   -2.4444202   -1.3802018  0.061073156   -2.4444202    1.0642185   957980 
  635000    1.0090615   -2.4427877   -2.4427877   -1.3798872  0.057434029   -2.4427877    1.0629005   957980 
  636000    1.0108734   -2.4452285   -2.4452285   -1.3804195  0.059988811   -2.4452285     1.064809   957980 
  637000    1.0089248   -2.4436823   -2.4436823   -1.3809258  0.059762709   -2.4436823    1.0627565   957980 
  638000    1.0100489   -2.4449519   -2.4449519   -1.3810113  0.062291849   -2.4449519    1.0639406   957980 
  639000    1.0094782   -2.4441819   -2.4441819   -1.3808426  0.062091584   -2.4441819    1.0633394   957980 
  640000    1.0101669   -2.4450488   -2.4450488    -1.380984  0.065412905   -2.4450488    1.0640649   957980 
  641000    1.0094594   -2.4439929   -2.4439929   -1.3806732  0.056842178   -2.4439929    1.0633196   957980 
  642000    1.0092279   -2.4442426   -2.4442426   -1.3811668  0.061680398   -2.4442426    1.0630758   957980 
  643000    1.0093584   -2.4438495   -2.4438495   -1.3806363  0.058838116   -2.4438495    1.0632132   957980 
  644000    1.0089822   -2.4437029   -2.4437029   -1.3808859  0.054769309   -2.4437029     1.062817   957980 
  645000    1.0081467   -2.4434613   -2.4434613   -1.3815245  0.056878086   -2.4434613    1.0619369   957980 
  646000    1.0094406   -2.4441966   -2.4441966   -1.3808968  0.060895829   -2.4441966    1.0632998   957980 
  647000    1.0101178   -2.4446242   -2.4446242   -1.3806111  0.061839075   -2.4446242    1.0640131   957980 
  648000    1.0097913   -2.4442185   -2.4442185   -1.3805492  0.067740598   -2.4442185    1.0636693   957980 
  649000    1.0099153    -2.444605    -2.444605   -1.3808051  0.065396011    -2.444605    1.0637999   957980 
  650000    1.0102297   -2.4452742   -2.4452742   -1.3811432   0.06544438   -2.4452742     1.064131   957980 
  651000    1.0113175   -2.4455529   -2.4455529    -1.380276  0.070147541   -2.4455529    1.0652769   957980 
  652000    1.0111347   -2.4449608   -2.4449608   -1.3798766  0.070611029   -2.4449608    1.0650843   957980 
  653000    1.0104417   -2.4446022   -2.4446022   -1.3802479  0.069308502   -2.4446022    1.0643543   957980 
  654000    1.0115611   -2.4454735   -2.4454735     -1.37994  0.068578902   -2.4454735    1.0655335   957980 
  655000    1.0111746   -2.4448221   -2.4448221   -1.3796958  0.063441792   -2.4448221    1.0651263   957980 
  656000    1.0112275   -2.4452405   -2.4452405   -1.3800584  0.059974316   -2.4452405    1.0651821   957980 
  657000    1.0098605   -2.4442596   -2.4442596   -1.3805175  0.064234511   -2.4442596    1.0637421   957980 
  658000     1.012062   -2.4461043   -2.4461043   -1.3800432  0.065447455   -2.4461043    1.0660611   957980 
  659000    1.0097734   -2.4439476   -2.4439476   -1.3802972  0.064285736   -2.4439476    1.0636504   957980 
  660000    1.0109071   -2.4458231   -2.4458231   -1.3809786  0.061417785   -2.4458231    1.0648445   957980 
  661000    1.0093378   -2.4448019   -2.4448019   -1.3816105  0.059864644   -2.4448019    1.0631915   957980 
  662000    1.0089485   -2.4442818   -2.4442818   -1.3815003   0.06326491   -2.4442818    1.0627815   957980 
  663000    1.0087938   -2.4440515   -2.4440515    -1.381433  0.065008982   -2.4440515    1.0626185   957980 
  664000    1.0084497   -2.4443812   -2.4443812   -1.3821252  0.064424743   -2.4443812     1.062256   957980 
  665000    1.0077251   -2.4435689   -2.4435689   -1.3820761   0.06869831   -2.4435689    1.0614928   957980 
  666000    1.0096451    -2.445026    -2.445026   -1.3815108  0.058127155    -2.445026    1.0635152   957980 
  667000    1.0088475   -2.4448337   -2.4448337   -1.3821586  0.056904509   -2.4448337    1.0626751   957980 
  668000    1.0088194   -2.4448663   -2.4448663   -1.3822209  0.057598689   -2.4448663    1.0626454   957980 
  669000    1.0092121    -2.444982    -2.444982   -1.3819228  0.068432999    -2.444982    1.0630592   957980 
  670000    1.0090767   -2.4446783   -2.4446783   -1.3817618  0.065016424   -2.4446783    1.0629165   957980 
  671000    1.0083945   -2.4440783   -2.4440783   -1.3818805  0.063162496   -2.4440783    1.0621979   957980 
  672000    1.0080127   -2.4435121   -2.4435121   -1.3817164  0.064546452   -2.4435121    1.0617958   957980 
  673000    1.0087831   -2.4444167   -2.4444167   -1.3818095  0.059556716   -2.4444167    1.0626072   957980 
  674000    1.0076151   -2.4434707   -2.4434707   -1.3820937  0.056492834   -2.4434707    1.0613769   957980 
  675000    1.0077016    -2.443664    -2.443664   -1.3821961  0.067534546    -2.443664     1.061468   957980 
  676000    1.0084899   -2.4449786   -2.4449786   -1.3826802  0.059001208   -2.4449786    1.0622983   957980 
  677000    1.0087367   -2.4444715   -2.4444715   -1.3819132  0.058288784   -2.4444715    1.0625583   957980 
  678000    1.0079323   -2.4437426   -2.4437426   -1.3820315  0.060919619   -2.4437426     1.061711   957980 
  679000     1.009212    -2.444368    -2.444368    -1.381309  0.070616942    -2.444368     1.063059   957980 
  680000    1.0099439    -2.445613    -2.445613   -1.3817831  0.062544133    -2.445613    1.0638299   957980 
  681000    1.0096797   -2.4447094   -2.4447094   -1.3811577  0.061609836   -2.4447094    1.0635517   957980 
  682000      1.00907   -2.4441517   -2.4441517   -1.3812422  0.061017499   -2.4441517    1.0629094   957980 
  683000    1.0084412   -2.4435657   -2.4435657   -1.3813186  0.064052461   -2.4435657    1.0622471   957980 
  684000    1.0096105   -2.4449726   -2.4449726   -1.3814938  0.064352819   -2.4449726    1.0634788   957980 
  685000    1.0097539   -2.4450457   -2.4450457   -1.3814158  0.065677762   -2.4450457    1.0636299   957980 
  686000    1.0088575   -2.4443317   -2.4443317   -1.3816462  0.068783789   -2.4443317    1.0626855   957980 
  687000    1.0092078    -2.445319    -2.445319   -1.3822644  0.063462479    -2.445319    1.0630546   957980 
  688000    1.0099035   -2.4459732   -2.4459732   -1.3821858  0.058945074   -2.4459732    1.0637874   957980 
  689000    1.0095407   -2.4450963   -2.4450963    -1.381691  0.058483142   -2.4450963    1.0634053   957980 
  690000    1.0102528   -2.4455767   -2.4455767   -1.3814214  0.064618817   -2.4455767    1.0641553   957980 
  691000    1.0095583    -2.445486    -2.445486   -1.3820623  0.062170189    -2.445486    1.0634238   957980 
  692000    1.0093755   -2.4455907   -2.4455907   -1.3823595  0.066682746   -2.4455907    1.0632312   957980 
  693000    1.0096782   -2.4459843   -2.4459843   -1.3824342  0.057057276   -2.4459843      1.06355   957980 
  694000    1.0098827   -2.4467865   -2.4467865    -1.383021  0.067889765   -2.4467865    1.0637655   957980 
  695000     1.009223   -2.4459536   -2.4459536   -1.3828831   0.06711405   -2.4459536    1.0630706   957980 
  696000    1.0095143   -2.4461814   -2.4461814    -1.382804  0.056992496   -2.4461814    1.0633774   957980 
  697000    1.0088704   -2.4460093   -2.4460093   -1.3833102  0.062372807   -2.4460093    1.0626992   957980 
  698000    1.0092625   -2.4459349   -2.4459349   -1.3828227  0.073789093   -2.4459349    1.0631122   957980 
  699000    1.0093161   -2.4468513   -2.4468513   -1.3836826  0.055997016   -2.4468513    1.0631687   957980 
  700000    1.0095557   -2.4464389   -2.4464389   -1.3830179  0.058199823   -2.4464389     1.063421   957980 
  701000    1.0083894   -2.4448765   -2.4448765   -1.3826839  0.067829954   -2.4448765    1.0621925   957980 
  702000    1.0091993   -2.4462826   -2.4462826   -1.3832369   0.06834208   -2.4462826    1.0630456   957980 
  703000    1.0099735   -2.4468807   -2.4468807   -1.3830196  0.057101524   -2.4468807    1.0638611   957980 
  704000    1.0097101   -2.4468686   -2.4468686   -1.3832849  0.065224119   -2.4468686    1.0635836   957980 
  705000    1.0104523   -2.4472174   -2.4472174   -1.3828519  0.063347183   -2.4472174    1.0643655   957980 
  706000    1.0097834   -2.4467198   -2.4467198   -1.3830589  0.069072095   -2.4467198    1.0636609   957980 
  707000    1.0087883   -2.4461539   -2.4461539   -1.3835412  0.069688785   -2.4461539    1.0626127   957980 
  708000    1.0089647   -2.4469092   -2.4469092   -1.3841107  0.067913624   -2.4469092    1.0627986   957980 
  709000    1.0105557   -2.4475976   -2.4475976   -1.3831232   0.06129235   -2.4475976    1.0644744   957980 
  710000    1.0082766   -2.4456068   -2.4456068   -1.3835331  0.070298582   -2.4456068    1.0620737   957980 
  711000    1.0093544    -2.447037    -2.447037    -1.383828  0.055593179    -2.447037     1.063209   957980 
  712000    1.0081572   -2.4459716   -2.4459716   -1.3840237  0.065360706   -2.4459716    1.0619479   957980 
  713000    1.0098146   -2.4474332   -2.4474332   -1.3837394  0.059277704   -2.4474332    1.0636938   957980 
  714000    1.0084219   -2.4467382   -2.4467382   -1.3845114  0.062687599   -2.4467382    1.0622268   957980 
  715000     1.008554    -2.446592    -2.446592   -1.3842261  0.056499382    -2.446592    1.0623659   957980 
  716000    1.0088453   -2.4471172   -2.4471172   -1.3844444  0.062466312   -2.4471172    1.0626728   957980 
  717000    1.0078346   -2.4455996   -2.4455996   -1.3839915    0.0584485   -2.4455996    1.0616081   957980 
  718000    1.0074222   -2.4457703   -2.4457703   -1.3845966  0.061214441   -2.4457703    1.0611737   957980 
  719000    1.0074516    -2.445478    -2.445478   -1.3842733  0.064327542    -2.445478    1.0612047   957980 
  720000    1.0072914   -2.4448152   -2.4448152   -1.3837792  0.061745323   -2.4448152     1.061036   957980 
  721000    1.0093479   -2.4466509   -2.4466509   -1.3834487  0.059137211   -2.4466509    1.0632022   957980 
  722000    1.0080562   -2.4446548   -2.4446548   -1.3828133  0.066188014   -2.4446548    1.0618415   957980 
  723000    1.0095091   -2.4460818   -2.4460818   -1.3827099  0.066821423   -2.4460818    1.0633719   957980 
  724000    1.0080336    -2.445383    -2.445383   -1.3835653  0.067695412    -2.445383    1.0618177   957980 
  725000    1.0098435   -2.4466035   -2.4466035   -1.3828793  0.061282036   -2.4466035    1.0637242   957980 
  726000    1.0095005   -2.4466775   -2.4466775   -1.3833147  0.059399013   -2.4466775    1.0633629   957980 
  727000    1.0093792   -2.4464156   -2.4464156   -1.3831806   0.05663957   -2.4464156    1.0632351   957980 
  728000    1.0087123   -2.4454223   -2.4454223   -1.3828897  0.066690191   -2.4454223    1.0625327   957980 
  729000    1.0104986   -2.4470345   -2.4470345   -1.3826202  0.066318709   -2.4470345    1.0644143   957980 
  730000    1.0091302   -2.4454844   -2.4454844   -1.3825116  0.066630081   -2.4454844    1.0629729   957980 
  731000     1.009251   -2.4452609   -2.4452609   -1.3821609  0.063788932   -2.4452609       1.0631   957980 
  732000    1.0093428   -2.4458719   -2.4458719   -1.3826751  0.062806094   -2.4458719    1.0631968   957980 
  733000    1.0095009   -2.4464074   -2.4464074   -1.3830441  0.061290069   -2.4464074    1.0633633   957980 
  734000    1.0091765   -2.4462126   -2.4462126   -1.3831909  0.057918783   -2.4462126    1.0630216   957980 
  735000    1.0088427   -2.4454498   -2.4454498   -1.3827798  0.065233698   -2.4454498      1.06267   957980 
  736000    1.0092132   -2.4457867   -2.4457867   -1.3827265  0.063480673   -2.4457867    1.0630602   957980 
  737000    1.0100589   -2.4467015   -2.4467015   -1.3827503  0.069784335   -2.4467015    1.0639511   957980 
  738000    1.0086711   -2.4456213   -2.4456213    -1.383132  0.062859265   -2.4456213    1.0624893   957980 
  739000    1.0088915   -2.4454932   -2.4454932   -1.3827718  0.059601255   -2.4454932    1.0627214   957980 
  740000    1.0093356   -2.4461897   -2.4461897   -1.3830004  0.055533848   -2.4461897    1.0631892   957980 
  741000    1.0091218   -2.4467716   -2.4467716   -1.3838076  0.067675668   -2.4467716     1.062964   957980 
  742000    1.0081625   -2.4461312   -2.4461312   -1.3841776  0.063548425   -2.4461312    1.0619536   957980 
  743000    1.0092457   -2.4471475   -2.4471475    -1.384053   0.06559214   -2.4471475    1.0630945   957980 
  744000    1.0081483   -2.4458563   -2.4458563   -1.3839177  0.071576557   -2.4458563    1.0619385   957980 
  745000    1.0088106   -2.4460062   -2.4460062   -1.3833701  0.061126565   -2.4460062    1.0626361   957980 
  746000    1.0091532   -2.4463462   -2.4463462   -1.3833491  0.056351581   -2.4463462    1.0629971   957980 
  747000    1.0080656    -2.445469    -2.445469   -1.3836176   0.06072426    -2.445469    1.0618514   957980 
  748000    1.0076566   -2.4457133   -2.4457133   -1.3842927  0.071561741   -2.4457133    1.0614206   957980 
  749000    1.0084739   -2.4463224   -2.4463224   -1.3840409  0.061155252   -2.4463224    1.0622816   957980 
  750000    1.0090038   -2.4463928   -2.4463928   -1.3835531  0.060174757   -2.4463928    1.0628397   957980 
  751000     1.008641   -2.4466614   -2.4466614   -1.3842038  0.066060312   -2.4466614    1.0624576   957980 
  752000    1.0076562   -2.4460922   -2.4460922    -1.384672  0.056532597   -2.4460922    1.0614202   957980 
  753000    1.0083308   -2.4465277   -2.4465277   -1.3843969  0.061734283   -2.4465277    1.0621308   957980 
  754000     1.009821   -2.4470495   -2.4470495    -1.383349  0.059999074   -2.4470495    1.0637005   957980 
  755000    1.0097594   -2.4477453   -2.4477453   -1.3841097  0.065112164   -2.4477453    1.0636357   957980 
  756000      1.00844   -2.4472374   -2.4472374   -1.3849916  0.064633786   -2.4472374    1.0622458   957980 
  757000    1.0100432   -2.4476361   -2.4476361   -1.3837015  0.070701405   -2.4476361    1.0639346   957980 
  758000     1.010127   -2.4480192   -2.4480192   -1.3839964  0.067096841   -2.4480192    1.0640228   957980 
  759000    1.0096071   -2.4475296   -2.4475296   -1.3840544  0.062531414   -2.4475296    1.0634752   957980 
  760000    1.0094423   -2.4475747   -2.4475747   -1.3842731  0.062619072   -2.4475747    1.0633016   957980 
  761000    1.0096879   -2.4475268   -2.4475268   -1.3839666  0.060001377   -2.4475268    1.0635603   957980 
  762000    1.0092643   -2.4469779   -2.4469779   -1.3838638  0.068700954   -2.4469779    1.0631141   957980 
  763000    1.0094922   -2.4475243   -2.4475243   -1.3841701  0.060119996   -2.4475243    1.0633541   957980 
  764000    1.0090621   -2.4467376   -2.4467376   -1.3838365  0.063653532   -2.4467376    1.0629011   957980 
  765000    1.0089179   -2.4467133   -2.4467133    -1.383964  0.066305831   -2.4467133    1.0627492   957980 
  766000    1.0087639   -2.4471924   -2.4471924   -1.3846055   0.06714456   -2.4471924     1.062587   957980 
  767000    1.0097428   -2.4482794   -2.4482794   -1.3846614  0.068650208   -2.4482794    1.0636181   957980 
  768000    1.0102396    -2.448632    -2.448632   -1.3844905  0.069048666    -2.448632    1.0641415   957980 
  769000    1.0084853   -2.4465429   -2.4465429   -1.3842493  0.066995877   -2.4465429    1.0622936   957980 
  770000    1.0088615   -2.4466919   -2.4466919   -1.3840021  0.059530493   -2.4466919    1.0626898   957980 
  771000     1.009744    -2.447753    -2.447753   -1.3841336  0.066228127    -2.447753    1.0636194   957980 
  772000    1.0098367     -2.44803     -2.44803   -1.3843129  0.061654907     -2.44803    1.0637171   957980 
  773000    1.0097256   -2.4473376   -2.4473376   -1.3837376  0.061761214   -2.4473376       1.0636   957980 
  774000     1.009567   -2.4475566   -2.4475566   -1.3841236  0.061659223   -2.4475566    1.0634329   957980 
  775000    1.0091328   -2.4476687   -2.4476687   -1.3846931  0.064840417   -2.4476687    1.0629755   957980 
  776000    1.0085949   -2.4472868   -2.4472868   -1.3848779  0.057815914   -2.4472868    1.0624089   957980 
  777000    1.0090466   -2.4478401   -2.4478401   -1.3849554  0.064936447   -2.4478401    1.0628847   957980 
  778000    1.0080313   -2.4472675   -2.4472675   -1.3854522   0.06401738   -2.4472675    1.0618153   957980 
  779000    1.0093597   -2.4483634   -2.4483634   -1.3851489  0.063270318   -2.4483634    1.0632145   957980 
  780000    1.0096848   -2.4489109   -2.4489109   -1.3853539  0.061269494   -2.4489109     1.063557   957980 
  781000    1.0088099   -2.4479592   -2.4479592   -1.3853238  0.068466577   -2.4479592    1.0626354   957980 
  782000    1.0088458   -2.4485866   -2.4485866   -1.3859133  0.064832862   -2.4485866    1.0626733   957980 
  783000    1.0088742   -2.4489471   -2.4489471    -1.386244  0.061970919   -2.4489471    1.0627032   957980 
  784000    1.0086498   -2.4478397   -2.4478397   -1.3853728  0.065835219   -2.4478397    1.0624669   957980 
  785000     1.007998   -2.4472489   -2.4472489   -1.3854686  0.076101513   -2.4472489    1.0617803   957980 
  786000     1.008715   -2.4478693   -2.4478693   -1.3853338  0.063560176   -2.4478693    1.0625355   957980 
  787000    1.0089494   -2.4485794   -2.4485794    -1.385797   0.06741307   -2.4485794    1.0627824   957980 
  788000    1.0090964   -2.4490347   -2.4490347   -1.3860975  0.063714387   -2.4490347    1.0629372   957980 
  789000    1.0084573    -2.448234    -2.448234     -1.38597  0.064532311    -2.448234     1.062264   957980 
  790000    1.0082933   -2.4482764   -2.4482764   -1.3861851  0.066444544   -2.4482764    1.0620913   957980 
  791000    1.0086656   -2.4493673   -2.4493673   -1.3868838  0.069491951   -2.4493673    1.0624835   957980 
  792000    1.0092436   -2.4495331   -2.4495331   -1.3864408  0.062951244   -2.4495331    1.0630923   957980 
  793000    1.0097745    -2.449975    -2.449975   -1.3863235  0.065890138    -2.449975    1.0636515   957980 
  794000    1.0087875   -2.4489027   -2.4489027   -1.3862908  0.073064065   -2.4489027    1.0626118   957980 
  795000    1.0093908   -2.4497373   -2.4497373   -1.3864899   0.07030014   -2.4497373    1.0632474   957980 
  796000    1.0094429    -2.449696    -2.449696   -1.3863938  0.062935964    -2.449696    1.0633022   957980 
  797000    1.0097409   -2.4501622   -2.4501622   -1.3865461  0.065347537   -2.4501622    1.0636161   957980 
  798000    1.0101516   -2.4496846   -2.4496846   -1.3856359  0.069581468   -2.4496846    1.0640487   957980 
  799000     1.009782    -2.449855    -2.449855   -1.3861956  0.059994036    -2.449855    1.0636594   957980 
  800000    1.0094837   -2.4499045   -2.4499045   -1.3865592  0.071262802   -2.4499045    1.0633452   957980 
  801000    1.0086547   -2.4489052   -2.4489052   -1.3864333  0.066198523   -2.4489052     1.062472   957980 
  802000    1.0085938   -2.4484299   -2.4484299    -1.386022  0.062594033   -2.4484299    1.0624079   957980 
  803000    1.0087847   -2.4491508   -2.4491508   -1.3865419  0.061613208   -2.4491508    1.0626089   957980 
  804000    1.0077621    -2.448046    -2.448046   -1.3865143  0.070208326    -2.448046    1.0615318   957980 
  805000    1.0082246   -2.4486673   -2.4486673   -1.3866483  0.062772842   -2.4486673    1.0620189   957980 
  806000    1.0080122   -2.4479509   -2.4479509   -1.3861557   0.07105817   -2.4479509    1.0617952   957980 
  807000    1.0074341   -2.4474535   -2.4474535   -1.3862673  0.067258254   -2.4474535    1.0611862   957980 
  808000    1.0091321   -2.4493052   -2.4493052   -1.3863304  0.062734118   -2.4493052    1.0629748   957980 
  809000     1.008249   -2.4484867   -2.4484867    -1.386442  0.062141728   -2.4484867    1.0620447   957980 
  810000    1.0077855   -2.4478479   -2.4478479   -1.3862915  0.063693977   -2.4478479    1.0615564   957980 
  811000    1.0079862   -2.4471197   -2.4471197    -1.385352  0.059655359   -2.4471197    1.0617678   957980 
  812000    1.0085839    -2.447682    -2.447682   -1.3852846  0.060354518    -2.447682    1.0623974   957980 
  813000    1.0088429   -2.4480787   -2.4480787   -1.3854085  0.069469101   -2.4480787    1.0626702   957980 
  814000    1.0092274   -2.4487448   -2.4487448   -1.3856696  0.054331617   -2.4487448    1.0630752   957980 
  815000    1.0070252   -2.4466275   -2.4466275    -1.385872  0.062367441   -2.4466275    1.0607555   957980 
  816000    1.0073555   -2.4468086   -2.4468086   -1.3857051  0.054904402   -2.4468086    1.0611034   957980 
  817000    1.0081827   -2.4479409   -2.4479409   -1.3859661  0.061563985   -2.4479409    1.0619748   957980 
  818000    1.0078705    -2.448121    -2.448121   -1.3864751  0.060450596    -2.448121    1.0616459   957980 
  819000    1.0071932   -2.4473599   -2.4473599   -1.3864274  0.065603804   -2.4473599    1.0609325   957980 
  820000    1.0077777   -2.4483695   -2.4483695   -1.3868213  0.060118876   -2.4483695    1.0615482   957980 
  821000    1.0082416   -2.4481428   -2.4481428    -1.386106  0.061514914   -2.4481428    1.0620368   957980 
  822000    1.0081168   -2.4476702   -2.4476702   -1.3857648  0.066683916   -2.4476702    1.0619054   957980 
  823000    1.0077929   -2.4464304   -2.4464304   -1.3848662  0.067443791   -2.4464304    1.0615642   957980 
  824000    1.0088089   -2.4478345   -2.4478345   -1.3852001   0.06507091   -2.4478345    1.0626344   957980 
  825000    1.0079567   -2.4467524   -2.4467524   -1.3850156   0.06674589   -2.4467524    1.0617368   957980 
  826000    1.0086391   -2.4490078   -2.4490078   -1.3865523    0.0574688   -2.4490078    1.0624556   957980 
  827000    1.0083473   -2.4484344   -2.4484344   -1.3862862  0.063515133   -2.4484344    1.0621482   957980 
  828000    1.0081796   -2.4477988   -2.4477988   -1.3858273   0.07369114   -2.4477988    1.0619715   957980 
  829000    1.0092067   -2.4487951   -2.4487951   -1.3857417  0.061663987   -2.4487951    1.0630534   957980 
  830000    1.0100978   -2.4495546   -2.4495546   -1.3855626  0.060715703   -2.4495546    1.0639921   957980 
  831000    1.0091949   -2.4488589   -2.4488589   -1.3858179  0.062142517   -2.4488589     1.063041   957980 
  832000    1.0101857   -2.4494216   -2.4494216    -1.385337  0.060775234   -2.4494216    1.0640846   957980 
  833000     1.010434   -2.4505445   -2.4505445   -1.3861983  0.056782561   -2.4505445    1.0643462   957980 
  834000    1.0092414   -2.4488539   -2.4488539   -1.3857639  0.064441205   -2.4488539    1.0630899   957980 
  835000     1.008465    -2.447965    -2.447965   -1.3856929  0.068702354    -2.447965    1.0622721   957980 
  836000    1.0100698    -2.449755    -2.449755   -1.3857924  0.069399033    -2.449755    1.0639625   957980 
  837000    1.0093244   -2.4491376   -2.4491376   -1.3859601  0.062022326   -2.4491376    1.0631774   957980 
  838000     1.009054   -2.4493534   -2.4493534   -1.3864608  0.061779699   -2.4493534    1.0628926   957980 
  839000    1.0091602   -2.4500691   -2.4500691   -1.3870646  0.067476943   -2.4500691    1.0630045   957980 
  840000    1.0075736   -2.4486656   -2.4486656   -1.3873323  0.065761077   -2.4486656    1.0613332   957980 
  841000    1.0083045   -2.4494258   -2.4494258   -1.3873227  0.064122115   -2.4494258    1.0621031   957980 
  842000    1.0080937   -2.4499071   -2.4499071    -1.388026  0.062346519   -2.4499071     1.061881   957980 
  843000    1.0088632   -2.4504238   -2.4504238   -1.3877322  0.066857174   -2.4504238    1.0626916   957980 
  844000    1.0064805   -2.4484386   -2.4484386   -1.3882569  0.061076578   -2.4484386    1.0601818   957980 
  845000    1.0071449    -2.448617    -2.448617   -1.3877354  0.060730376    -2.448617    1.0608816   957980 
  846000    1.0083986   -2.4496597   -2.4496597   -1.3874576  0.070006786   -2.4496597    1.0622022   957980 
  847000     1.008641   -2.4504242   -2.4504242   -1.3879666  0.071046998   -2.4504242    1.0624576   957980 
  848000    1.0081125   -2.4497249   -2.4497249   -1.3878241  0.062386638   -2.4497249    1.0619008   957980 
  849000    1.0081926   -2.4503274   -2.4503274   -1.3883421  0.065778294   -2.4503274    1.0619853   957980 
  850000    1.0080455   -2.4489408   -2.4489408   -1.3871105  0.063361741   -2.4489408    1.0618303   957980 
  851000    1.0070192   -2.4481588   -2.4481588   -1.3874095   0.06413812   -2.4481588    1.0607493   957980 
  852000    1.0079853   -2.4486304   -2.4486304   -1.3868636  0.054228334   -2.4486304    1.0617668   957980 
  853000    1.0070454   -2.4479153   -2.4479153   -1.3871385  0.067617109   -2.4479153    1.0607768   957980 
  854000    1.0081213   -2.4491744   -2.4491744   -1.3872643  0.066333202   -2.4491744    1.0619102   957980 
  855000    1.0083956    -2.449184    -2.449184   -1.3869849  0.063832517    -2.449184    1.0621991   957980 
  856000    1.0084157   -2.4491874   -2.4491874   -1.3869671   0.06877045   -2.4491874    1.0622203   957980 
  857000    1.0088121   -2.4505504   -2.4505504   -1.3879126  0.059585514   -2.4505504    1.0626378   957980 
  858000    1.0088112   -2.4497555   -2.4497555   -1.3871186  0.061419868   -2.4497555    1.0626368   957980 
  859000    1.0082122   -2.4494157   -2.4494157   -1.3874099   0.05956789   -2.4494157    1.0620059   957980 
  860000    1.0075388   -2.4489743   -2.4489743   -1.3876778  0.067822754   -2.4489743    1.0612965   957980 
  861000     1.008448   -2.4499386   -2.4499386   -1.3876843  0.061757818   -2.4499386    1.0622543   957980 
  862000    1.0076502    -2.448907    -2.448907   -1.3874931  0.064519559    -2.448907    1.0614139   957980 
  863000    1.0089735   -2.4499843   -2.4499843   -1.3871766  0.057954788   -2.4499843    1.0628077   957980 
  864000    1.0087314   -2.4492569   -2.4492569   -1.3867041  0.063485508   -2.4492569    1.0625528   957980 
  865000    1.0091682   -2.4498714   -2.4498714   -1.3868585  0.065500861   -2.4498714    1.0630129   957980 
  866000    1.0085093   -2.4493283   -2.4493283   -1.3870095  0.060274708   -2.4493283    1.0623188   957980 
  867000    1.0082591   -2.4493172   -2.4493172   -1.3872619   0.06525945   -2.4493172    1.0620553   957980 
  868000    1.0085036   -2.4499049   -2.4499049   -1.3875921  0.069983631   -2.4499049    1.0623128   957980 
  869000    1.0092203   -2.4501707   -2.4501707    -1.387103  0.061448511   -2.4501707    1.0630677   957980 
  870000    1.0094965   -2.4503976   -2.4503976   -1.3870389  0.063589401   -2.4503976    1.0633587   957980 
  871000    1.0080115   -2.4493094   -2.4493094    -1.387515  0.067587879   -2.4493094    1.0617944   957980 
  872000    1.0082721   -2.4497666   -2.4497666   -1.3876976  0.061815412   -2.4497666     1.062069   957980 
  873000    1.0094006   -2.4505051   -2.4505051   -1.3872474  0.060669778   -2.4505051    1.0632577   957980 
  874000    1.0090591   -2.4501349   -2.4501349   -1.3872369  0.057630871   -2.4501349    1.0628979   957980 
  875000    1.0079157    -2.449608    -2.449608   -1.3879145  0.059360252    -2.449608    1.0616935   957980 
  876000    1.0073112   -2.4489757   -2.4489757   -1.3879189  0.065859465   -2.4489757    1.0610568   957980 
  877000    1.0086743   -2.4498807   -2.4498807   -1.3873881  0.064752944   -2.4498807    1.0624927   957980 
  878000    1.0102617   -2.4517737   -2.4517737    -1.387609  0.064352366   -2.4517737    1.0641647   957980 
  879000    1.0085177    -2.450155    -2.450155   -1.3878273  0.061409516    -2.450155    1.0623277   957980 
  880000     1.007668   -2.4495373   -2.4495373   -1.3881046  0.066782614   -2.4495373    1.0614326   957980 
  881000    1.0086204   -2.4502776   -2.4502776   -1.3878417  0.062813509   -2.4502776    1.0624359   957980 
  882000    1.0081641   -2.4501467   -2.4501467   -1.3881916  0.062155198   -2.4501467    1.0619552   957980 
  883000    1.0074746   -2.4499032   -2.4499032   -1.3886743  0.067834844   -2.4499032    1.0612289   957980 
  884000    1.0090342   -2.4510781   -2.4510781   -1.3882064  0.056731637   -2.4510781    1.0628717   957980 
  885000        1.009   -2.4512088   -2.4512088   -1.3883731  0.059383997   -2.4512088    1.0628356   957980 
  886000    1.0092416   -2.4521386   -2.4521386   -1.3890483  0.071937527   -2.4521386    1.0630902   957980 
  887000    1.0101469   -2.4528957   -2.4528957    -1.388852  0.061633623   -2.4528957    1.0640437   957980 
  888000    1.0093685   -2.4518853   -2.4518853   -1.3886614  0.070301665   -2.4518853    1.0632239   957980 
  889000    1.0091401   -2.4522902   -2.4522902   -1.3893069  0.070603501   -2.4522902    1.0629833   957980 
  890000    1.0083815   -2.4511164   -2.4511164   -1.3889323  0.063849917   -2.4511164    1.0621841   957980 
  891000    1.0078085   -2.4508843   -2.4508843   -1.3893037   0.06073152   -2.4508843    1.0615806   957980 
  892000    1.0080085   -2.4514617   -2.4514617   -1.3896704  0.065558205   -2.4514617    1.0617913   957980 
  893000    1.0085468   -2.4513162   -2.4513162   -1.3889579  0.068009569   -2.4513162    1.0623583   957980 
  894000    1.0066458   -2.4498882   -2.4498882   -1.3895323  0.063998539   -2.4498882    1.0603559   957980 
  895000    1.0074952    -2.450599    -2.450599   -1.3893484  0.063891439    -2.450599    1.0612506   957980 
  896000     1.008155   -2.4511263   -2.4511263   -1.3891807  0.064852029   -2.4511263    1.0619456   957980 
  897000    1.0081177    -2.451573    -2.451573   -1.3896666  0.069109795    -2.451573    1.0619063   957980 
  898000    1.0086692   -2.4517322   -2.4517322   -1.3892449  0.070613248   -2.4517322    1.0624873   957980 
  899000    1.0083963    -2.451855    -2.451855   -1.3896552  0.064194547    -2.451855    1.0621998   957980 
  900000    1.0087645   -2.4520092   -2.4520092   -1.3894216  0.060167935   -2.4520092    1.0625876   957980 
  901000    1.0076607   -2.4508639   -2.4508639   -1.3894391  0.059510508   -2.4508639    1.0614249   957980 
  902000    1.0074285   -2.4507745   -2.4507745   -1.3895942  0.063823021   -2.4507745    1.0611803   957980 
  903000    1.0080345    -2.451574    -2.451574   -1.3897553  0.056672874    -2.451574    1.0618187   957980 
  904000    1.0075433   -2.4511919   -2.4511919   -1.3898906  0.066489308   -2.4511919    1.0613013   957980 
  905000    1.0063888   -2.4500176   -2.4500176   -1.3899323  0.064310604   -2.4500176    1.0600852   957980 
  906000    1.0069805   -2.4504766   -2.4504766   -1.3897682  0.060368897   -2.4504766    1.0607084   957980 
  907000    1.0080017    -2.451797    -2.451797   -1.3900129  0.055429791    -2.451797    1.0617841   957980 
  908000    1.0072069   -2.4509564   -2.4509564   -1.3900095   0.06583077   -2.4509564    1.0609469   957980 
  909000    1.0072011   -2.4504197   -2.4504197   -1.3894789  0.060171456   -2.4504197    1.0609409   957980 
  910000    1.0082422   -2.4512069   -2.4512069   -1.3891694  0.062568208   -2.4512069    1.0620375   957980 
  911000    1.0074914   -2.4509637   -2.4509637   -1.3897171  0.066798021   -2.4509637    1.0612466   957980 
  912000    1.0073647    -2.450194    -2.450194   -1.3890809  0.065396173    -2.450194    1.0611131   957980 
  913000    1.0076958   -2.4504453   -2.4504453   -1.3889834  0.056610526   -2.4504453    1.0614619   957980 
  914000    1.0076438   -2.4504679   -2.4504679   -1.3890607  0.062466263   -2.4504679    1.0614072   957980 
  915000    1.0078363   -2.4505745   -2.4505745   -1.3889646  0.066791415   -2.4505745    1.0616099   957980 
  916000     1.009183   -2.4510259   -2.4510259   -1.3879975  0.066184917   -2.4510259    1.0630285   957980 
  917000    1.0088244    -2.450964    -2.450964   -1.3883132  0.063629905    -2.450964    1.0626508   957980 
  918000    1.0080173   -2.4505876   -2.4505876    -1.388787  0.062090012   -2.4505876    1.0618006   957980 
  919000    1.0081845   -2.4502381   -2.4502381   -1.3882615  0.069058794   -2.4502381    1.0619766   957980 
  920000     1.008256   -2.4498657   -2.4498657   -1.3878138  0.060502232   -2.4498657     1.062052   957980 
  921000    1.0073542   -2.4489854   -2.4489854   -1.3878834  0.063102701   -2.4489854    1.0611021   957980 
  922000    1.0089585   -2.4503615   -2.4503615   -1.3875695  0.069380379   -2.4503615    1.0627919   957980 
  923000    1.0076563   -2.4493098   -2.4493098   -1.3878895  0.074040839   -2.4493098    1.0614203   957980 
  924000    1.0090573   -2.4502084   -2.4502084   -1.3873123   0.06583576   -2.4502084    1.0628961   957980 
  925000     1.009325   -2.4504812   -2.4504812   -1.3873032  0.066912541   -2.4504812    1.0631781   957980 
  926000    1.0092973    -2.450201    -2.450201   -1.3870521  0.068906961    -2.450201    1.0631489   957980 
  927000    1.0084989   -2.4502366   -2.4502366   -1.3879287  0.066078808   -2.4502366    1.0623079   957980 
  928000    1.0080776    -2.449666    -2.449666   -1.3878019  0.069706951    -2.449666    1.0618641   957980 
  929000    1.0081705   -2.4494876   -2.4494876   -1.3875257   0.05633027   -2.4494876    1.0619619   957980 
  930000    1.0078946   -2.4489933   -2.4489933    -1.387322  0.066045677   -2.4489933    1.0616713   957980 
  931000    1.0075786     -2.44905     -2.44905   -1.3877116  0.070323886     -2.44905    1.0613384   957980 
  932000     1.007636   -2.4488121   -2.4488121   -1.3874131  0.061589847   -2.4488121     1.061399   957980 
  933000    1.0077938   -2.4496892   -2.4496892    -1.388124  0.070918616   -2.4496892    1.0615652   957980 
  934000    1.0079062   -2.4501023   -2.4501023   -1.3884188  0.057990807   -2.4501023    1.0616835   957980 
  935000    1.0082397   -2.4500477   -2.4500477   -1.3880129  0.065653527   -2.4500477    1.0620348   957980 
  936000     1.006883    -2.448846    -2.448846   -1.3882402  0.062965783    -2.448846    1.0606058   957980 
  937000    1.0066357   -2.4485257   -2.4485257   -1.3881804   0.06293115   -2.4485257    1.0603453   957980 
  938000    1.0072637   -2.4488601   -2.4488601   -1.3878534  0.070180387   -2.4488601    1.0610067   957980 
  939000    1.0069045   -2.4483723   -2.4483723    -1.387744  0.059327989   -2.4483723    1.0606284   957980 
  940000    1.0086835    -2.450274    -2.450274   -1.3877717  0.064108804    -2.450274    1.0625023   957980 
  941000    1.0090182   -2.4505974   -2.4505974   -1.3877425   0.06028554   -2.4505974    1.0628549   957980 
  942000     1.008756   -2.4504883   -2.4504883   -1.3879096  0.059228897   -2.4504883    1.0625787   957980 
  943000    1.0073648   -2.4496043   -2.4496043   -1.3884911  0.064408323   -2.4496043    1.0611132   957980 
  944000    1.0073679   -2.4499324   -2.4499324   -1.3888159  0.069638811   -2.4499324    1.0611165   957980 
  945000    1.0064904   -2.4483046   -2.4483046   -1.3881124  0.074802337   -2.4483046    1.0601922   957980 
  946000    1.0079571   -2.4502463   -2.4502463   -1.3885092  0.062473982   -2.4502463    1.0617371   957980 
  947000    1.0065963   -2.4491458   -2.4491458    -1.388842  0.064192659   -2.4491458    1.0603038   957980 
  948000    1.0072616   -2.4494048   -2.4494048   -1.3884003  0.062614711   -2.4494048    1.0610045   957980 
  949000    1.0072238   -2.4497147   -2.4497147     -1.38875  0.060108214   -2.4497147    1.0609647   957980 
  950000    1.0077888   -2.4493157   -2.4493157   -1.3877557  0.063096346   -2.4493157    1.0615599   957980 
  951000     1.008001   -2.4491213   -2.4491213   -1.3873379  0.064949033   -2.4491213    1.0617834   957980 
  952000    1.0087951   -2.4507773   -2.4507773   -1.3881575  0.062450585   -2.4507773    1.0626198   957980 
  953000    1.0080197     -2.44991     -2.44991   -1.3881069  0.069770734     -2.44991    1.0618031   957980 
  954000    1.0082626   -2.4495643   -2.4495643   -1.3875053  0.074169635   -2.4495643    1.0620589   957980 
  955000    1.0075388    -2.449638    -2.449638   -1.3883415  0.062501407    -2.449638    1.0612966   957980 
  956000    1.0089963   -2.4507302   -2.4507302   -1.3878983  0.068201826   -2.4507302    1.0628318   957980 
  957000    1.0091758   -2.4511227   -2.4511227   -1.3881018   0.07018377   -2.4511227    1.0630209   957980 
  958000    1.0078929   -2.4500243   -2.4500243   -1.3883548  0.069195307   -2.4500243    1.0616695   957980 
  959000    1.0088048   -2.4513058   -2.4513058   -1.3886757  0.064244426   -2.4513058    1.0626301   957980 
  960000    1.0083025   -2.4513383   -2.4513383   -1.3892373  0.063784106   -2.4513383     1.062101   957980 
  961000    1.0074573   -2.4496715   -2.4496715   -1.3884608   0.06651412   -2.4496715    1.0612107   957980 
  962000     1.008304   -2.4505367   -2.4505367   -1.3884342  0.062490101   -2.4505367    1.0621026   957980 
  963000     1.006858   -2.4493683   -2.4493683   -1.3887888  0.072982089   -2.4493683    1.0605795   957980 
  964000    1.0078978   -2.4505047   -2.4505047     -1.38883  0.072225276   -2.4505047    1.0616747   957980 
  965000     1.007625   -2.4505413   -2.4505413    -1.389154  0.065843498   -2.4505413    1.0613873   957980 
  966000    1.0081535   -2.4513504   -2.4513504   -1.3894064  0.067861931   -2.4513504     1.061944   957980 
  967000    1.0081635   -2.4518193   -2.4518193   -1.3898648   0.06742271   -2.4518193    1.0619545   957980 
  968000    1.0083226    -2.450906    -2.450906   -1.3887838  0.063825107    -2.450906    1.0621221   957980 
  969000    1.0083587   -2.4515379   -2.4515379   -1.3893777  0.069698003   -2.4515379    1.0621601   957980 
  970000    1.0088652   -2.4522117   -2.4522117    -1.389518  0.061275522   -2.4522117    1.0626937   957980 
  971000     1.008125   -2.4509211   -2.4509211   -1.3890071   0.07354017   -2.4509211    1.0619141   957980 
  972000    1.0074065   -2.4506572   -2.4506572      -1.3895  0.067886462   -2.4506572    1.0611572   957980 
  973000    1.0074302   -2.4509302   -2.4509302    -1.389748  0.070484148   -2.4509302    1.0611822   957980 
  974000    1.0070991   -2.4504258   -2.4504258   -1.3895925  0.072772321   -2.4504258    1.0608333   957980 
  975000    1.0089423   -2.4528457   -2.4528457   -1.3900708  0.061660186   -2.4528457    1.0627749   957980 
  976000    1.0072301   -2.4516215   -2.4516215   -1.3906502  0.062563575   -2.4516215    1.0609713   957980 
  977000    1.0082836   -2.4524835   -2.4524835   -1.3904024  0.063715419   -2.4524835    1.0620811   957980 
  978000    1.0075992   -2.4515675   -2.4515675   -1.3902073  0.060507229   -2.4515675    1.0613602   957980 
  979000    1.0064788   -2.4508357   -2.4508357   -1.3906558  0.062979828   -2.4508357    1.0601799   957980 
  980000    1.0061695    -2.450936    -2.450936   -1.3910818  0.060809889    -2.450936    1.0598542   957980 
  981000    1.0077128   -2.4516049   -2.4516049   -1.3901252   0.06849016   -2.4516049    1.0614798   957980 
  982000    1.0071762   -2.4512082   -2.4512082   -1.3902936  0.065456485   -2.4512082    1.0609145   957980 
  983000    1.0073543   -2.4508119   -2.4508119   -1.3897096  0.065558638   -2.4508119    1.0611022   957980 
  984000    1.0065798   -2.4507323   -2.4507323   -1.3904459  0.061700715   -2.4507323    1.0602864   957980 
  985000    1.0064636   -2.4503995   -2.4503995   -1.3902355  0.067198063   -2.4503995    1.0601639   957980 
  986000    1.0069462   -2.4509406   -2.4509406   -1.3902682  0.070683919   -2.4509406    1.0606724   957980 
  987000    1.0081246   -2.4516826   -2.4516826    -1.389769  0.066552427   -2.4516826    1.0619136   957980 
  988000    1.0082654   -2.4515389   -2.4515389    -1.389477  0.070263703   -2.4515389    1.0620619   957980 
  989000    1.0093712   -2.4529656   -2.4529656   -1.3897389  0.064165016   -2.4529656    1.0632267   957980 
  990000    1.0079913   -2.4512431   -2.4512431   -1.3894699   0.07319067   -2.4512431    1.0617731   957980 
  991000    1.0077012   -2.4506063   -2.4506063   -1.3891387  0.067654995   -2.4506063    1.0614676   957980 
  992000    1.0087754   -2.4522977   -2.4522977   -1.3896986  0.064924223   -2.4522977    1.0625991   957980 
  993000    1.0081633    -2.451241    -2.451241   -1.3892867   0.07159697    -2.451241    1.0619543   957980 
  994000    1.0081081   -2.4513768   -2.4513768   -1.3894805  0.063795401   -2.4513768    1.0618963   957980 
  995000    1.0083048   -2.4512159   -2.4512159   -1.3891125  0.065048122   -2.4512159    1.0621034   957980 
  996000    1.0065241   -2.4499024   -2.4499024   -1.3896747  0.066605197   -2.4499024    1.0602277   957980 
  997000    1.0076101   -2.4509523   -2.4509523   -1.3895807   0.06578374   -2.4509523    1.0613716   957980 
  998000     1.006299     -2.44961     -2.44961   -1.3896194  0.066321825     -2.44961    1.0599905   957980 
  999000    1.0067619   -2.4499304   -2.4499304   -1.3894522  0.065515379   -2.4499304    1.0604782   957980 
 1000000    1.0067504   -2.4503693   -2.4503693   -1.3899033  0.066206495   -2.4503693    1.0604661   957980 
 1001000     1.005885   -2.4493988   -2.4493988   -1.3898442  0.063549541   -2.4493988    1.0595545   957980 
 1002000    1.0060921   -2.4493453   -2.4493453   -1.3895726  0.063889487   -2.4493453    1.0597727   957980 
 1003000    1.0055726   -2.4486194   -2.4486194   -1.3893939  0.063819718   -2.4486194    1.0592254   957980 
 1004000    1.0070569   -2.4507342   -2.4507342   -1.3899453  0.055527175   -2.4507342    1.0607889   957980 
 1005000     1.006709   -2.4502159   -2.4502159   -1.3897934  0.063746152   -2.4502159    1.0604225   957980 
 1006000    1.0056027   -2.4491414   -2.4491414   -1.3898843  0.056082015   -2.4491414    1.0592571   957980 
 1007000    1.0068699    -2.450483    -2.450483    -1.389891  0.060263894    -2.450483    1.0605919   957980 
 1008000     1.004969   -2.4482968   -2.4482968   -1.3897071  0.066479008   -2.4482968    1.0585897   957980 
 1009000    1.0059346   -2.4494913   -2.4494913   -1.3898846  0.059521832   -2.4494913    1.0596067   957980 
 1010000    1.0055462   -2.4488886   -2.4488886    -1.389691  0.058034374   -2.4488886    1.0591976   957980 
 1011000    1.0070654    -2.450062    -2.450062   -1.3892642  0.061764974    -2.450062    1.0607978   957980 
 1012000    1.0070788   -2.4499391   -2.4499391   -1.3891271  0.060577406   -2.4499391     1.060812   957980 
 1013000    1.0069274   -2.4498574   -2.4498574   -1.3892049  0.068552658   -2.4498574    1.0606525   957980 
 1014000    1.0079162   -2.4503709   -2.4503709   -1.3886768  0.065999637   -2.4503709    1.0616941   957980 
 1015000    1.0070328   -2.4501407   -2.4501407   -1.3893772  0.068553811   -2.4501407    1.0607635   957980 
 1016000    1.0072263   -2.4492452   -2.4492452   -1.3882778  0.067384246   -2.4492452    1.0609674   957980 
 1017000    1.0097112   -2.4520684   -2.4520684   -1.3884835  0.062927922   -2.4520684    1.0635849   957980 
 1018000    1.0089715    -2.451253    -2.451253   -1.3884474  0.061180666    -2.451253    1.0628057   957980 
 1019000    1.0085774   -2.4510401   -2.4510401   -1.3886495  0.063554313   -2.4510401    1.0623906   957980 
 1020000    1.0100871   -2.4522633   -2.4522633   -1.3882825  0.069869866   -2.4522633    1.0639808   957980 
 1021000    1.0085569   -2.4510556   -2.4510556   -1.3886867  0.072318453   -2.4510556    1.0623689   957980 
 1022000    1.0081585   -2.4509943   -2.4509943    -1.389045  0.066135243   -2.4509943    1.0619493   957980 
 1023000    1.0090501   -2.4519391   -2.4519391   -1.3890507  0.067963667   -2.4519391    1.0628884   957980 
 1024000    1.0087637    -2.451228    -2.451228   -1.3886413  0.069088545    -2.451228    1.0625868   957980 
 1025000    1.0089482   -2.4519951   -2.4519951    -1.389214  0.063262323   -2.4519951    1.0627811   957980 
 1026000    1.0094221   -2.4528636   -2.4528636   -1.3895833  0.071737655   -2.4528636    1.0632803   957980 
 1027000    1.0074584   -2.4516117   -2.4516117   -1.3903999  0.067707707   -2.4516117    1.0612119   957980 
 1028000      1.00828   -2.4522901   -2.4522901   -1.3902128  0.065332205   -2.4522901    1.0620773   957980 
 1029000    1.0073978    -2.450931    -2.450931   -1.3897829  0.063693314    -2.450931     1.061148   957980 
 1030000     1.007743   -2.4508018   -2.4508018   -1.3892902  0.058407208   -2.4508018    1.0615116   957980 
 1031000    1.0091982   -2.4522306   -2.4522306    -1.389186  0.066666807   -2.4522306    1.0630445   957980 
 1032000    1.0079794   -2.4509149   -2.4509149   -1.3891542  0.062771622   -2.4509149    1.0617606   957980 
 1033000     1.007198   -2.4505683   -2.4505683   -1.3896307  0.069623076   -2.4505683    1.0609376   957980 
 1034000    1.0082851    -2.451014    -2.451014   -1.3889312  0.061627444    -2.451014    1.0620827   957980 
 1035000    1.0080144   -2.4511196   -2.4511196   -1.3893221  0.067669105   -2.4511196    1.0617975   957980 
 1036000    1.0081889   -2.4514448   -2.4514448   -1.3894635  0.059751737   -2.4514448    1.0619813   957980 
 1037000    1.0091189   -2.4527518   -2.4527518   -1.3897909  0.062466966   -2.4527518    1.0629609   957980 
 1038000    1.0083313   -2.4516166   -2.4516166   -1.3894853  0.057692248   -2.4516166    1.0621313   957980 
 1039000    1.0078053   -2.4508894   -2.4508894   -1.3893121  0.066662649   -2.4508894    1.0615773   957980 
 1040000    1.0077158   -2.4504744   -2.4504744   -1.3889914  0.063304566   -2.4504744     1.061483   957980 
 1041000    1.0078245   -2.4505155   -2.4505155    -1.388918  0.071493936   -2.4505155    1.0615975   957980 
 1042000     1.007613   -2.4502311   -2.4502311   -1.3888564  0.063359834   -2.4502311    1.0613747   957980 
 1043000     1.007841   -2.4502794   -2.4502794   -1.3886645  0.065008907   -2.4502794    1.0616149   957980 
 1044000    1.0072086   -2.4504553   -2.4504553   -1.3895066  0.062527206   -2.4504553    1.0609487   957980 
 1045000    1.0072992   -2.4502659   -2.4502659   -1.3892218  0.064575369   -2.4502659    1.0610441   957980 
 1046000    1.0090082    -2.451584    -2.451584   -1.3887396  0.063701598    -2.451584    1.0628443   957980 
 1047000    1.0072856   -2.4506246   -2.4506246   -1.3895948  0.066308312   -2.4506246    1.0610298   957980 
 1048000    1.0060357   -2.4495294   -2.4495294   -1.3898162  0.066009981   -2.4495294    1.0597133   957980 
 1049000     1.006896   -2.4508378   -2.4508378   -1.3902183  0.071066806   -2.4508378    1.0606195   957980 
 1050000    1.0063095   -2.4497251   -2.4497251   -1.3897235  0.063087044   -2.4497251    1.0600017   957980 
 1051000     1.006212   -2.4503113   -2.4503113   -1.3904124  0.065369423   -2.4503113    1.0598989   957980 
 1052000    1.0073323   -2.4510348   -2.4510348   -1.3899558  0.066721828   -2.4510348     1.061079   957980 
 1053000    1.0072892   -2.4515298   -2.4515298   -1.3904962  0.063577905   -2.4515298    1.0610336   957980 
 1054000     1.007311   -2.4514327   -2.4514327   -1.3903762  0.064648817   -2.4514327    1.0610566   957980 
 1055000    1.0067464    -2.452074    -2.452074   -1.3916122   0.06854496    -2.452074    1.0604619   957980 
 1056000    1.0073399   -2.4529643   -2.4529643   -1.3918773  0.071587623   -2.4529643     1.061087   957980 
 1057000    1.0057758   -2.4505537   -2.4505537   -1.3911142  0.063916767   -2.4505537    1.0594395   957980 
 1058000    1.0065682   -2.4519715   -2.4519715   -1.3916974  0.071209244   -2.4519715    1.0602741   957980 
 1059000    1.0082742   -2.4537893   -2.4537893   -1.3917181  0.061093139   -2.4537893    1.0620712   957980 
 1060000    1.0069891   -2.4521495   -2.4521495    -1.391432   0.06335134   -2.4521495    1.0607175   957980 
 1061000    1.0079533   -2.4536013   -2.4536013   -1.3918681  0.056598273   -2.4536013    1.0617332   957980 
 1062000    1.0073202   -2.4530762   -2.4530762   -1.3920099  0.059104191   -2.4530762    1.0610663   957980 
 1063000    1.0081473   -2.4542942   -2.4542942   -1.3923566  0.062897151   -2.4542942    1.0619375   957980 
 1064000    1.0064243   -2.4518973   -2.4518973   -1.3917747  0.062585607   -2.4518973    1.0601226   957980 
 1065000    1.0086865   -2.4540384   -2.4540384   -1.3915329  0.070976892   -2.4540384    1.0625055   957980 
 1066000    1.0085132   -2.4542481   -2.4542481   -1.3919251  0.065999278   -2.4542481     1.062323   957980 
 1067000    1.0065164   -2.4524041   -2.4524041   -1.3921846  0.068383561   -2.4524041    1.0602195   957980 
 1068000    1.0065083    -2.452378    -2.452378   -1.3921669  0.062946281    -2.452378     1.060211   957980 
 1069000    1.0079691   -2.4542071   -2.4542071   -1.3924573   0.06834752   -2.4542071    1.0617498   957980 
 1070000    1.0086663   -2.4549807   -2.4549807   -1.3924966  0.070215329   -2.4549807    1.0624841   957980 
 1071000    1.0081889   -2.4543319   -2.4543319   -1.3923505  0.066177274   -2.4543319    1.0619814   957980 
 1072000    1.0079184   -2.4542322   -2.4542322   -1.3925358  0.065168618   -2.4542322    1.0616964   957980 
 1073000    1.0083474   -2.4545224   -2.4545224   -1.3923742  0.069098893   -2.4545224    1.0621482   957980 
 1074000    1.0075392   -2.4542143   -2.4542143   -1.3929173  0.067840511   -2.4542143     1.061297   957980 
 1075000    1.0065623   -2.4544242   -2.4544242   -1.3941563  0.065739881   -2.4544242    1.0602679   957980 
 1076000    1.0081694   -2.4557783   -2.4557783   -1.3938176  0.071819092   -2.4557783    1.0619608   957980 
 1077000    1.0058475   -2.4537306   -2.4537306   -1.3942157  0.070999743   -2.4537306    1.0595149   957980 
 1078000    1.0060506   -2.4529852   -2.4529852   -1.3932562   0.06494199   -2.4529852     1.059729   957980 
 1079000    1.0081441   -2.4549953   -2.4549953   -1.3930612  0.064886512   -2.4549953    1.0619341   957980 
 1080000    1.0084717   -2.4550805   -2.4550805   -1.3928014  0.067893148   -2.4550805    1.0622792   957980 
 1081000     1.007597   -2.4547269   -2.4547269    -1.393369  0.062697675   -2.4547269    1.0613578   957980 
 1082000    1.0075652   -2.4553613   -2.4553613   -1.3940369  0.060597473   -2.4553613    1.0613243   957980 
 1083000    1.0074736   -2.4549973   -2.4549973   -1.3937694  0.068109972   -2.4549973    1.0612279   957980 
 1084000    1.0073315   -2.4549422   -2.4549422    -1.393864  0.067066372   -2.4549422    1.0610781   957980 
 1085000     1.006855   -2.4544834   -2.4544834   -1.3939071  0.063091281   -2.4544834    1.0605763   957980 
 1086000    1.0072014   -2.4544087   -2.4544087   -1.3934676  0.063619311   -2.4544087    1.0609411   957980 
 1087000    1.0074152   -2.4543791   -2.4543791   -1.3932128  0.064375251   -2.4543791    1.0611663   957980 
 1088000    1.0067501   -2.4536889   -2.4536889   -1.3932231  0.059882969   -2.4536889    1.0604658   957980 
 1089000    1.0058349   -2.4529977   -2.4529977   -1.3934959  0.063526339   -2.4529977    1.0595017   957980 
 1090000    1.0066787   -2.4533043   -2.4533043   -1.3929137  0.058808032   -2.4533043    1.0603906   957980 
 1091000    1.0051986   -2.4521225   -2.4521225    -1.393291  0.068611033   -2.4521225    1.0588315   957980 
 1092000     1.006048   -2.4525239   -2.4525239   -1.3927977  0.064933298   -2.4525239    1.0597262   957980 
 1093000    1.0069948    -2.453552    -2.453552   -1.3928285  0.065457206    -2.453552    1.0607235   957980 
 1094000    1.0085801   -2.4549968   -2.4549968   -1.3926034  0.069930648   -2.4549968    1.0623934   957980 
 1095000    1.0071623   -2.4534737   -2.4534737   -1.3925738  0.072891942   -2.4534737    1.0608999   957980 
 1096000    1.0079236   -2.4537727   -2.4537727   -1.3920709  0.060445988   -2.4537727    1.0617019   957980 
 1097000    1.0068456   -2.4526182   -2.4526182   -1.3920518  0.072294578   -2.4526182    1.0605663   957980 
 1098000    1.0059457    -2.451905    -2.451905   -1.3922866  0.067162258    -2.451905    1.0596185   957980 
 1099000    1.0064673   -2.4532598   -2.4532598   -1.3930919  0.066337427   -2.4532598    1.0601679   957980 
 1100000    1.0073527   -2.4533291   -2.4533291   -1.3922286  0.065143147   -2.4533291    1.0611005   957980 
 1101000    1.0063432   -2.4526283   -2.4526283   -1.3925912  0.069732205   -2.4526283    1.0600372   957980 
 1102000    1.0068287   -2.4526973   -2.4526973   -1.3921487  0.069667513   -2.4526973    1.0605486   957980 
 1103000     1.005632   -2.4516712   -2.4516712   -1.3923832  0.067292173   -2.4516712     1.059288   957980 
 1104000    1.0059955   -2.4524001   -2.4524001   -1.3927292  0.061160817   -2.4524001    1.0596709   957980 
 1105000    1.0054791   -2.4513841   -2.4513841   -1.3922571  0.056634872   -2.4513841    1.0591269   957980 
 1106000     1.008018   -2.4531929   -2.4531929   -1.3913916  0.061932042   -2.4531929    1.0618013   957980 
 1107000    1.0075124   -2.4522877   -2.4522877    -1.391019  0.061362686   -2.4522877    1.0612688   957980 
 1108000    1.0081883   -2.4531334   -2.4531334   -1.3911527  0.076179855   -2.4531334    1.0619806   957980 
 1109000    1.0067691   -2.4513228   -2.4513228    -1.390837  0.064007414   -2.4513228    1.0604858   957980 
 1110000     1.007621   -2.4519954   -2.4519954   -1.3906123  0.066139888   -2.4519954    1.0613831   957980 
 1111000    1.0091502   -2.4532405   -2.4532405   -1.3902466  0.061003323   -2.4532405    1.0629939   957980 
 1112000    1.0090195   -2.4534682   -2.4534682    -1.390612  0.063201445   -2.4534682    1.0628562   957980 
 1113000    1.0081482   -2.4527401   -2.4527401   -1.3908016  0.065611488   -2.4527401    1.0619384   957980 
 1114000    1.0073821   -2.4516813   -2.4516813   -1.3905498  0.057544083   -2.4516813    1.0611315   957980 
 1115000    1.0078536   -2.4525469   -2.4525469   -1.3909188  0.064333143   -2.4525469    1.0616281   957980 
 1116000    1.0080146   -2.4524279   -2.4524279   -1.3906302  0.067482829   -2.4524279    1.0617978   957980 
 1117000    1.0073981   -2.4521452   -2.4521452   -1.3909968  0.061546346   -2.4521452    1.0611483   957980 
 1118000    1.0071989   -2.4522878   -2.4522878   -1.3913493  0.065963305   -2.4522878    1.0609385   957980 
 1119000    1.0057573   -2.4515505   -2.4515505   -1.3921306   0.06637375   -2.4515505    1.0594199   957980 
 1120000    1.0079062   -2.4535319   -2.4535319   -1.3918484   0.06125124   -2.4535319    1.0616835   957980 
 1121000    1.0067976   -2.4520437   -2.4520437   -1.3915279  0.067185289   -2.4520437    1.0605158   957980 
 1122000    1.0079905   -2.4530541   -2.4530541   -1.3912818  0.066967811   -2.4530541    1.0617723   957980 
 1123000    1.0069429   -2.4517653   -2.4517653   -1.3910964  0.067314686   -2.4517653    1.0606688   957980 
 1124000    1.0072517   -2.4522718   -2.4522718   -1.3912777  0.057340219   -2.4522718    1.0609941   957980 
 1125000    1.0078486   -2.4525989   -2.4525989    -1.390976  0.060259289   -2.4525989    1.0616228   957980 
 1126000    1.0061209   -2.4517657   -2.4517657   -1.3919627  0.064906168   -2.4517657     1.059803   957980 
 1127000    1.0075572   -2.4530398   -2.4530398   -1.3917239  0.063194834   -2.4530398    1.0613159   957980 
 1128000    1.0081603   -2.4536995   -2.4536995   -1.3917482  0.057487276   -2.4536995    1.0619512   957980 
 1129000    1.0081801   -2.4541993   -2.4541993   -1.3922272  0.066168225   -2.4541993    1.0619721   957980 
 1130000    1.0063775    -2.452318    -2.452318   -1.3922448   0.06359776    -2.452318    1.0600732   957980 
 1131000    1.0067988   -2.4525657   -2.4525657   -1.3920487   0.06951009   -2.4525657    1.0605171   957980 
 1132000    1.0079597   -2.4539923   -2.4539923   -1.3922524  0.064096445   -2.4539923    1.0617399   957980 
 1133000    1.0064505   -2.4526905   -2.4526905   -1.3925403  0.075517504   -2.4526905    1.0601502   957980 
 1134000    1.0067547    -2.452608    -2.452608   -1.3921375  0.062295255    -2.452608    1.0604706   957980 
 1135000    1.0082473   -2.4542067   -2.4542067   -1.3921638  0.064427333   -2.4542067    1.0620429   957980 
 1136000    1.0076019   -2.4530549   -2.4530549   -1.3916919  0.066712811   -2.4530549    1.0613629   957980 
 1137000    1.0079754   -2.4536817   -2.4536817   -1.3919253  0.065021761   -2.4536817    1.0617564   957980 
 1138000    1.0065473   -2.4526183   -2.4526183   -1.3923662  0.074490235   -2.4526183    1.0602521   957980 
 1139000    1.0075652   -2.4540607   -2.4540607   -1.3927364  0.060550908   -2.4540607    1.0613243   957980 
 1140000      1.00692   -2.4531843   -2.4531843   -1.3925396  0.070324936   -2.4531843    1.0606447   957980 
 1141000    1.0064777   -2.4521727   -2.4521727   -1.3919939  0.063090132   -2.4521727    1.0601788   957980 
 1142000    1.0090037   -2.4542582   -2.4542582   -1.3914186  0.065466618   -2.4542582    1.0628396   957980 
 1143000    1.0080278   -2.4538838   -2.4538838   -1.3920722  0.066762832   -2.4538838    1.0618116   957980 
 1144000    1.0081165   -2.4542439   -2.4542439   -1.3923389  0.064995685   -2.4542439     1.061905   957980 
 1145000    1.0074879   -2.4534249   -2.4534249    -1.392182  0.063295936   -2.4534249    1.0612429   957980 
 1146000    1.0067228   -2.4529162   -2.4529162   -1.3924793    0.0639289   -2.4529162     1.060437   957980 
 1147000    1.0077088   -2.4536972   -2.4536972   -1.3922216  0.068407259   -2.4536972    1.0614756   957980 
 1148000     1.006996   -2.4534089   -2.4534089   -1.3926842  0.067158472   -2.4534089    1.0607247   957980 
 1149000    1.0083564   -2.4546555   -2.4546555   -1.3924978  0.063860527   -2.4546555    1.0621577   957980 
 1150000    1.0071075   -2.4534473   -2.4534473   -1.3926051  0.067685968   -2.4534473    1.0608422   957980 
 1151000    1.0070304    -2.453608    -2.453608   -1.3928469  0.069575211    -2.453608    1.0607611   957980 
 1152000    1.0062269     -2.45261     -2.45261   -1.3926953  0.065229534     -2.45261    1.0599147   957980 
 1153000    1.0068033   -2.4525176   -2.4525176   -1.3919958  0.065477707   -2.4525176    1.0605218   957980 
 1154000    1.0068889   -2.4522647   -2.4522647   -1.3916528  0.067782477   -2.4522647     1.060612   957980 
 1155000    1.0070886   -2.4524615   -2.4524615   -1.3916391   0.06680173   -2.4524615    1.0608223   957980 
 1156000    1.0067292   -2.4526258   -2.4526258   -1.3921821   0.06694472   -2.4526258    1.0604437   957980 
 1157000     1.007901   -2.4537535   -2.4537535   -1.3920754  0.073803159   -2.4537535    1.0616781   957980 
 1158000    1.0072621   -2.4531689   -2.4531689   -1.3921638  0.077993499   -2.4531689    1.0610051   957980 
 1159000    1.0088513   -2.4553126   -2.4553126   -1.3926336  0.064603579   -2.4553126    1.0626791   957980 
 1160000    1.0076676   -2.4538534   -2.4538534   -1.3924212  0.065560118   -2.4538534    1.0614322   957980 
 1161000    1.0072191   -2.4541026   -2.4541026   -1.3931428  0.065681269   -2.4541026    1.0609598   957980 
 1162000    1.0072876   -2.4540637   -2.4540637   -1.3930318  0.063495257   -2.4540637    1.0610319   957980 
 1163000     1.006883   -2.4536529   -2.4536529   -1.3930472  0.063853895   -2.4536529    1.0606058   957980 
 1164000    1.0061508   -2.4531983   -2.4531983   -1.3933638  0.060475866   -2.4531983    1.0598345   957980 
 1165000    1.0062808   -2.4534427   -2.4534427   -1.3934713  0.062851058   -2.4534427    1.0599714   957980 
 1166000    1.0050073    -2.451871    -2.451871    -1.393241  0.065589721    -2.451871      1.05863   957980 
 1167000    1.0047006   -2.4520082   -2.4520082   -1.3937013  0.061147517   -2.4520082    1.0583069   957980 
 1168000    1.0060187   -2.4534708   -2.4534708   -1.3937755  0.071024156   -2.4534708    1.0596954   957980 
 1169000    1.0061398   -2.4537536   -2.4537536   -1.3939307  0.061750912   -2.4537536    1.0598229   957980 
 1170000    1.0067902   -2.4542035   -2.4542035   -1.3936955     0.070829   -2.4542035     1.060508   957980 
 1171000    1.0074364   -2.4544665   -2.4544665   -1.3932778  0.059547363   -2.4544665    1.0611887   957980 
 1172000    1.0070542    -2.453928    -2.453928    -1.393142  0.054778125    -2.453928     1.060786   957980 
 1173000    1.0079187   -2.4546075   -2.4546075   -1.3929108  0.062669733   -2.4546075    1.0616967   957980 
 1174000    1.0073108    -2.453775    -2.453775   -1.3927186   0.06332278    -2.453775    1.0610564   957980 
 1175000    1.0062079   -2.4530198   -2.4530198   -1.3931252  0.069304183   -2.4530198    1.0598946   957980 
 1176000     1.006933   -2.4534878   -2.4534878   -1.3928293  0.069765891   -2.4534878    1.0606584   957980 
 1177000    1.0056865   -2.4520967   -2.4520967   -1.3927513  0.070840747   -2.4520967    1.0593454   957980 
 1178000    1.0078922   -2.4543254   -2.4543254   -1.3926565  0.072217534   -2.4543254    1.0616688   957980 
 1179000    1.0075615    -2.454352    -2.454352   -1.3930316   0.06413505    -2.454352    1.0613204   957980 
 1180000    1.0078954   -2.4552532   -2.4552532    -1.393581   0.06436062   -2.4552532    1.0616722   957980 
 1181000     1.006891   -2.4541441   -2.4541441     -1.39353  0.068254771   -2.4541441    1.0606141   957980 
 1182000    1.0076999    -2.455287    -2.455287   -1.3938208  0.063360108    -2.455287    1.0614662   957980 
 1183000    1.0065763   -2.4542323   -2.4542323   -1.3939496  0.073898573   -2.4542323    1.0602827   957980 
 1184000     1.006434   -2.4544144   -2.4544144   -1.3942816  0.070862755   -2.4544144    1.0601328   957980 
 1185000    1.0069156   -2.4540431   -2.4540431    -1.393403  0.077837816   -2.4540431      1.06064   957980 
 1186000    1.0067321   -2.4547448   -2.4547448    -1.394298  0.070187353   -2.4547448    1.0604468   957980 
 1187000    1.0075218   -2.4563869   -2.4563869   -1.3951083  0.064748977   -2.4563869    1.0612787   957980 
 1188000    1.0079163   -2.4558267   -2.4558267   -1.3941325  0.066637875   -2.4558267    1.0616942   957980 
 1189000    1.0069459   -2.4549938   -2.4549938   -1.3943217   0.06539048   -2.4549938     1.060672   957980 
 1190000    1.0067792   -2.4550952   -2.4550952   -1.3945988   0.06387662   -2.4550952    1.0604964   957980 
 1191000    1.0069082   -2.4544419   -2.4544419   -1.3938097  0.063352899   -2.4544419    1.0606323   957980 
 1192000    1.0082638   -2.4560687   -2.4560687   -1.3940085  0.061131287   -2.4560687    1.0620602   957980 
 1193000    1.0078122   -2.4555001   -2.4555001   -1.3939156  0.066967248   -2.4555001    1.0615846   957980 
 1194000    1.0065217   -2.4549162   -2.4549162    -1.394691  0.067576981   -2.4549162    1.0602252   957980 
 1195000    1.0070545   -2.4551445   -2.4551445   -1.3943581  0.056585156   -2.4551445    1.0607864   957980 
 1196000    1.0073667   -2.4546937   -2.4546937   -1.3935785  0.070802361   -2.4546937    1.0611152   957980 
 1197000    1.0082879   -2.4551065   -2.4551065   -1.3930209  0.070224872   -2.4551065    1.0620856   957980 
 1198000    1.0068334   -2.4540906   -2.4540906   -1.3935372  0.064703445   -2.4540906    1.0605535   957980 
 1199000    1.0054777   -2.4531273   -2.4531273   -1.3940019   0.06387475   -2.4531273    1.0591254   957980 
 1200000    1.0061487   -2.4538965   -2.4538965   -1.3940642   0.06532485   -2.4538965    1.0598322   957980 
 1201000    1.0074148   -2.4548528   -2.4548528   -1.3936869  0.058166263   -2.4548528    1.0611659   957980 
 1202000    1.0066549   -2.4543638   -2.4543638   -1.3939983  0.066396681   -2.4543638    1.0603655   957980 
 1203000    1.0054652   -2.4534612   -2.4534612   -1.3943488  0.059365143   -2.4534612    1.0591123   957980 
 1204000    1.0069751   -2.4545974   -2.4545974   -1.3938946  0.062467446   -2.4545974    1.0607028   957980 
 1205000    1.0065172   -2.4535413   -2.4535413   -1.3933208  0.062289613   -2.4535413    1.0602204   957980 
 1206000    1.0071354   -2.4541502   -2.4541502   -1.3932786  0.056431027   -2.4541502    1.0608716   957980 
 1207000    1.0071578   -2.4542189   -2.4542189   -1.3933238   0.06034415   -2.4542189    1.0608952   957980 
 1208000    1.0072488   -2.4538394   -2.4538394   -1.3928484  0.064153905   -2.4538394     1.060991   957980 
 1209000    1.0071506   -2.4540714   -2.4540714   -1.3931838  0.073871282   -2.4540714    1.0608877   957980 
 1210000    1.0073391   -2.4541709   -2.4541709   -1.3930847  0.059393832   -2.4541709    1.0610862   957980 
 1211000    1.0072403   -2.4538118   -2.4538118   -1.3928296  0.063346197   -2.4538118    1.0609821   957980 
 1212000    1.0078589   -2.4542065   -2.4542065   -1.3925728   0.06391882   -2.4542065    1.0616337   957980 
 1213000    1.0073687   -2.4533076   -2.4533076   -1.3921903  0.063237113   -2.4533076    1.0611173   957980 
 1214000    1.0062017   -2.4526165   -2.4526165   -1.3927283  0.069903939   -2.4526165    1.0598881   957980 
 1215000    1.0075108   -2.4541824   -2.4541824   -1.3929153  0.066806337   -2.4541824     1.061267   957980 
 1216000    1.0067987   -2.4538702   -2.4538702   -1.3933533  0.069701114   -2.4538702     1.060517   957980 
 1217000    1.0068618   -2.4544443   -2.4544443   -1.3938609  0.065703622   -2.4544443    1.0605834   957980 
 1218000     1.006499   -2.4545357   -2.4545357   -1.3943344   0.06547041   -2.4545357    1.0602013   957980 
 1219000    1.0066365   -2.4552107   -2.4552107   -1.3948646  0.058655003   -2.4552107    1.0603461   957980 
 1220000    1.0062137   -2.4544837   -2.4544837    -1.394583   0.06301265   -2.4544837    1.0599008   957980 
 1221000    1.0063142   -2.4545242   -2.4545242   -1.3945176  0.062144559   -2.4545242    1.0600066   957980 
 1222000    1.0069842   -2.4544288   -2.4544288   -1.3937165   0.06287059   -2.4544288    1.0607123   957980 
 1223000    1.0075842    -2.455312    -2.455312   -1.3939677  0.059989412    -2.455312    1.0613443   957980 
 1224000    1.0069753   -2.4542604   -2.4542604   -1.3935574  0.060312834   -2.4542604     1.060703   957980 
 1225000    1.0069613   -2.4539943   -2.4539943   -1.3933061  0.060704552   -2.4539943    1.0606882   957980 
 1226000    1.0071721   -2.4540029   -2.4540029   -1.3930926  0.062388545   -2.4540029    1.0609102   957980 
 1227000    1.0071997   -2.4534737   -2.4534737   -1.3925344  0.071017018   -2.4534737    1.0609393   957980 
 1228000    1.0088021   -2.4554973   -2.4554973     -1.39287  0.064219896   -2.4554973    1.0626273   957980 
 1229000    1.0082844   -2.4549363   -2.4549363   -1.3928544  0.065651603   -2.4549363    1.0620819   957980 
 1230000    1.0073721   -2.4539581   -2.4539581   -1.3928371  0.067852884   -2.4539581    1.0611209   957980 
 1231000    1.0091219   -2.4563399   -2.4563399   -1.3933758  0.065950986   -2.4563399    1.0629641   957980 
 1232000    1.0080133   -2.4553937   -2.4553937   -1.3935974  0.062269162   -2.4553937    1.0617964   957980 
 1233000    1.0073731   -2.4546498   -2.4546498   -1.3935277  0.071451083   -2.4546498     1.061122   957980 
 1234000    1.0074734   -2.4547145   -2.4547145   -1.3934868  0.067687505   -2.4547145    1.0612277   957980 
 1235000    1.0055347   -2.4534683   -2.4534683   -1.3942828  0.070053196   -2.4534683    1.0591855   957980 
 1236000     1.005769    -2.453733    -2.453733   -1.3943007   0.05574279    -2.453733    1.0594323   957980 
 1237000    1.0059107   -2.4539444   -2.4539444   -1.3943628  0.059940944   -2.4539444    1.0595815   957980 
 1238000     1.007373   -2.4553449   -2.4553449    -1.394223  0.064378668   -2.4553449    1.0611219   957980 
 1239000    1.0069511   -2.4548288   -2.4548288   -1.3941514  0.063890321   -2.4548288    1.0606775   957980 
 1240000    1.0072115   -2.4549829   -2.4549829   -1.3940311  0.061530901   -2.4549829    1.0609518   957980 
 1241000    1.0066772   -2.4545997   -2.4545997   -1.3942107  0.064847189   -2.4545997     1.060389   957980 
 1242000    1.0056807   -2.4535652   -2.4535652   -1.3942259  0.069048612   -2.4535652    1.0593393   957980 
 1243000    1.0055863    -2.453229    -2.453229   -1.3939892  0.070382993    -2.453229    1.0592398   957980 
 1244000    1.0070219   -2.4545778   -2.4545778   -1.3938258  0.070215246   -2.4545778     1.060752   957980 
 1245000    1.0065674   -2.4539756   -2.4539756   -1.3937022  0.064641937   -2.4539756    1.0602734   957980 
 1246000    1.0053417   -2.4536264   -2.4536264   -1.3946442  0.067606528   -2.4536264    1.0589822   957980 
 1247000    1.0066504    -2.454938    -2.454938   -1.3945773  0.058918368    -2.454938    1.0603607   957980 
 1248000    1.0063231   -2.4553357   -2.4553357   -1.3953198  0.074929497   -2.4553357    1.0600159   957980 
 1249000    1.0053839   -2.4543786   -2.4543786   -1.3953519  0.063054068   -2.4543786    1.0590267   957980 
 1250000    1.0056052   -2.4544793   -2.4544793   -1.3952195  0.072768128   -2.4544793    1.0592598   957980 
 1251000    1.0065556   -2.4550626   -2.4550626   -1.3948018  0.059857092   -2.4550626    1.0602608   957980 
 1252000    1.0072153   -2.4553881   -2.4553881   -1.3944323   0.06572606   -2.4553881    1.0609558   957980 
 1253000    1.0072151   -2.4549069   -2.4549069   -1.3939512  0.057443583   -2.4549069    1.0609556   957980 
 1254000    1.0068941   -2.4537557   -2.4537557   -1.3931382  0.067004372   -2.4537557    1.0606175   957980 
 1255000    1.0071926   -2.4543235   -2.4543235   -1.3933916  0.065250228   -2.4543235    1.0609319   957980 
 1256000    1.0069124   -2.4546789   -2.4546789   -1.3940422  0.067225499   -2.4546789    1.0606367   957980 
 1257000    1.0074265   -2.4551093   -2.4551093   -1.3939311  0.070780933   -2.4551093    1.0611783   957980 
 1258000    1.0067069   -2.4543798   -2.4543798   -1.3939596   0.06658771   -2.4543798    1.0604203   957980 
 1259000    1.0069055   -2.4553664   -2.4553664    -1.394737   0.06335758   -2.4553664    1.0606294   957980 
 1260000    1.0062503   -2.4543626   -2.4543626   -1.3944233  0.062862685   -2.4543626    1.0599393   957980 
 1261000    1.0055662   -2.4542343   -2.4542343   -1.3950156  0.068075852   -2.4542343    1.0592187   957980 
 1262000    1.0055441   -2.4540781   -2.4540781   -1.3948827  0.064458246   -2.4540781    1.0591954   957980 
 1263000    1.0061482   -2.4544827   -2.4544827   -1.3946509  0.057895967   -2.4544827    1.0598318   957980 
 1264000     1.005864   -2.4538004   -2.4538004    -1.394268  0.063027395   -2.4538004    1.0595324   957980 
 1265000    1.0057192   -2.4530898   -2.4530898     -1.39371  0.063914832   -2.4530898    1.0593798   957980 
 1266000    1.0070497   -2.4538226   -2.4538226   -1.3930413  0.057047735   -2.4538226    1.0607813   957980 
 1267000    1.0074638   -2.4544712   -2.4544712   -1.3932537  0.060766192   -2.4544712    1.0612175   957980 
 1268000    1.0073092   -2.4538887   -2.4538887    -1.392834  0.067775718   -2.4538887    1.0610547   957980 
 1269000    1.0065503   -2.4531004   -2.4531004   -1.3928452  0.066806591   -2.4531004    1.0602553   957980 
 1270000     1.007188   -2.4540459   -2.4540459   -1.3931189  0.060496497   -2.4540459     1.060927   957980 
 1271000    1.0084067   -2.4560273   -2.4560273   -1.3938166  0.067032379   -2.4560273    1.0622107   957980 
 1272000    1.0078968   -2.4544856   -2.4544856   -1.3928119  0.074839595   -2.4544856    1.0616737   957980 
 1273000    1.0081852   -2.4551794   -2.4551794   -1.3932019  0.066832691   -2.4551794    1.0619775   957980 
 1274000     1.006438    -2.453712    -2.453712    -1.393575  0.069841561    -2.453712     1.060137   957980 
 1275000    1.0067174   -2.4549101   -2.4549101   -1.3944787  0.064183325   -2.4549101    1.0604313   957980 
 1276000    1.0057824   -2.4539622   -2.4539622   -1.3945157  0.064618053   -2.4539622    1.0594465   957980 
 1277000    1.0061224   -2.4541325   -2.4541325   -1.3943279   0.06728103   -2.4541325    1.0598046   957980 
 1278000    1.0071288   -2.4545613   -2.4545613   -1.3936967  0.064982624   -2.4545613    1.0608647   957980 
 1279000    1.0066923   -2.4547122   -2.4547122   -1.3943073  0.061053686   -2.4547122    1.0604049   957980 
 1280000    1.0054418    -2.454205    -2.454205   -1.3951173  0.060624206    -2.454205    1.0590877   957980 
 1281000    1.0050222   -2.4539903   -2.4539903   -1.3953447  0.067641771   -2.4539903    1.0586457   957980 
 1282000    1.0061124   -2.4549621   -2.4549621    -1.395168  0.067226748   -2.4549621     1.059794   957980 
 1283000    1.0063826   -2.4552882   -2.4552882   -1.3952095  0.065583924   -2.4552882    1.0600786   957980 
 1284000    1.0071931   -2.4559757   -2.4559757   -1.3950433  0.063558412   -2.4559757    1.0609324   957980 
 1285000    1.0076492   -2.4558621   -2.4558621   -1.3944493  0.070485487   -2.4558621    1.0614129   957980 
 1286000    1.0080349   -2.4557013   -2.4557013   -1.3938821  0.064471009   -2.4557013    1.0618191   957980 
 1287000    1.0063115   -2.4541962   -2.4541962   -1.3941925  0.068425603   -2.4541962    1.0600038   957980 
 1288000    1.0072953   -2.4557165   -2.4557165   -1.3946765  0.076964775   -2.4557165      1.06104   957980 
 1289000    1.0066213   -2.4553975   -2.4553975   -1.3950674  0.066201149   -2.4553975    1.0603301   957980 
 1290000    1.0064985   -2.4551076   -2.4551076   -1.3949069  0.065972503   -2.4551076    1.0602007   957980 
 1291000     1.007817   -2.4568674   -2.4568674   -1.3952778  0.058517752   -2.4568674    1.0615896   957980 
 1292000    1.0060125   -2.4549903   -2.4549903   -1.3953015  0.067386887   -2.4549903    1.0596888   957980 
 1293000    1.0064374   -2.4554167   -2.4554167   -1.3952804  0.065970155   -2.4554167    1.0601363   957980 
 1294000    1.0062262   -2.4556502   -2.4556502   -1.3957363  0.058131578   -2.4556502    1.0599139   957980 
 1295000    1.0044194   -2.4534529   -2.4534529   -1.3954421  0.063818084   -2.4534529    1.0580107   957980 
 1296000    1.0065857   -2.4557346   -2.4557346    -1.395442   0.06328308   -2.4557346    1.0602925   957980 
 1297000    1.0064895   -2.4559074   -2.4559074   -1.3957161  0.067017328   -2.4559074    1.0601912   957980 
 1298000    1.0064626   -2.4559818   -2.4559818   -1.3958189  0.059974759   -2.4559818    1.0601629   957980 
 1299000    1.0075877   -2.4571957   -2.4571957   -1.3958476  0.060242918   -2.4571957    1.0613481   957980 
 1300000    1.0061294   -2.4554612   -2.4554612   -1.3956493  0.062953324   -2.4554612    1.0598119   957980 
 1301000    1.0062686   -2.4551387   -2.4551387   -1.3951801  0.070099243   -2.4551387    1.0599586   957980 
 1302000    1.0076419   -2.4569296   -2.4569296   -1.3955245  0.061929962   -2.4569296    1.0614051   957980 
 1303000    1.0064568   -2.4561067   -2.4561067     -1.39595  0.069795074   -2.4561067    1.0601568   957980 
 1304000    1.0071269   -2.4564497   -2.4564497    -1.395587  0.068382806   -2.4564497    1.0608627   957980 
 1305000    1.0064725   -2.4554302   -2.4554302   -1.3952569   0.06087936   -2.4554302    1.0601733   957980 
 1306000    1.0069594   -2.4558732   -2.4558732    -1.395187  0.057164495   -2.4558732    1.0606862   957980 
 1307000    1.0060541   -2.4547861   -2.4547861   -1.3950534  0.064823789   -2.4547861    1.0597327   957980 
 1308000    1.0056044    -2.454836    -2.454836    -1.395577  0.063174336    -2.454836    1.0592589   957980 
 1309000    1.0074548   -2.4562979   -2.4562979   -1.3950899  0.055796013   -2.4562979    1.0612081   957980 
 1310000    1.0068784   -2.4556605   -2.4556605   -1.3950596  0.056372213   -2.4556605    1.0606009   957980 
 1311000     1.008232   -2.4580262   -2.4580262   -1.3959995  0.068888018   -2.4580262    1.0620267   957980 
 1312000    1.0068013   -2.4567657   -2.4567657    -1.396246  0.064650934   -2.4567657    1.0605197   957980 
 1313000    1.0076759   -2.4580288   -2.4580288   -1.3965878  0.069650188   -2.4580288    1.0614409   957980 
 1314000    1.0067498   -2.4564481   -2.4564481   -1.3959827  0.074463908   -2.4564481    1.0604654   957980 
 1315000    1.0074612   -2.4568481   -2.4568481   -1.3956333  0.067236721   -2.4568481    1.0612147   957980 
 1316000    1.0069229   -2.4564006   -2.4564006   -1.3957528    0.0692711   -2.4564006    1.0606478   957980 
 1317000    1.0058516    -2.455854    -2.455854   -1.3963347  0.064916393    -2.455854    1.0595193   957980 
 1318000    1.0062244   -2.4553979   -2.4553979   -1.3954859  0.068152359   -2.4553979     1.059912   957980 
 1319000    1.0076112   -2.4562569   -2.4562569   -1.3948842  0.067800626   -2.4562569    1.0613728   957980 
 1320000    1.0069083   -2.4561533   -2.4561533   -1.3955209  0.070517087   -2.4561533    1.0606324   957980 
 1321000    1.0058648   -2.4547634   -2.4547634   -1.3952301  0.058353105   -2.4547634    1.0595332   957980 
 1322000    1.0054284   -2.4554315   -2.4554315   -1.3963579  0.067461528   -2.4554315    1.0590736   957980 
 1323000    1.0065003   -2.4561448   -2.4561448   -1.3959422  0.064812276   -2.4561448    1.0602026   957980 
 1324000    1.0056898   -2.4552397   -2.4552397   -1.3958909  0.066023924   -2.4552397    1.0593488   957980 
 1325000    1.0064432   -2.4559062   -2.4559062   -1.3957637  0.062417969   -2.4559062    1.0601425   957980 
 1326000     1.006528   -2.4566261   -2.4566261   -1.3963943  0.071202378   -2.4566261    1.0602318   957980 
 1327000     1.005855   -2.4556625   -2.4556625   -1.3961396  0.065733059   -2.4556625    1.0595229   957980 
 1328000    1.0060134   -2.4559483   -2.4559483   -1.3962586  0.060888692   -2.4559483    1.0596897   957980 
 1329000    1.0056693   -2.4558563   -2.4558563    -1.396529  0.067456154   -2.4558563    1.0593273   957980 
 1330000    1.0052623   -2.4554412   -2.4554412   -1.3965426  0.064998641   -2.4554412    1.0588986   957980 
 1331000    1.0061566   -2.4566266   -2.4566266    -1.396786  0.066945351   -2.4566266    1.0598406   957980 
 1332000    1.0060015    -2.456748    -2.456748   -1.3970707  0.063330787    -2.456748    1.0596772   957980 
 1333000    1.0071582   -2.4567185   -2.4567185   -1.3958229  0.059934345   -2.4567185    1.0608956   957980 
 1334000    1.0072685   -2.4570435   -2.4570435   -1.3960317  0.070965898   -2.4570435    1.0610118   957980 
 1335000    1.0058346   -2.4554011   -2.4554011   -1.3958996  0.067586898   -2.4554011    1.0595014   957980 
 1336000    1.0071862    -2.456489    -2.456489   -1.3955639  0.071983252    -2.456489    1.0609251   957980 
 1337000    1.0071946    -2.456494    -2.456494     -1.39556  0.064443599    -2.456494    1.0609339   957980 
 1338000    1.0078066   -2.4570638   -2.4570638   -1.3954852  0.057431031   -2.4570638    1.0615786   957980 
 1339000    1.0059276   -2.4557192   -2.4557192   -1.3961198  0.070736802   -2.4557192    1.0595993   957980 
 1340000     1.007478   -2.4568268   -2.4568268   -1.3955944  0.072604036   -2.4568268    1.0612325   957980 
 1341000    1.0075069   -2.4565273   -2.4565273   -1.3952643  0.072972481   -2.4565273     1.061263   957980 
 1342000    1.0073098   -2.4564184   -2.4564184   -1.3953631  0.066118535   -2.4564184    1.0610553   957980 
 1343000    1.0063744   -2.4557644   -2.4557644   -1.3956943  0.066427715   -2.4557644      1.06007   957980 
 1344000    1.0079303   -2.4566279   -2.4566279    -1.394919  0.065425129   -2.4566279    1.0617089   957980 
 1345000    1.0060957   -2.4548768   -2.4548768   -1.3951004  0.061626977   -2.4548768    1.0597764   957980 
 1346000    1.0057152   -2.4550684   -2.4550684   -1.3956927  0.065737663   -2.4550684    1.0593757   957980 
 1347000    1.0072773   -2.4564685   -2.4564685   -1.3954475  0.056300304   -2.4564685    1.0610211   957980 
 1348000    1.0059297    -2.456238    -2.456238   -1.3966364  0.064135648    -2.456238    1.0596016   957980 
 1349000    1.0065872   -2.4569112   -2.4569112    -1.396617  0.060449825   -2.4569112    1.0602941   957980 
 1350000    1.0068091   -2.4559434   -2.4559434   -1.3954154  0.070691941   -2.4559434    1.0605279   957980 
 1351000    1.0059663   -2.4548009   -2.4548009   -1.3951608   0.06633567   -2.4548009    1.0596401   957980 
 1352000    1.0066034   -2.4557983   -2.4557983   -1.3954871  0.062694486   -2.4557983    1.0603113   957980 
 1353000    1.0064428   -2.4557982   -2.4557982   -1.3956561   0.06763116   -2.4557982    1.0601421   957980 
 1354000    1.0069789    -2.456316    -2.456316   -1.3956093  0.068630079    -2.456316    1.0607067   957980 
 1355000     1.006402   -2.4556596   -2.4556596   -1.3955606  0.066421304   -2.4556596    1.0600991   957980 
 1356000    1.0064057   -2.4561101   -2.4561101   -1.3960071  0.062988784   -2.4561101     1.060103   957980 
 1357000    1.0063172   -2.4559312   -2.4559312   -1.3959213  0.066139746   -2.4559312    1.0600098   957980 
 1358000    1.0055589   -2.4548704   -2.4548704   -1.3956594  0.068791085   -2.4548704     1.059211   957980 
 1359000    1.0068413   -2.4561963   -2.4561963   -1.3956345  0.065842244   -2.4561963    1.0605618   957980 
 1360000    1.0059508   -2.4549526   -2.4549526   -1.3953287  0.061902362   -2.4549526    1.0596239   957980 
 1361000    1.0052929   -2.4544318   -2.4544318   -1.3955009  0.065365344   -2.4544318    1.0589308   957980 
 1362000    1.0062042   -2.4556773   -2.4556773   -1.3957866  0.064533265   -2.4556773    1.0598908   957980 
 1363000    1.0061018   -2.4554501   -2.4554501   -1.3956672  0.058828932   -2.4554501    1.0597829   957980 
 1364000    1.0067426   -2.4559429   -2.4559429   -1.3954851  0.061431654   -2.4559429    1.0604578   957980 
 1365000    1.0049689   -2.4537244   -2.4537244   -1.3951349  0.067693413   -2.4537244    1.0585895   957980 
 1366000    1.0063917   -2.4546702   -2.4546702    -1.394582   0.06622204   -2.4546702    1.0600882   957980 
 1367000    1.0063133   -2.4547762   -2.4547762   -1.3947705  0.067022472   -2.4547762    1.0600056   957980 
 1368000    1.0071386   -2.4555991   -2.4555991   -1.3947242  0.064432258   -2.4555991     1.060875   957980 
 1369000    1.0053694   -2.4545186   -2.4545186   -1.3955073  0.060230115   -2.4545186    1.0590114   957980 
 1370000    1.0062395   -2.4543948   -2.4543948   -1.3944669  0.065346759   -2.4543948    1.0599279   957980 
 1371000    1.0062802   -2.4543155   -2.4543155   -1.3943447  0.063255162   -2.4543155    1.0599708   957980 
 1372000    1.0073933   -2.4561897   -2.4561897   -1.3950464  0.058666656   -2.4561897    1.0611433   957980 
 1373000    1.0068841   -2.4555691   -2.4555691   -1.3949622   0.06656321   -2.4555691    1.0606069   957980 
 1374000    1.0061913   -2.4548994   -2.4548994   -1.3950223  0.065733995   -2.4548994    1.0598771   957980 
 1375000    1.0063761   -2.4545809   -2.4545809   -1.3945091  0.065415838   -2.4545809    1.0600718   957980 
 1376000    1.0074377   -2.4553375   -2.4553375   -1.3941474  0.071516224   -2.4553375      1.06119   957980 
 1377000    1.0078694   -2.4565275   -2.4565275   -1.3948828  0.064280235   -2.4565275    1.0616448   957980 
 1378000    1.0072554   -2.4562813   -2.4562813   -1.3952833  0.065086801   -2.4562813     1.060998   957980 
 1379000    1.0074936   -2.4561296   -2.4561296   -1.3948806  0.072106262   -2.4561296    1.0612489   957980 
 1380000    1.0069898   -2.4561004   -2.4561004   -1.3953822  0.065958551   -2.4561004    1.0607182   957980 
 1381000    1.0073893   -2.4563382   -2.4563382   -1.3951991  0.065246704   -2.4563382    1.0611391   957980 
 1382000    1.0069456    -2.456191    -2.456191   -1.3955193  0.067342407    -2.456191    1.0606717   957980 
 1383000    1.0073807   -2.4566054   -2.4566054   -1.3954753  0.070196534   -2.4566054      1.06113   957980 
 1384000    1.0073264   -2.4565342   -2.4565342   -1.3954613  0.063935716   -2.4565342    1.0610728   957980 
 1385000    1.0070728   -2.4561399   -2.4561399   -1.3953342   0.06397076   -2.4561399    1.0608057   957980 
 1386000    1.0086759   -2.4573387   -2.4573387   -1.3948444  0.067740772   -2.4573387    1.0624943   957980 
 1387000    1.0076662   -2.4560449   -2.4560449   -1.3946142  0.067903194   -2.4560449    1.0614307   957980 
 1388000    1.0061474   -2.4554369   -2.4554369    -1.395606  0.067732818   -2.4554369    1.0598309   957980 
 1389000    1.0056037    -2.454909    -2.454909   -1.3956508  0.073138501    -2.454909    1.0592582   957980 
 1390000    1.0057407   -2.4557007   -2.4557007   -1.3962982  0.069281263   -2.4557007    1.0594025   957980 
 1391000    1.0068329   -2.4569416   -2.4569416   -1.3963887  0.067855684   -2.4569416    1.0605529   957980 
 1392000    1.0072659   -2.4567546   -2.4567546   -1.3957456   0.06469682   -2.4567546     1.061009   957980 
 1393000    1.0072628   -2.4569105   -2.4569105   -1.3959047  0.059645033   -2.4569105    1.0610058   957980 
 1394000     1.006614   -2.4564223   -2.4564223   -1.3960998  0.066093069   -2.4564223    1.0603224   957980 
 1395000    1.0074294   -2.4571737   -2.4571737   -1.3959924  0.067537456   -2.4571737    1.0611813   957980 
 1396000    1.0050264   -2.4541016   -2.4541016   -1.3954516  0.065912188   -2.4541016    1.0586501   957980 
 1397000    1.0071812   -2.4563173   -2.4563173   -1.3953974  0.061815751   -2.4563173    1.0609199   957980 
 1398000    1.0062192   -2.4552947   -2.4552947   -1.3953882  0.070492554   -2.4552947    1.0599065   957980 
 1399000    1.0069439   -2.4559615   -2.4559615   -1.3952916   0.06734035   -2.4559615    1.0606699   957980 
 1400000    1.0058675   -2.4551222   -2.4551222   -1.3955861  0.064585502   -2.4551222    1.0595361   957980 
 1401000    1.0053292   -2.4547679   -2.4547679   -1.3957989  0.070811072   -2.4547679    1.0589691   957980 
 1402000    1.0058361   -2.4555467   -2.4555467   -1.3960437  0.058983501   -2.4555467     1.059503   957980 
 1403000    1.0070493   -2.4559418   -2.4559418   -1.3951609  0.066621966   -2.4559418    1.0607809   957980 
 1404000    1.0067248   -2.4548927   -2.4548927   -1.3944535   0.07009902   -2.4548927    1.0604391   957980 
 1405000    1.0053795   -2.4538799   -2.4538799   -1.3948579  0.069464438   -2.4538799     1.059022   957980 
 1406000    1.0054592   -2.4541005   -2.4541005   -1.3949945  0.065250679   -2.4541005     1.059106   957980 
 1407000    1.0063082   -2.4542566   -2.4542566   -1.3942564  0.061262058   -2.4542566    1.0600003   957980 
 1408000    1.0061398   -2.4546105   -2.4546105   -1.3947877  0.063181027   -2.4546105    1.0598228   957980 
 1409000    1.0071338   -2.4550329   -2.4550329   -1.3941629  0.056507713   -2.4550329    1.0608699   957980 
 1410000    1.0071293   -2.4550762   -2.4550762    -1.394211  0.062279715   -2.4550762    1.0608652   957980 
 1411000    1.0069355   -2.4554317   -2.4554317   -1.3947706  0.062581184   -2.4554317    1.0606611   957980 
 1412000    1.0067921   -2.4553163   -2.4553163   -1.3948063  0.069155388   -2.4553163      1.06051   957980 
 1413000    1.0062336   -2.4547643   -2.4547643   -1.3948426  0.058138662   -2.4547643    1.0599217   957980 
 1414000    1.0055851   -2.4545467   -2.4545467   -1.3953081  0.063330198   -2.4545467    1.0592386   957980 
 1415000    1.0055732   -2.4546462   -2.4546462   -1.3954201  0.068647951   -2.4546462    1.0592261   957980 
 1416000    1.0053038   -2.4543149   -2.4543149   -1.3953727  0.058397106   -2.4543149    1.0589423   957980 
 1417000    1.0074861   -2.4565543   -2.4565543   -1.3953133  0.060566562   -2.4565543     1.061241   957980 
 1418000    1.0052633   -2.4547822   -2.4547822   -1.3958826   0.07066849   -2.4547822    1.0588997   957980 
 1419000     1.006159   -2.4564529   -2.4564529   -1.3966098  0.064466108   -2.4564529    1.0598431   957980 
 1420000    1.0062411   -2.4569669   -2.4569669   -1.3970373  0.058932963   -2.4569669    1.0599296   957980 
 1421000    1.0049417    -2.454865    -2.454865   -1.3963042  0.066176814    -2.454865    1.0585609   957980 
 1422000    1.0060972   -2.4556511   -2.4556511   -1.3958731  0.055696558   -2.4556511     1.059778   957980 
 1423000    1.0067969   -2.4571514   -2.4571514   -1.3966363  0.065553041   -2.4571514     1.060515   957980 
 1424000     1.007184   -2.4576736   -2.4576736   -1.3967508  0.065708531   -2.4576736    1.0609228   957980 
 1425000    1.0065877   -2.4569341   -2.4569341   -1.3966393  0.063248671   -2.4569341    1.0602947   957980 
 1426000    1.0074421   -2.4581901   -2.4581901   -1.3969955  0.063735628   -2.4581901    1.0611946   957980 
 1427000    1.0075963   -2.4579305   -2.4579305   -1.3965734  0.069945583   -2.4579305    1.0613571   957980 
 1428000    1.0069594   -2.4566228   -2.4566228   -1.3959365  0.063016387   -2.4566228    1.0606863   957980 
 1429000    1.0069131   -2.4570148   -2.4570148   -1.3963774   0.07126379   -2.4570148    1.0606374   957980 
 1430000    1.0076106   -2.4585514   -2.4585514   -1.3971792  0.070129333   -2.4585514    1.0613722   957980 
 1431000    1.0075126   -2.4584153   -2.4584153   -1.3971464  0.068710953   -2.4584153     1.061269   957980 
 1432000    1.0068342   -2.4572702   -2.4572702   -1.3967159  0.069837728   -2.4572702    1.0605543   957980 
 1433000    1.0068723   -2.4568607   -2.4568607   -1.3962663  0.066289275   -2.4568607    1.0605945   957980 
 1434000    1.0086986   -2.4588721   -2.4588721   -1.3963538   0.06807107   -2.4588721    1.0625182   957980 
 1435000    1.0076652    -2.457815    -2.457815   -1.3963854  0.068676285    -2.457815    1.0614296   957980 
 1436000      1.00749     -2.45737     -2.45737   -1.3961248  0.072211857     -2.45737    1.0612452   957980 
 1437000    1.0069935   -2.4565151   -2.4565151   -1.3957929  0.069102189   -2.4565151    1.0607222   957980 
 1438000     1.007874   -2.4577886   -2.4577886    -1.396139  0.063689047   -2.4577886    1.0616496   957980 
 1439000    1.0054094   -2.4556834   -2.4556834   -1.3966299  0.065489088   -2.4556834    1.0590535   957980 
 1440000    1.0069787   -2.4573018   -2.4573018   -1.3965952  0.067522384   -2.4573018    1.0607066   957980 
 1441000    1.0057068   -2.4569198   -2.4569198    -1.397553  0.069638888   -2.4569198    1.0593667   957980 
 1442000    1.0058547   -2.4564049   -2.4564049   -1.3968823  0.068930498   -2.4564049    1.0595226   957980 
 1443000     1.004892   -2.4556024   -2.4556024   -1.3970939  0.065251239   -2.4556024    1.0585085   957980 
 1444000    1.0056936   -2.4565816   -2.4565816   -1.3972287  0.069984975   -2.4565816    1.0593529   957980 
 1445000     1.005179   -2.4559684   -2.4559684   -1.3971576  0.069052422   -2.4559684    1.0588109   957980 
 1446000    1.0061832   -2.4565345   -2.4565345   -1.3966659  0.067781487   -2.4565345    1.0598686   957980 
 1447000    1.0050301    -2.455344    -2.455344     -1.39669  0.065309898    -2.455344     1.058654   957980 
 1448000    1.0061395   -2.4553568   -2.4553568   -1.3955342  0.063614315   -2.4553568    1.0598226   957980 
 1449000    1.0054944   -2.4548306   -2.4548306   -1.3956875  0.065367021   -2.4548306     1.059143   957980 
 1450000    1.0059236   -2.4549112   -2.4549112    -1.395316  0.064769048   -2.4549112    1.0595952   957980 
 1451000    1.0058255    -2.454585    -2.454585   -1.3950931  0.070782359    -2.454585    1.0594919   957980 
 1452000      1.00657   -2.4552756   -2.4552756   -1.3949995  0.064077027   -2.4552756     1.060276   957980 
 1453000    1.0072004    -2.455427    -2.455427    -1.394487   0.07783902    -2.455427      1.06094   957980 
 1454000    1.0072034   -2.4556566   -2.4556566   -1.3947134  0.071909039   -2.4556566    1.0609432   957980 
 1455000    1.0062468   -2.4542028   -2.4542028   -1.3942672  0.062375001   -2.4542028    1.0599356   957980 
 1456000    1.0075172   -2.4555044   -2.4555044   -1.3942306  0.067000318   -2.4555044    1.0612738   957980 
 1457000    1.0069963   -2.4544699   -2.4544699   -1.3937447  0.063265468   -2.4544699    1.0607251   957980 
 1458000    1.0080197   -2.4557905   -2.4557905   -1.3939874  0.065544267   -2.4557905    1.0618031   957980 
 1459000    1.0068606   -2.4542164   -2.4542164   -1.3936342  0.063002045   -2.4542164    1.0605822   957980 
 1460000    1.0071222   -2.4552373   -2.4552373   -1.3943796  0.066839288   -2.4552373    1.0608577   957980 
 1461000     1.007997   -2.4560888   -2.4560888   -1.3943096  0.071879416   -2.4560888    1.0617792   957980 
 1462000    1.0073169   -2.4553898   -2.4553898    -1.394327   0.07202674   -2.4553898    1.0610628   957980 
 1463000    1.0058768   -2.4544178   -2.4544178    -1.394872  0.060708264   -2.4544178    1.0595458   957980 
 1464000    1.0073398   -2.4557103   -2.4557103   -1.3946234  0.063535518   -2.4557103    1.0610869   957980 
 1465000    1.0084695   -2.4566181   -2.4566181   -1.3943412  0.060491953   -2.4566181    1.0622769   957980 
 1466000    1.0073537   -2.4558582   -2.4558582   -1.3947566  0.072114029   -2.4558582    1.0611016   957980 
 1467000    1.0065791   -2.4548271   -2.4548271   -1.3945415  0.063417167   -2.4548271    1.0602856   957980 
 1468000    1.0089456    -2.456943    -2.456943   -1.3941647  0.058750253    -2.456943    1.0627784   957980 
 1469000    1.0081533   -2.4561366   -2.4561366   -1.3941927  0.058508404   -2.4561366    1.0619438   957980 
 1470000    1.0077071   -2.4550885   -2.4550885   -1.3936147  0.066918212   -2.4550885    1.0614738   957980 
 1471000    1.0079755   -2.4563219   -2.4563219   -1.3945654  0.060150443   -2.4563219    1.0617565   957980 
 1472000    1.0077669   -2.4555443   -2.4555443   -1.3940075  0.068986718   -2.4555443    1.0615368   957980 
 1473000    1.0076752   -2.4559115   -2.4559115   -1.3944712  0.072308942   -2.4559115    1.0614402   957980 
 1474000    1.0073246    -2.455781    -2.455781   -1.3947101   0.06570736    -2.455781    1.0610709   957980 
 1475000     1.008156   -2.4567058   -2.4567058   -1.3947592   0.06015841   -2.4567058    1.0619466   957980 
 1476000    1.0081739   -2.4563073   -2.4563073   -1.3943417  0.071294667   -2.4563073    1.0619655   957980 
 1477000    1.0074062   -2.4555079   -2.4555079   -1.3943511   0.06769468   -2.4555079    1.0611569   957980 
 1478000    1.0074214   -2.4556557   -2.4556557   -1.3944828   0.06827525   -2.4556557    1.0611728   957980 
 1479000    1.0076439   -2.4561091   -2.4561091   -1.3947019  0.067461742   -2.4561091    1.0614072   957980 
 1480000    1.0076517   -2.4558161   -2.4558161   -1.3944006  0.067643278   -2.4558161    1.0614155   957980 
 1481000    1.0061384   -2.4549594   -2.4549594    -1.395138  0.066184926   -2.4549594    1.0598214   957980 
 1482000    1.0053962   -2.4546267   -2.4546267   -1.3955871  0.062841701   -2.4546267    1.0590396   957980 
 1483000    1.0059512   -2.4557838   -2.4557838   -1.3961596  0.060173156   -2.4557838    1.0596242   957980 
 1484000    1.0046984   -2.4544425   -2.4544425   -1.3961379  0.061350696   -2.4544425    1.0583046   957980 
 1485000    1.0050493   -2.4547625   -2.4547625   -1.3960883  0.067562117   -2.4547625    1.0586742   957980 
 1486000    1.0065098   -2.4563763   -2.4563763   -1.3961638  0.066138575   -2.4563763    1.0602126   957980 
 1487000    1.0066675   -2.4558841   -2.4558841   -1.3955053  0.067986445   -2.4558841    1.0603788   957980 
 1488000    1.0076266   -2.4568407   -2.4568407   -1.3954517  0.074394451   -2.4568407     1.061389   957980 
 1489000    1.0074506   -2.4565173   -2.4565173   -1.3953137  0.067751894   -2.4565173    1.0612036   957980 
 1490000    1.0062716   -2.4551943   -2.4551943   -1.3952326  0.067851293   -2.4551943    1.0599617   957980 
 1491000    1.0074421   -2.4567561   -2.4567561   -1.3955614  0.065226972   -2.4567561    1.0611947   957980 
 1492000     1.005526   -2.4546619   -2.4546619   -1.3954855   0.06654235   -2.4546619    1.0591764   957980 
 1493000     1.006319   -2.4558786   -2.4558786   -1.3958669  0.069606497   -2.4558786    1.0600117   957980 
 1494000    1.0063227   -2.4557203   -2.4557203   -1.3957048  0.069467396   -2.4557203    1.0600155   957980 
 1495000    1.0082315   -2.4575589   -2.4575589   -1.3955328  0.071025808   -2.4575589    1.0620262   957980 
 1496000    1.0073934   -2.4573031   -2.4573031   -1.3961597  0.059597965   -2.4573031    1.0611434   957980 
 1497000    1.0060449    -2.455623    -2.455623   -1.3959001  0.065672902    -2.455623    1.0597229   957980 
 1498000    1.0061782   -2.4557569   -2.4557569   -1.3958936  0.069483447   -2.4557569    1.0598634   957980 
 1499000    1.0081063   -2.4576856   -2.4576856   -1.3957913  0.060421795   -2.4576856    1.0618943   957980 
 1500000    1.0068693   -2.4566825   -2.4566825   -1.3960911  0.067595373   -2.4566825    1.0605914   957980 
 1501000     1.006023   -2.4559472   -2.4559472   -1.3962473  0.067755285   -2.4559472    1.0596999   957980 
 1502000     1.007987    -2.457406    -2.457406   -1.3956374  0.066096918    -2.457406    1.0617687   957980 
 1503000    1.0068061    -2.455594    -2.455594   -1.3950693  0.063351184    -2.455594    1.0605247   957980 
 1504000    1.0061264   -2.4554938   -2.4554938    -1.395685  0.058228858   -2.4554938    1.0598088   957980 
 1505000     1.005433   -2.4555918   -2.4555918   -1.3965134  0.064977855   -2.4555918    1.0590784   957980 
 1506000    1.0065295   -2.4564355   -2.4564355   -1.3962021  0.070350833   -2.4564355    1.0602334   957980 
 1507000    1.0058646   -2.4556962   -2.4556962   -1.3961632  0.065028167   -2.4556962     1.059533   957980 
 1508000    1.0066232   -2.4571258   -2.4571258   -1.3967938  0.064467684   -2.4571258    1.0603321   957980 
 1509000    1.0066569   -2.4577353   -2.4577353   -1.3973677  0.070719853   -2.4577353    1.0603675   957980 
 1510000    1.0066354   -2.4571006   -2.4571006   -1.3967557   0.07099967   -2.4571006    1.0603449   957980 
 1511000    1.0072063    -2.458198    -2.458198   -1.3972517  0.068158343    -2.458198    1.0609463   957980 
 1512000    1.0066958   -2.4573687   -2.4573687   -1.3969601   0.06203194   -2.4573687    1.0604086   957980 
 1513000    1.0063155   -2.4567475   -2.4567475   -1.3967396  0.066432786   -2.4567475    1.0600079   957980 
 1514000     1.006527   -2.4571605   -2.4571605   -1.3969297  0.067735441   -2.4571605    1.0602307   957980 
 1515000    1.0069018   -2.4569482   -2.4569482   -1.3963226  0.067918001   -2.4569482    1.0606256   957980 
 1516000    1.0067692   -2.4567811   -2.4567811   -1.3962952  0.069218516   -2.4567811    1.0604859   957980 
 1517000    1.0067915   -2.4565423   -2.4565423   -1.3960329  0.059912641   -2.4565423    1.0605094   957980 
 1518000    1.0069721   -2.4568878   -2.4568878   -1.3961882   0.06398206   -2.4568878    1.0606996   957980 
 1519000    1.0061635   -2.4555334   -2.4555334   -1.3956856  0.073411268   -2.4555334    1.0598478   957980 
 1520000    1.0082254    -2.457218    -2.457218   -1.3951983  0.069880459    -2.457218    1.0620197   957980 
 1521000    1.0066113   -2.4557519   -2.4557519   -1.3954324  0.069677412   -2.4557519    1.0603195   957980 
 1522000    1.0069272   -2.4560054   -2.4560054   -1.3953532  0.076009639   -2.4560054    1.0606523   957980 
 1523000    1.0061325   -2.4559728   -2.4559728   -1.3961576  0.071338922   -2.4559728    1.0598152   957980 
 1524000    1.0057267     -2.45566     -2.45566   -1.3962723  0.061371292     -2.45566    1.0593877   957980 
 1525000    1.0061709   -2.4559194   -2.4559194   -1.3960638  0.067362917   -2.4559194    1.0598556   957980 
 1526000    1.0073745   -2.4567691   -2.4567691   -1.3956457  0.059741543   -2.4567691    1.0611234   957980 
 1527000    1.0067052   -2.4556986   -2.4556986   -1.3952802  0.064932967   -2.4556986    1.0604184   957980 
 1528000    1.0053966   -2.4550233   -2.4550233   -1.3959832  0.063973144   -2.4550233    1.0590401   957980 
 1529000    1.0073555   -2.4567107   -2.4567107   -1.3956072  0.060253047   -2.4567107    1.0611034   957980 
 1530000    1.0071581   -2.4562153   -2.4562153   -1.3953198  0.066210141   -2.4562153    1.0608956   957980 
 1531000    1.0066639   -2.4556728   -2.4556728   -1.3952978  0.063772885   -2.4556728     1.060375   957980 
 1532000    1.0077921    -2.456742    -2.456742   -1.3951786  0.060026322    -2.456742    1.0615634   957980 
 1533000    1.0071724   -2.4564066   -2.4564066    -1.395496  0.078970014   -2.4564066    1.0609106   957980 
 1534000    1.0068133    -2.456223    -2.456223   -1.3956908  0.068842079    -2.456223    1.0605323   957980 
 1535000    1.0079382   -2.4568184   -2.4568184   -1.3951012  0.071125917   -2.4568184    1.0617173   957980 
 1536000    1.0074701   -2.4561472   -2.4561472    -1.394923  0.067721655   -2.4561472    1.0612242   957980 
 1537000    1.0053631   -2.4548596   -2.4548596   -1.3958548  0.067657392   -2.4548596    1.0590048   957980 
 1538000    1.0063615   -2.4562115   -2.4562115   -1.3961551  0.068536114   -2.4562115    1.0600564   957980 
 1539000    1.0047015   -2.4542796   -2.4542796   -1.3959718  0.061072043   -2.4542796    1.0583078   957980 
 1540000    1.0069514    -2.456501    -2.456501   -1.3958233  0.065089052    -2.456501    1.0606778   957980 
 1541000    1.0062854    -2.455543    -2.455543   -1.3955668  0.066288561    -2.455543    1.0599762   957980 
 1542000    1.0063394   -2.4552348   -2.4552348   -1.3952016  0.065724961   -2.4552348    1.0600332   957980 
 1543000    1.0066724   -2.4563806   -2.4563806   -1.3959967  0.063002724   -2.4563806    1.0603839   957980 
 1544000    1.0061374   -2.4563645   -2.4563645   -1.3965442  0.069462981   -2.4563645    1.0598203   957980 
 1545000    1.0066719   -2.4568437   -2.4568437   -1.3964603  0.064380701   -2.4568437    1.0603833   957980 
 1546000    1.0064795   -2.4563294   -2.4563294   -1.3961487  0.064503442   -2.4563294    1.0601807   957980 
 1547000    1.0077655   -2.4571592   -2.4571592   -1.3956239  0.065223089   -2.4571592    1.0615353   957980 
 1548000    1.0080371   -2.4575083   -2.4575083   -1.3956869  0.062996694   -2.4575083    1.0618215   957980 
 1549000    1.0058162   -2.4548696   -2.4548696   -1.3953875  0.072011434   -2.4548696     1.059482   957980 
 1550000    1.0067603   -2.4564389   -2.4564389   -1.3959624  0.064327122   -2.4564389    1.0604765   957980 
 1551000    1.0058489   -2.4554618   -2.4554618   -1.3959453  0.070233469   -2.4554618    1.0595165   957980 
 1552000    1.0064974   -2.4558681   -2.4558681   -1.3956686  0.069511281   -2.4558681    1.0601995   957980 
 1553000    1.0067349   -2.4567121   -2.4567121   -1.3962624  0.065099376   -2.4567121    1.0604497   957980 
 1554000    1.0077053   -2.4568939   -2.4568939   -1.3954219  0.071238473   -2.4568939     1.061472   957980 
 1555000     1.006794   -2.4562725   -2.4562725   -1.3957606  0.066031191   -2.4562725     1.060512   957980 
 1556000    1.0063639   -2.4562157   -2.4562157   -1.3961567  0.058213747   -2.4562157     1.060059   957980 
 1557000    1.0070879    -2.457149    -2.457149   -1.3963274  0.064735705    -2.457149    1.0608216   957980 
 1558000    1.0050833   -2.4552421   -2.4552421    -1.396532  0.067382692   -2.4552421    1.0587101   957980 
 1559000    1.0058766    -2.456461    -2.456461   -1.3969154  0.061092287    -2.456461    1.0595456   957980 
 1560000    1.0050332   -2.4552096   -2.4552096   -1.3965524  0.067263856   -2.4552096    1.0586573   957980 
 1561000     1.006255   -2.4560851   -2.4560851   -1.3961408  0.062823368   -2.4560851    1.0599443   957980 
 1562000    1.0071276   -2.4565528   -2.4565528   -1.3956894  0.063863559   -2.4565528    1.0608634   957980 
 1563000    1.0078882   -2.4571073   -2.4571073   -1.3954428  0.069655857   -2.4571073    1.0616645   957980 
 1564000    1.0076725   -2.4570796   -2.4570796   -1.3956423  0.066732096   -2.4570796    1.0614373   957980 
 1565000    1.0067888   -2.4565358   -2.4565358   -1.3960292  0.070187012   -2.4565358    1.0605065   957980 
 1566000    1.0077116   -2.4573681   -2.4573681   -1.3958895  0.058190275   -2.4573681    1.0614786   957980 
 1567000    1.0071988   -2.4560518   -2.4560518   -1.3951134  0.068684513   -2.4560518    1.0609384   957980 
 1568000    1.0051656   -2.4545085   -2.4545085   -1.3957119  0.071941424   -2.4545085    1.0587967   957980 
 1569000    1.0063525   -2.4554441   -2.4554441   -1.3953971  0.068450507   -2.4554441     1.060047   957980 
 1570000    1.0065323   -2.4561763   -2.4561763     -1.39594  0.065829074   -2.4561763    1.0602363   957980 
 1571000    1.0066799   -2.4560934   -2.4560934   -1.3957015  0.066644316   -2.4560934    1.0603919   957980 
 1572000    1.0062414   -2.4555532   -2.4555532   -1.3956233  0.063727151   -2.4555532    1.0599299   957980 
 1573000    1.0061481   -2.4556329   -2.4556329   -1.3958013  0.063322895   -2.4556329    1.0598316   957980 
 1574000    1.0062206    -2.455827    -2.455827    -1.395919  0.071264479    -2.455827     1.059908   957980 
 1575000     1.006636   -2.4552858   -2.4552858   -1.3949402  0.071349471   -2.4552858    1.0603456   957980 
 1576000    1.0063676   -2.4553072   -2.4553072   -1.3952444  0.065768534   -2.4553072    1.0600628   957980 
 1577000    1.0063715    -2.455537    -2.455537   -1.3954701  0.068089924    -2.455537    1.0600669   957980 
 1578000    1.0072524   -2.4562466   -2.4562466   -1.3952517  0.073060539   -2.4562466    1.0609949   957980 
 1579000    1.0071333   -2.4564202   -2.4564202   -1.3955508  0.065193402   -2.4564202    1.0608694   957980 
 1580000    1.0068209   -2.4561875   -2.4561875   -1.3956472  0.067378943   -2.4561875    1.0605403   957980 
 1581000    1.0044367    -2.453094    -2.453094   -1.3950652  0.062281555    -2.453094    1.0580289   957980 
 1582000    1.0061096    -2.455863    -2.455863   -1.3960719  0.057740977    -2.455863    1.0597911   957980 
 1583000    1.0047183   -2.4542582   -2.4542582   -1.3959326  0.062672102   -2.4542582    1.0583256   957980 
 1584000    1.0049087   -2.4545908   -2.4545908   -1.3960647  0.060516116   -2.4545908    1.0585261   957980 
 1585000    1.0056903   -2.4549895   -2.4549895   -1.3956401  0.063732715   -2.4549895    1.0593494   957980 
 1586000    1.0050207   -2.4543702   -2.4543702   -1.3957262  0.066503187   -2.4543702     1.058644   957980 
 1587000    1.0050133   -2.4542093   -2.4542093   -1.3955729  0.062916874   -2.4542093    1.0586363   957980 
 1588000    1.0059416   -2.4548922   -2.4548922   -1.3952781  0.065245427   -2.4548922    1.0596141   957980 
 1589000    1.0051238   -2.4545795   -2.4545795   -1.3958268  0.065170304   -2.4545795    1.0587527   957980 
 1590000    1.0063807   -2.4559174   -2.4559174   -1.3958407  0.067527015   -2.4559174    1.0600766   957980 
 1591000    1.0068949   -2.4566445   -2.4566445   -1.3960262  0.063464021   -2.4566445    1.0606183   957980 
 1592000    1.0052947   -2.4548469   -2.4548469   -1.3959142  0.068982962   -2.4548469    1.0589327   957980 
 1593000    1.0076892   -2.4572219   -2.4572219   -1.3957669  0.068515853   -2.4572219    1.0614549   957980 
 1594000    1.0059997   -2.4555635   -2.4555635   -1.3958881  0.061130621   -2.4555635    1.0596753   957980 
 1595000    1.0060095   -2.4556312   -2.4556312   -1.3959456  0.062065971   -2.4556312    1.0596856   957980 
 1596000     1.006687   -2.4566699   -2.4566699   -1.3962705   0.06386637   -2.4566699    1.0603993   957980 
 1597000    1.0061333   -2.4562709   -2.4562709   -1.3964549  0.066626228   -2.4562709     1.059816   957980 
 1598000    1.0066473   -2.4571358   -2.4571358   -1.3967784  0.061285996   -2.4571358    1.0603574   957980 
 1599000     1.005874     -2.45635     -2.45635    -1.396807  0.062590237     -2.45635     1.059543   957980 
 1600000    1.0060121   -2.4562142   -2.4562142   -1.3965258  0.062309844   -2.4562142    1.0596884   957980 
 1601000    1.0079377   -2.4582225   -2.4582225   -1.3965057   0.05982126   -2.4582225    1.0617167   957980 
 1602000    1.0054847   -2.4559165   -2.4559165   -1.3967837  0.067048926   -2.4559165    1.0591328   957980 
 1603000    1.0077492   -2.4584278   -2.4584278   -1.3969096  0.067881048   -2.4584278    1.0615182   957980 
 1604000    1.0064049   -2.4563639   -2.4563639   -1.3962617  0.067967207   -2.4563639    1.0601022   957980 
 1605000    1.0074937   -2.4570564   -2.4570564   -1.3958073  0.070945587   -2.4570564     1.061249   957980 
 1606000    1.0076658    -2.456986    -2.456986   -1.3955557  0.074227937    -2.456986    1.0614303   957980 
 1607000    1.0082387   -2.4577663   -2.4577663   -1.3957326  0.067375096   -2.4577663    1.0620337   957980 
 1608000    1.0075789   -2.4579434   -2.4579434   -1.3966047  0.066012534   -2.4579434    1.0613387   957980 
 1609000    1.0080516   -2.4577823   -2.4577823   -1.3959456  0.067402855   -2.4577823    1.0618367   957980 
 1610000     1.007654    -2.457477    -2.457477   -1.3960592  0.074887329    -2.457477    1.0614178   957980 
 1611000    1.0088414   -2.4575878   -2.4575878   -1.3949192  0.065490386   -2.4575878    1.0626686   957980 
 1612000    1.0089003   -2.4567488   -2.4567488   -1.3940181  0.066950202   -2.4567488    1.0627307   957980 
 1613000    1.0091374   -2.4571469   -2.4571469   -1.3941665  0.066856195   -2.4571469    1.0629804   957980 
 1614000    1.0079207   -2.4563436   -2.4563436   -1.3946448  0.068229388   -2.4563436    1.0616988   957980 
 1615000    1.0086576   -2.4563248   -2.4563248   -1.3938498  0.058620284   -2.4563248     1.062475   957980 
 1616000    1.0080821   -2.4556157   -2.4556157   -1.3937469  0.073288444   -2.4556157    1.0618688   957980 
 1617000    1.0091852   -2.4570607   -2.4570607   -1.3940299  0.066309343   -2.4570607    1.0630308   957980 
 1618000    1.0086302   -2.4567177   -2.4567177   -1.3942716  0.069151593   -2.4567177    1.0624461   957980 
 1619000    1.0069857   -2.4549401   -2.4549401   -1.3942261  0.064865027   -2.4549401     1.060714   957980 
 1620000    1.0077749   -2.4559552   -2.4559552     -1.39441  0.067270107   -2.4559552    1.0615452   957980 
 1621000    1.0074874   -2.4555189   -2.4555189   -1.3942765  0.060670465   -2.4555189    1.0612424   957980 
 1622000    1.0070064   -2.4556289   -2.4556289   -1.3948932  0.066959286   -2.4556289    1.0607357   957980 
 1623000    1.0072967   -2.4556546   -2.4556546   -1.3946131  0.065526172   -2.4556546    1.0610415   957980 
 1624000    1.0070801   -2.4552183   -2.4552183   -1.3944049  0.066700493   -2.4552183    1.0608134   957980 
 1625000    1.0076471   -2.4555243   -2.4555243   -1.3941136  0.063283161   -2.4555243    1.0614107   957980 
 1626000     1.005257   -2.4529529   -2.4529529     -1.39406  0.074198102   -2.4529529     1.058893   957980 
 1627000    1.0059018   -2.4535251   -2.4535251    -1.393953  0.062263577   -2.4535251    1.0595722   957980 
 1628000     1.004922   -2.4525271   -2.4525271   -1.3939869  0.067523336   -2.4525271    1.0585402   957980 
 1629000    1.0054816   -2.4530282   -2.4530282   -1.3938986  0.064486272   -2.4530282    1.0591296   957980 
 1630000    1.0055643   -2.4529459   -2.4529459   -1.3937292  0.062874122   -2.4529459    1.0592167   957980 
 1631000    1.0064233   -2.4538345   -2.4538345   -1.3937129  0.052527412   -2.4538345    1.0601215   957980 
 1632000    1.0056713    -2.453327    -2.453327   -1.3939976  0.061065575    -2.453327    1.0593294   957980 
 1633000    1.0051631    -2.452932    -2.452932   -1.3941379  0.060142509    -2.452932    1.0587941   957980 
 1634000     1.005965   -2.4527791   -2.4527791   -1.3931404  0.064862628   -2.4527791    1.0596388   957980 
 1635000    1.0071723   -2.4536851   -2.4536851   -1.3927746  0.066105304   -2.4536851    1.0609105   957980 
 1636000    1.0069834   -2.4543737   -2.4543737   -1.3936622  0.067229517   -2.4543737    1.0607115   957980 
 1637000    1.0050808   -2.4523467   -2.4523467   -1.3936393  0.069969361   -2.4523467    1.0587074   957980 
 1638000    1.0071273   -2.4549979   -2.4549979   -1.3941348   0.05765431   -2.4549979    1.0608631   957980 
 1639000    1.0057897   -2.4530192   -2.4530192   -1.3935651   0.07036203   -2.4530192    1.0594541   957980 
 1640000    1.0071432   -2.4544977   -2.4544977   -1.3936179  0.067007121   -2.4544977    1.0608798   957980 
 1641000     1.007072   -2.4548461   -2.4548461   -1.3940413  0.063122229   -2.4548461    1.0608048   957980 
 1642000    1.0069358   -2.4549849   -2.4549849   -1.3943235  0.068754716   -2.4549849    1.0606614   957980 
 1643000    1.0069991    -2.455517    -2.455517    -1.394789   0.06519284    -2.455517     1.060728   957980 
 1644000    1.0073529   -2.4564338   -2.4564338   -1.3953331  0.059819161   -2.4564338    1.0611007   957980 
 1645000    1.0061107   -2.4550095   -2.4550095   -1.3952173  0.065860658   -2.4550095    1.0597922   957980 
 1646000     1.006173   -2.4547099   -2.4547099    -1.394852  0.070328975   -2.4547099    1.0598579   957980 
 1647000    1.0078729   -2.4559776   -2.4559776   -1.3943292   0.06162932   -2.4559776    1.0616484   957980 
 1648000    1.0085126   -2.4570303   -2.4570303    -1.394708  0.070635593   -2.4570303    1.0623223   957980 
 1649000    1.0066433     -2.45473     -2.45473   -1.3943767  0.079510745     -2.45473    1.0603533   957980 
 1650000    1.0075325   -2.4555511   -2.4555511   -1.3942612  0.069677632   -2.4555511    1.0612899   957980 
 1651000    1.0079831   -2.4561234   -2.4561234   -1.3943588  0.067156203   -2.4561234    1.0617646   957980 
 1652000    1.0077226   -2.4556322   -2.4556322   -1.3941421  0.069931836   -2.4556322    1.0614902   957980 
 1653000    1.0074688   -2.4558373   -2.4558373   -1.3946145  0.075351028   -2.4558373    1.0612228   957980 
 1654000    1.0065021   -2.4559243   -2.4559243   -1.3957198  0.069135091   -2.4559243    1.0602046   957980 
 1655000    1.0069197   -2.4573758   -2.4573758   -1.3967314  0.066306708   -2.4573758    1.0606444   957980 
 1656000     1.005869   -2.4558895   -2.4558895   -1.3963518  0.074012439   -2.4558895    1.0595377   957980 
 1657000    1.0067683   -2.4563942   -2.4563942   -1.3959093  0.065610501   -2.4563942    1.0604849   957980 
 1658000    1.0066659    -2.456722    -2.456722   -1.3963449  0.066572395    -2.456722    1.0603771   957980 
 1659000    1.0067145   -2.4568526   -2.4568526   -1.3964244  0.070464519   -2.4568526    1.0604282   957980 
 1660000    1.0057485   -2.4560714   -2.4560714   -1.3966608  0.067112548   -2.4560714    1.0594107   957980 
 1661000    1.0065975   -2.4567887   -2.4567887   -1.3964837  0.069990764   -2.4567887    1.0603051   957980 
 1662000    1.0052832   -2.4552161   -2.4552161   -1.3962956  0.071501542   -2.4552161    1.0589206   957980 
 1663000    1.0066509    -2.456447    -2.456447   -1.3960857  0.067951178    -2.456447    1.0603612   957980 
 1664000    1.0056055   -2.4548689   -2.4548689   -1.3956088  0.063497199   -2.4548689      1.05926   957980 
 1665000    1.0069006   -2.4562281   -2.4562281   -1.3956039  0.065365787   -2.4562281    1.0606243   957980 
 1666000    1.0064632   -2.4552241   -2.4552241   -1.3950606  0.063448291   -2.4552241    1.0601635   957980 
 1667000    1.0061906   -2.4551675   -2.4551675    -1.395291  0.071823342   -2.4551675    1.0598765   957980 
 1668000    1.0073549    -2.456559    -2.456559   -1.3954562  0.062753163    -2.456559    1.0611028   957980 
 1669000    1.0075089    -2.456214    -2.456214   -1.3949489  0.066508889    -2.456214    1.0612651   957980 
 1670000    1.0071395   -2.4562066   -2.4562066   -1.3953307  0.068593413   -2.4562066    1.0608759   957980 
 1671000    1.0068123   -2.4558157   -2.4558157   -1.3952844  0.066628195   -2.4558157    1.0605313   957980 
 1672000    1.0078689   -2.4563763   -2.4563763    -1.394732  0.062044394   -2.4563763    1.0616443   957980 
 1673000    1.0068239   -2.4547707   -2.4547707   -1.3942272  0.072570498   -2.4547707    1.0605435   957980 
 1674000    1.0056987    -2.453968    -2.453968   -1.3946098  0.067137788    -2.453968    1.0593582   957980 
 1675000    1.0062732   -2.4550497   -2.4550497   -1.3950863  0.061472214   -2.4550497    1.0599634   957980 
 1676000    1.0065051   -2.4551278   -2.4551278   -1.3949201  0.061553305   -2.4551278    1.0602077   957980 
 1677000    1.0048873   -2.4537355   -2.4537355   -1.3952319  0.064861142   -2.4537355    1.0585036   957980 
 1678000    1.0047553    -2.454085    -2.454085   -1.3957205  0.061358267    -2.454085    1.0583645   957980 
 1679000    1.0045463   -2.4538855   -2.4538855   -1.3957411  0.062329574   -2.4538855    1.0581444   957980 
 1680000    1.0053206   -2.4548914   -2.4548914   -1.3959315  0.064587652   -2.4548914      1.05896   957980 
 1681000    1.0049835   -2.4544892   -2.4544892   -1.3958843  0.071098361   -2.4544892    1.0586049   957980 
 1682000    1.0053379   -2.4546079   -2.4546079   -1.3956296  0.065353791   -2.4546079    1.0589782   957980 
 1683000    1.0054344   -2.4544997   -2.4544997   -1.3954198  0.066628463   -2.4544997    1.0590799   957980 
 1684000    1.0058915   -2.4551742   -2.4551742   -1.3956129  0.061691992   -2.4551742    1.0595613   957980 
 1685000    1.0057022   -2.4546475   -2.4546475   -1.3952856   0.06504871   -2.4546475    1.0593619   957980 
 1686000    1.0053769   -2.4546954   -2.4546954   -1.3956761   0.06182579   -2.4546954    1.0590193   957980 
 1687000    1.0056617   -2.4548644   -2.4548644   -1.3955451  0.067364722   -2.4548644    1.0593192   957980 
 1688000    1.0072579   -2.4560921   -2.4560921   -1.3950915  0.057871519   -2.4560921    1.0610006   957980 
 1689000    1.0061128   -2.4547805   -2.4547805   -1.3949861  0.069752035   -2.4547805    1.0597945   957980 
 1690000     1.006442   -2.4554819   -2.4554819   -1.3953407  0.069875516   -2.4554819    1.0601412   957980 
 1691000     1.007149   -2.4568154   -2.4568154   -1.3959295  0.070861987   -2.4568154    1.0608859   957980 
 1692000    1.0075751   -2.4571656   -2.4571656   -1.3958308  0.068145169   -2.4571656    1.0613348   957980 
 1693000    1.0073253   -2.4567686   -2.4567686    -1.395697  0.060794092   -2.4567686    1.0610716   957980 
 1694000     1.005492    -2.455023    -2.455023   -1.3958825  0.070349825    -2.455023    1.0591405   957980 
 1695000    1.0078609   -2.4581469   -2.4581469    -1.396511  0.070424237   -2.4581469    1.0616359   957980 
 1696000    1.0060678   -2.4565821   -2.4565821    -1.396835  0.067138564   -2.4565821    1.0597471   957980 
 1697000    1.0057475   -2.4557314   -2.4557314   -1.3963217  0.066677328   -2.4557314    1.0594097   957980 
 1698000    1.0061124   -2.4557217   -2.4557217   -1.3959277  0.072940441   -2.4557217     1.059794   957980 
 1699000    1.0078903   -2.4571352   -2.4571352   -1.3954684  0.073359727   -2.4571352    1.0616668   957980 
 1700000    1.0074574   -2.4566859   -2.4566859   -1.3954751  0.071239011   -2.4566859    1.0612108   957980 
 1701000    1.0078094   -2.4573593   -2.4573593   -1.3957778  0.064696154   -2.4573593    1.0615816   957980 
 1702000    1.0076933    -2.457176    -2.457176   -1.3957167  0.068441378    -2.457176    1.0614593   957980 
 1703000    1.0069508   -2.4564935   -2.4564935   -1.3958164  0.072184136   -2.4564935    1.0606771   957980 
 1704000    1.0061453   -2.4561994   -2.4561994   -1.3963707  0.064360393   -2.4561994    1.0598287   957980 
 1705000    1.0065539   -2.4567315   -2.4567315   -1.3964725  0.063687285   -2.4567315     1.060259   957980 
 1706000     1.006763   -2.4566322   -2.4566322   -1.3961529   0.06261869   -2.4566322    1.0604793   957980 
 1707000    1.0053902   -2.4552102   -2.4552102   -1.3961769  0.067075419   -2.4552102    1.0590333   957980 
 1708000    1.0061982   -2.4558705   -2.4558705   -1.3959861  0.069602637   -2.4558705    1.0598844   957980 
 1709000    1.0057352   -2.4557637   -2.4557637    -1.396367  0.064027017   -2.4557637    1.0593967   957980 
 1710000    1.0052544   -2.4553395   -2.4553395   -1.3964493  0.068888195   -2.4553395    1.0588902   957980 
 1711000     1.005738   -2.4553395   -2.4553395   -1.3959398  0.069284999   -2.4553395    1.0593997   957980 
 1712000    1.0060105   -2.4557437   -2.4557437   -1.3960569  0.066783922   -2.4557437    1.0596867   957980 
 1713000     1.006545   -2.4563216   -2.4563216   -1.3960719  0.067544804   -2.4563216    1.0602497   957980 
 1714000    1.0037372   -2.4530894   -2.4530894   -1.3957974  0.066923605   -2.4530894    1.0572921   957980 
 1715000    1.0057519    -2.455013    -2.455013   -1.3955987  0.058567375    -2.455013    1.0594143   957980 
 1716000    1.0053184   -2.4543063   -2.4543063   -1.3953486  0.066273974   -2.4543063    1.0589576   957980 
 1717000    1.0070351   -2.4554624   -2.4554624   -1.3946964    0.0574729   -2.4554624     1.060766   957980 
 1718000     1.005027   -2.4532699   -2.4532699   -1.3946192  0.066845467   -2.4532699    1.0586507   957980 
 1719000    1.0061206   -2.4545599   -2.4545599   -1.3947573  0.059961174   -2.4545599    1.0598026   957980 
 1720000    1.0058558   -2.4549539   -2.4549539   -1.3954302   0.06139801   -2.4549539    1.0595237   957980 
 1721000    1.0056081   -2.4542984   -2.4542984   -1.3950355   0.06387465   -2.4542984    1.0592629   957980 
 1722000    1.0065508   -2.4547198   -2.4547198   -1.3944639   0.07099663   -2.4547198    1.0602558   957980 
 1723000    1.0067489   -2.4546156   -2.4546156   -1.3941512  0.064822717   -2.4546156    1.0604644   957980 
 1724000    1.0061859   -2.4537122   -2.4537122   -1.3938407  0.067582691   -2.4537122    1.0598714   957980 
 1725000    1.0068619    -2.454605    -2.454605   -1.3940214  0.065812746    -2.454605    1.0605835   957980 
 1726000    1.0063025   -2.4538261   -2.4538261   -1.3938318  0.068916946   -2.4538261    1.0599942   957980 
 1727000    1.0058784   -2.4537976   -2.4537976   -1.3942501  0.064326848   -2.4537976    1.0595476   957980 
 1728000    1.0068721   -2.4545098   -2.4545098   -1.3939156  0.071016459   -2.4545098    1.0605942   957980 
 1729000     1.006023   -2.4547933   -2.4547933   -1.3950935  0.068927243   -2.4547933    1.0596998   957980 
 1730000    1.0052018    -2.454138    -2.454138   -1.3953032  0.066539722    -2.454138    1.0588349   957980 
 1731000    1.0059982   -2.4548332   -2.4548332   -1.3951595  0.068928163   -2.4548332    1.0596737   957980 
 1732000     1.006544   -2.4555446   -2.4555446    -1.395296  0.064974857   -2.4555446    1.0602486   957980 
 1733000    1.0062368   -2.4551844   -2.4551844   -1.3952593  0.069088384   -2.4551844     1.059925   957980 
 1734000    1.0057263   -2.4540968   -2.4540968   -1.3947094   0.06714165   -2.4540968    1.0593874   957980 
 1735000     1.005488   -2.4537931   -2.4537931   -1.3946568  0.070315759   -2.4537931    1.0591363   957980 
 1736000     1.005565    -2.453909    -2.453909   -1.3946915  0.055483153    -2.453909    1.0592174   957980 
 1737000    1.0062772    -2.455262    -2.455262   -1.3952945  0.066224667    -2.455262    1.0599676   957980 
 1738000    1.0061887   -2.4553047   -2.4553047   -1.3954303  0.061450039   -2.4553047    1.0598744   957980 
 1739000    1.0047553   -2.4535781   -2.4535781   -1.3952136  0.070508176   -2.4535781    1.0583645   957980 
 1740000    1.0065453   -2.4552089   -2.4552089   -1.3949588  0.069335259   -2.4552089    1.0602501   957980 
 1741000    1.0059715    -2.455304    -2.455304   -1.3956584  0.062061291    -2.455304    1.0596456   957980 
 1742000    1.0050526   -2.4543207   -2.4543207    -1.395643   0.07016054   -2.4543207    1.0586777   957980 
 1743000    1.0068571   -2.4557238   -2.4557238   -1.3951454  0.063957447   -2.4557238    1.0605784   957980 
 1744000    1.0073124   -2.4559356   -2.4559356   -1.3948776  0.069304682   -2.4559356    1.0610581   957980 
 1745000    1.0054998   -2.4543857   -2.4543857    -1.395237  0.067796187   -2.4543857    1.0591487   957980 
 1746000    1.0072022   -2.4560367   -2.4560367   -1.3950947  0.066835657   -2.4560367    1.0609419   957980 
 1747000     1.006283   -2.4544869   -2.4544869   -1.3945132  0.068922057   -2.4544869    1.0599737   957980 
 1748000     1.006799   -2.4551182   -2.4551182    -1.394601  0.069707213   -2.4551182    1.0605173   957980 
 1749000     1.006537   -2.4551586   -2.4551586   -1.3949173  0.068307441   -2.4551586    1.0602413   957980 
 1750000    1.0072339   -2.4562523   -2.4562523   -1.3952769  0.062284149   -2.4562523    1.0609754   957980 
 1751000    1.0059353   -2.4550017   -2.4550017   -1.3953942  0.066318314   -2.4550017    1.0596075   957980 
 1752000    1.0072232   -2.4567887   -2.4567887   -1.3958246  0.067721325   -2.4567887    1.0609641   957980 
 1753000    1.0064587   -2.4555323   -2.4555323   -1.3953735  0.072365294   -2.4555323    1.0601588   957980 
 1754000    1.0062114   -2.4557003   -2.4557003   -1.3958019  0.063025282   -2.4557003    1.0598983   957980 
 1755000    1.0067818   -2.4554381   -2.4554381    -1.394939  0.063608943   -2.4554381    1.0604992   957980 
 1756000    1.0069885    -2.455301    -2.455301   -1.3945841  0.064167379    -2.455301    1.0607169   957980 
 1757000    1.0073785   -2.4556288   -2.4556288   -1.3945011  0.063198232   -2.4556288    1.0611277   957980 
 1758000    1.0072108   -2.4549902   -2.4549902   -1.3940391   0.06074298   -2.4549902     1.060951   957980 
 1759000    1.0073356   -2.4544455   -2.4544455    -1.393363   0.07267916   -2.4544455    1.0610825   957980 
 1760000    1.0077968   -2.4556587   -2.4556587   -1.3940904  0.069022886   -2.4556587    1.0615683   957980 
 1761000    1.0070767   -2.4552037   -2.4552037   -1.3943939  0.070825968   -2.4552037    1.0608098   957980 
 1762000    1.0066308   -2.4549761   -2.4549761    -1.394636  0.064775512   -2.4549761    1.0603401   957980 
 1763000    1.0061651   -2.4545736   -2.4545736   -1.3947241  0.062166513   -2.4545736    1.0598495   957980 
 1764000    1.0055598   -2.4539808   -2.4539808   -1.3947689  0.062452589   -2.4539808    1.0592119   957980 
 1765000    1.0060886   -2.4542685   -2.4542685   -1.3944995  0.060814317   -2.4542685     1.059769   957980 
 1766000    1.0055704   -2.4541854   -2.4541854   -1.3949623  0.061229401   -2.4541854    1.0592231   957980 
 1767000    1.0064318    -2.454893    -2.454893   -1.3947625  0.061638139    -2.454893    1.0601305   957980 
 1768000    1.0065254   -2.4548588   -2.4548588   -1.3946298  0.067483217   -2.4548588    1.0602291   957980 
 1769000     1.005643   -2.4537001   -2.4537001   -1.3944005  0.068682987   -2.4537001    1.0592996   957980 
 1770000    1.0061357   -2.4543997   -2.4543997   -1.3945812  0.064071472   -2.4543997    1.0598185   957980 
 1771000    1.0059042   -2.4541359   -2.4541359   -1.3945612  0.062134914   -2.4541359    1.0595747   957980 
 1772000    1.0060086   -2.4539086   -2.4539086   -1.3942239  0.067075651   -2.4539086    1.0596847   957980 
 1773000    1.0072938   -2.4555708   -2.4555708   -1.3945323  0.067742886   -2.4555708    1.0610385   957980 
 1774000    1.0059377   -2.4542267   -2.4542267   -1.3946167  0.071830603   -2.4542267    1.0596101   957980 
 1775000    1.0063216    -2.455043    -2.455043   -1.3950287   0.05600344    -2.455043    1.0600143   957980 
 1776000    1.0063478   -2.4551996   -2.4551996   -1.3951576  0.056763987   -2.4551996     1.060042   957980 
 1777000    1.0059797   -2.4551078   -2.4551078   -1.3954536  0.069536435   -2.4551078    1.0596542   957980 
 1778000    1.0049866   -2.4541782   -2.4541782     -1.39557   0.06343521   -2.4541782    1.0586082   957980 
 1779000    1.0050485   -2.4548375   -2.4548375   -1.3961641  0.058303368   -2.4548375    1.0586734   957980 
 1780000    1.0062199   -2.4552533   -2.4552533    -1.395346  0.072915431   -2.4552533    1.0599073   957980 
 1781000    1.0071335   -2.4560408   -2.4560408   -1.3951712  0.062362154   -2.4560408    1.0608696   957980 
 1782000     1.007374   -2.4554546   -2.4554546   -1.3943316  0.065509977   -2.4554546     1.061123   957980 
 1783000    1.0078931   -2.4563301   -2.4563301   -1.3946603  0.072667785   -2.4563301    1.0616698   957980 
 1784000    1.0070829   -2.4552317   -2.4552317   -1.3944154  0.067920862   -2.4552317    1.0608163   957980 
 1785000    1.0067159   -2.4550433   -2.4550433   -1.3946135  0.067228547   -2.4550433    1.0604297   957980 
 1786000     1.008147    -2.456932    -2.456932   -1.3949949  0.068608355    -2.456932    1.0619371   957980 
 1787000    1.0076882   -2.4568007   -2.4568007   -1.3953468  0.065701955   -2.4568007    1.0614539   957980 
 1788000    1.0071037   -2.4558939   -2.4558939   -1.3950557  0.069163267   -2.4558939    1.0608382   957980 
 1789000    1.0071071   -2.4555591   -2.4555591   -1.3947173  0.067451436   -2.4555591    1.0608418   957980 
 1790000     1.007182   -2.4559728   -2.4559728   -1.3950522  0.066236371   -2.4559728    1.0609207   957980 
 1791000    1.0075634   -2.4561834   -2.4561834    -1.394861  0.061304721   -2.4561834    1.0613224   957980 
 1792000    1.0080345   -2.4567722   -2.4567722   -1.3949535  0.065932017   -2.4567722    1.0618187   957980 
 1793000    1.0072974   -2.4564707   -2.4564707   -1.3954284  0.065102544   -2.4564707    1.0610423   957980 
 1794000    1.0069657   -2.4567035   -2.4567035   -1.3960106  0.067221297   -2.4567035    1.0606929   957980 
 1795000    1.0069522    -2.455997    -2.455997   -1.3953184  0.068290475    -2.455997    1.0606786   957980 
 1796000    1.0076176   -2.4565293   -2.4565293   -1.3951497  0.063171105   -2.4565293    1.0613795   957980 
 1797000    1.0071837   -2.4565683   -2.4565683   -1.3956458  0.064749111   -2.4565683    1.0609225   957980 
 1798000    1.0059665   -2.4552545   -2.4552545   -1.3956141  0.064984216   -2.4552545    1.0596403   957980 
 1799000      1.00736   -2.4566583   -2.4566583     -1.39555  0.061506037   -2.4566583    1.0611082   957980 
 1800000    1.0064107   -2.4553443   -2.4553443    -1.395236  0.064249986   -2.4553443    1.0601083   957980 
 1801000    1.0066696   -2.4553314   -2.4553314   -1.3949504   0.06507743   -2.4553314    1.0603809   957980 
 1802000    1.0078855    -2.456747    -2.456747   -1.3950853  0.057522528    -2.456747    1.0616617   957980 
 1803000    1.0060031   -2.4545085   -2.4545085   -1.3948296   0.06777146   -2.4545085    1.0596789   957980 
 1804000    1.0072538   -2.4562191   -2.4562191   -1.3952227  0.059774391   -2.4562191    1.0609963   957980 
 1805000     1.006861   -2.4554636   -2.4554636   -1.3948811  0.067541638   -2.4554636    1.0605825   957980 
 1806000    1.0066144   -2.4557241   -2.4557241   -1.3954012  0.069315947   -2.4557241    1.0603228   957980 
 1807000    1.0056012   -2.4548456   -2.4548456     -1.39559  0.070252439   -2.4548456    1.0592555   957980 
 1808000    1.0052419    -2.453966    -2.453966   -1.3950889  0.065323527    -2.453966    1.0588771   957980 
 1809000    1.0062027   -2.4541837   -2.4541837   -1.3942945   0.06573786   -2.4541837    1.0598892   957980 
 1810000    1.0059826   -2.4537537   -2.4537537   -1.3940964  0.064781762   -2.4537537    1.0596573   957980 
 1811000    1.0061876    -2.454104    -2.454104   -1.3942307  0.069450341    -2.454104    1.0598733   957980 
 1812000    1.0059878   -2.4550273   -2.4550273   -1.3953646  0.063299827   -2.4550273    1.0596628   957980 
 1813000    1.0058149   -2.4538743   -2.4538743   -1.3943936  0.059141878   -2.4538743    1.0594807   957980 
 1814000     1.003532   -2.4520349   -2.4520349    -1.394959  0.067278048   -2.4520349    1.0570759   957980 
 1815000    1.0056264   -2.4540367   -2.4540367   -1.3947546  0.069841031   -2.4540367    1.0592821   957980 
 1816000    1.0056508   -2.4536232   -2.4536232   -1.3943154  0.064119322   -2.4536232    1.0593078   957980 
 1817000    1.0057881    -2.453627    -2.453627   -1.3941745    0.0689159    -2.453627    1.0594524   957980 
 1818000    1.0059586   -2.4539412   -2.4539412   -1.3943092  0.060041193   -2.4539412     1.059632   957980 
 1819000    1.0060364   -2.4539076   -2.4539076   -1.3941936  0.061839034   -2.4539076     1.059714   957980 
 1820000     1.005804   -2.4540045   -2.4540045   -1.3945353  0.067248786   -2.4540045    1.0594692   957980 
 1821000    1.0060767   -2.4540274   -2.4540274    -1.394271  0.068457022   -2.4540274    1.0597565   957980 
 1822000    1.0063294   -2.4542625   -2.4542625   -1.3942399  0.064329978   -2.4542625    1.0600226   957980 
 1823000    1.0061348   -2.4544698   -2.4544698   -1.3946522  0.062803135   -2.4544698    1.0598177   957980 
 1824000    1.0061066   -2.4550158   -2.4550158   -1.3952279   0.05835985   -2.4550158    1.0597879   957980 
 1825000    1.0043318   -2.4528745   -2.4528745    -1.394956  0.073752739   -2.4528745    1.0579184   957980 
 1826000    1.0052116   -2.4541525   -2.4541525   -1.3953073  0.065577225   -2.4541525    1.0588452   957980 
 1827000    1.0049317   -2.4533243   -2.4533243    -1.394774  0.064383278   -2.4533243    1.0585503   957980 
 1828000     1.005824   -2.4541709   -2.4541709   -1.3946807  0.068702119   -2.4541709    1.0594902   957980 
 1829000    1.0057233   -2.4540209   -2.4540209   -1.3946368  0.076181519   -2.4540209    1.0593842   957980 
 1830000     1.005717   -2.4542447   -2.4542447   -1.3948672  0.062312892   -2.4542447    1.0593775   957980 
 1831000    1.0057597   -2.4543133   -2.4543133   -1.3948908  0.069493398   -2.4543133    1.0594225   957980 
 1832000    1.0071406   -2.4559842   -2.4559842   -1.3951071   0.06196729   -2.4559842    1.0608771   957980 
 1833000    1.0072678   -2.4561245   -2.4561245   -1.3951134  0.069907229   -2.4561245    1.0610111   957980 
 1834000     1.006985   -2.4561878   -2.4561878   -1.3954746  0.067107948   -2.4561878    1.0607132   957980 
 1835000    1.0072499   -2.4564483   -2.4564483   -1.3954561  0.065266173   -2.4564483    1.0609923   957980 
 1836000    1.0071327   -2.4560215   -2.4560215   -1.3951527  0.070744547   -2.4560215    1.0608688   957980 
 1837000    1.0071642   -2.4562223   -2.4562223   -1.3953204  0.065332488   -2.4562223    1.0609019   957980 
 1838000    1.0067908   -2.4555728   -2.4555728   -1.3950642  0.073026732   -2.4555728    1.0605086   957980 
 1839000    1.0073614   -2.4558967   -2.4558967    -1.394787  0.063826276   -2.4558967    1.0611097   957980 
 1840000    1.0073142   -2.4553946   -2.4553946   -1.3943347  0.071885079   -2.4553946      1.06106   957980 
 1841000    1.0066539   -2.4556175   -2.4556175    -1.395253  0.066722261   -2.4556175    1.0603644   957980 
 1842000    1.0074378   -2.4566548   -2.4566548   -1.3954646  0.070239323   -2.4566548    1.0611901   957980 
 1843000    1.0071563   -2.4557823   -2.4557823   -1.3948886  0.073224423   -2.4557823    1.0608937   957980 
 1844000    1.0075019   -2.4561517   -2.4561517    -1.394894   0.06299567   -2.4561517    1.0612577   957980 
 1845000    1.0057796   -2.4541909   -2.4541909   -1.3947474  0.067147858   -2.4541909    1.0594435   957980 
 1846000    1.0068459    -2.454694    -2.454694   -1.3941274  0.067431021    -2.454694    1.0605667   957980 
 1847000    1.0070814   -2.4551439   -2.4551439   -1.3943291  0.069681106   -2.4551439    1.0608148   957980 
 1848000    1.0072521   -2.4553685   -2.4553685    -1.394374  0.064597073   -2.4553685    1.0609945   957980 
 1849000    1.0067584   -2.4548286   -2.4548286   -1.3943541  0.063672201   -2.4548286    1.0604745   957980 
 1850000    1.0068509   -2.4550421   -2.4550421   -1.3944702  0.061862712   -2.4550421    1.0605719   957980 
 1851000    1.0062326   -2.4546745   -2.4546745   -1.3947539  0.068528469   -2.4546745    1.0599206   957980 
 1852000    1.0062537   -2.4551776   -2.4551776   -1.3952348  0.067959823   -2.4551776    1.0599428   957980 
 1853000    1.0059005    -2.454368    -2.454368   -1.3947972  0.066475405    -2.454368    1.0595709   957980 
 1854000    1.0040542   -2.4524745   -2.4524745   -1.3948485  0.064300964   -2.4524745     1.057626   957980 
 1855000    1.0047555   -2.4532035   -2.4532035   -1.3948388  0.068893416   -2.4532035    1.0583648   957980 
 1856000    1.0048631   -2.4533823   -2.4533823   -1.3949043  0.059754272   -2.4533823     1.058478   957980 
 1857000    1.0047929    -2.453253    -2.453253   -1.3948489  0.058999838    -2.453253    1.0584042   957980 
 1858000    1.0047453   -2.4536004   -2.4536004   -1.3952464  0.060202337   -2.4536004     1.058354   957980 
 1859000    1.0040693   -2.4536627   -2.4536627   -1.3960208  0.058571796   -2.4536627    1.0576419   957980 
 1860000    1.0029142   -2.4517216   -2.4517216   -1.3952964  0.061379295   -2.4517216    1.0564252   957980 
 1861000    1.0044926   -2.4538398   -2.4538398   -1.3957521  0.059668053   -2.4538398    1.0580878   957980 
 1862000    1.0052568   -2.4543968   -2.4543968    -1.395504  0.055600769   -2.4543968    1.0588928   957980 
 1863000    1.0057504   -2.4539109   -2.4539109   -1.3944981  0.065807111   -2.4539109    1.0594127   957980 
 1864000    1.0059922   -2.4542453   -2.4542453   -1.3945778  0.063426592   -2.4542453    1.0596675   957980 
 1865000    1.0068927   -2.4548627   -2.4548627   -1.3942467  0.058459694   -2.4548627     1.060616   957980 
 1866000    1.0066209   -2.4551302   -2.4551302   -1.3948005  0.066030505   -2.4551302    1.0603297   957980 
 1867000    1.0062363   -2.4543314   -2.4543314   -1.3944069  0.071889673   -2.4543314    1.0599245   957980 
 1868000    1.0063143   -2.4545854   -2.4545854   -1.3945787  0.064219602   -2.4545854    1.0600067   957980 
 1869000    1.0068412   -2.4556102   -2.4556102   -1.3950485   0.06144117   -2.4556102    1.0605617   957980 
 1870000    1.0069328   -2.4554334   -2.4554334   -1.3947753  0.062711843   -2.4554334    1.0606582   957980 
 1871000    1.0066276   -2.4556875   -2.4556875   -1.3953507  0.062726978   -2.4556875    1.0603368   957980 
 1872000    1.0061411   -2.4558572   -2.4558572   -1.3960329  0.064965408   -2.4558572    1.0598243   957980 
 1873000    1.0060372   -2.4554277   -2.4554277   -1.3957129  0.071580197   -2.4554277    1.0597148   957980 
 1874000    1.0067606   -2.4565017   -2.4565017   -1.3960249  0.075886594   -2.4565017    1.0604768   957980 
 1875000    1.0066346   -2.4562832   -2.4562832   -1.3959391   0.05797191   -2.4562832    1.0603441   957980 
 1876000     1.005819    -2.455745    -2.455745     -1.39626  0.057652324    -2.455745     1.059485   957980 
 1877000    1.0067686   -2.4568355   -2.4568355   -1.3963503  0.067483147   -2.4568355    1.0604852   957980 
 1878000    1.0066308   -2.4568629   -2.4568629   -1.3965228  0.076092423   -2.4568629    1.0603401   957980 
 1879000    1.0074414   -2.4580276   -2.4580276   -1.3968336  0.067466663   -2.4580276    1.0611939   957980 
 1880000    1.0074039   -2.4574093   -2.4574093   -1.3962549  0.064678301   -2.4574093    1.0611544   957980 
 1881000    1.0075297   -2.4582444   -2.4582444   -1.3969574   0.06935133   -2.4582444    1.0612869   957980 
 1882000    1.0071544   -2.4577253   -2.4577253   -1.3968336   0.06659179   -2.4577253    1.0608916   957980 
 1883000    1.0076481   -2.4585262   -2.4585262   -1.3971145  0.067699306   -2.4585262    1.0614117   957980 
 1884000    1.0079704   -2.4584069   -2.4584069   -1.3966557  0.079021678   -2.4584069    1.0617512   957980 
 1885000     1.006532   -2.4576437   -2.4576437   -1.3974076  0.069337692   -2.4576437    1.0602361   957980 
 1886000     1.006092    -2.457405    -2.457405   -1.3976324  0.058891888    -2.457405    1.0597725   957980 
 1887000    1.0049503   -2.4570168   -2.4570168   -1.3984469  0.066806045   -2.4570168    1.0585699   957980 
 1888000    1.0066624   -2.4582798   -2.4582798   -1.3979064  0.066101755   -2.4582798    1.0603734   957980 
 1889000    1.0062054    -2.458231    -2.458231    -1.398339  0.071259831    -2.458231     1.059892   957980 
 1890000    1.0060286   -2.4579586   -2.4579586   -1.3982529  0.065937324   -2.4579586    1.0597057   957980 
 1891000    1.0059981   -2.4581525   -2.4581525   -1.3984789  0.067881759   -2.4581525    1.0596736   957980 
 1892000     1.004953   -2.4567086   -2.4567086   -1.3981359  0.073140314   -2.4567086    1.0585727   957980 
 1893000    1.0049964   -2.4572157   -2.4572157   -1.3985972   0.07319498   -2.4572157    1.0586185   957980 
 1894000    1.0058461   -2.4579255   -2.4579255    -1.398412  0.054344673   -2.4579255    1.0595135   957980 
 1895000    1.0058566   -2.4572401   -2.4572401   -1.3977155  0.065766756   -2.4572401    1.0595246   957980 
 1896000    1.0046283   -2.4557448   -2.4557448   -1.3975141  0.074314452   -2.4557448    1.0582307   957980 
 1897000    1.0063414   -2.4573477   -2.4573477   -1.3973124  0.071420018   -2.4573477    1.0600353   957980 
 1898000    1.0067152   -2.4570797   -2.4570797   -1.3966508  0.072642376   -2.4570797     1.060429   957980 
 1899000    1.0059237   -2.4565578   -2.4565578   -1.3969626  0.062185698   -2.4565578    1.0595952   957980 
 1900000    1.0070448    -2.457665    -2.457665   -1.3968888  0.069391345    -2.457665    1.0607762   957980 
 1901000    1.0085155   -2.4593975   -2.4593975   -1.3970721  0.070005863   -2.4593975    1.0623254   957980 
 1902000    1.0058486   -2.4570242   -2.4570242    -1.397508  0.068385612   -2.4570242    1.0595162   957980 
 1903000    1.0055257    -2.455965    -2.455965   -1.3967889  0.062690494    -2.455965    1.0591761   957980 
 1904000    1.0067816   -2.4574528   -2.4574528   -1.3969539  0.068683713   -2.4574528     1.060499   957980 
 1905000     1.006086   -2.4561603   -2.4561603   -1.3963942  0.065005235   -2.4561603    1.0597662   957980 
 1906000    1.0068374   -2.4569013   -2.4569013   -1.3963436  0.071371014   -2.4569013    1.0605577   957980 
 1907000    1.0057688   -2.4558482   -2.4558482   -1.3964161  0.067486842   -2.4558482     1.059432   957980 
 1908000    1.0060993   -2.4564394   -2.4564394   -1.3966592  0.070353741   -2.4564394    1.0597802   957980 
 1909000    1.0062997    -2.456311    -2.456311   -1.3963197  0.062239212    -2.456311    1.0599913   957980 
 1910000    1.0069868   -2.4574296   -2.4574296   -1.3967145  0.060463727   -2.4574296    1.0607151   957980 
 1911000    1.0057158    -2.456579    -2.456579   -1.3972028  0.062371033    -2.456579    1.0593763   957980 
 1912000    1.0046615   -2.4552125   -2.4552125   -1.3969468  0.076123266   -2.4552125    1.0582657   957980 
 1913000    1.0050319   -2.4552045   -2.4552045   -1.3965487  0.067330754   -2.4552045    1.0586559   957980 
 1914000    1.0051717   -2.4554737   -2.4554737   -1.3966705  0.065382749   -2.4554737    1.0588031   957980 
 1915000      1.00525   -2.4554454   -2.4554454   -1.3965598  0.062007933   -2.4554454    1.0588856   957980 
 1916000    1.0064916   -2.4562287   -2.4562287   -1.3960352  0.063105074   -2.4562287    1.0601935   957980 
 1917000     1.006966   -2.4571027   -2.4571027   -1.3964095  0.070081542   -2.4571027    1.0606932   957980 
 1918000    1.0057193   -2.4556452   -2.4556452   -1.3962652   0.06297241   -2.4556452    1.0593799   957980 
 1919000    1.0066138   -2.4566376   -2.4566376   -1.3963155  0.069396106   -2.4566376    1.0603222   957980 
 1920000    1.0060779   -2.4560549   -2.4560549   -1.3962972  0.081104191   -2.4560549    1.0597577   957980 
 1921000    1.0047506    -2.454835    -2.454835   -1.3964755  0.064729054    -2.454835    1.0583596   957980 
 1922000    1.0067468   -2.4563234   -2.4563234   -1.3958612  0.066161285   -2.4563234    1.0604623   957980 
 1923000    1.0063634   -2.4559166   -2.4559166   -1.3958581  0.072216473   -2.4559166    1.0600584   957980 
 1924000    1.0057465   -2.4558536   -2.4558536   -1.3964449  0.064139001   -2.4558536    1.0594086   957980 
 1925000    1.0057664   -2.4558204   -2.4558204   -1.3963908  0.067898861   -2.4558204    1.0594296   957980 
 1926000    1.0064973   -2.4560927   -2.4560927   -1.3958932  0.063222167   -2.4560927    1.0601995   957980 
 1927000    1.0059806   -2.4557614   -2.4557614   -1.3961063  0.060269252   -2.4557614    1.0596552   957980 
 1928000    1.0054883   -2.4557179   -2.4557179   -1.3965812  0.055275002   -2.4557179    1.0591367   957980 
 1929000    1.0050996   -2.4552418   -2.4552418   -1.3965146  0.062364374   -2.4552418    1.0587272   957980 
 1930000    1.0054628   -2.4557011   -2.4557011   -1.3965912   0.06372036   -2.4557011    1.0591098   957980 
 1931000    1.0069027   -2.4566957   -2.4566957   -1.3960692  0.063862528   -2.4566957    1.0606265   957980 
 1932000    1.0056406   -2.4554002   -2.4554002   -1.3961031  0.068815473   -2.4554002    1.0592971   957980 
 1933000    1.0063559   -2.4561549   -2.4561549   -1.3961044   0.07252334   -2.4561549    1.0600506   957980 
 1934000    1.0066596   -2.4563628   -2.4563628   -1.3959924  0.068322409   -2.4563628    1.0603704   957980 
 1935000    1.0073891   -2.4563902   -2.4563902   -1.3952514  0.060548956   -2.4563902    1.0611388   957980 
 1936000    1.0069214   -2.4562648   -2.4562648   -1.3956185  0.075895841   -2.4562648    1.0606462   957980 
 1937000    1.0081007   -2.4573671   -2.4573671   -1.3954787  0.072555385   -2.4573671    1.0618884   957980 
 1938000     1.007739   -2.4574209   -2.4574209   -1.3959135  0.076162959   -2.4574209    1.0615074   957980 
 1939000    1.0076143   -2.4575848   -2.4575848   -1.3962088  0.066311656   -2.4575848     1.061376   957980 
 1940000     1.006732   -2.4569597   -2.4569597    -1.396513  0.066736255   -2.4569597    1.0604467   957980 
 1941000    1.0067185   -2.4564444   -2.4564444    -1.396012  0.072179258   -2.4564444    1.0604324   957980 
 1942000    1.0071924   -2.4568083   -2.4568083   -1.3958766  0.067295897   -2.4568083    1.0609316   957980 
 1943000    1.0064555   -2.4564393   -2.4564393   -1.3962839  0.062915697   -2.4564393    1.0601554   957980 
 1944000    1.0068576   -2.4572066   -2.4572066   -1.3966275  0.067282982   -2.4572066     1.060579   957980 
 1945000    1.0052259     -2.45605     -2.45605   -1.3971898  0.066161942     -2.45605    1.0588602   957980 
 1946000    1.0054399   -2.4569651   -2.4569651   -1.3978794  0.065223152   -2.4569651    1.0590856   957980 
 1947000    1.0062178   -2.4578774   -2.4578774   -1.3979723  0.063852906   -2.4578774    1.0599051   957980 
 1948000    1.0045942    -2.456394    -2.456394   -1.3981992  0.063964016    -2.456394    1.0581948   957980 
 1949000    1.0050041   -2.4565516   -2.4565516   -1.3979251  0.064521401   -2.4565516    1.0586266   957980 
 1950000    1.0052443   -2.4572599   -2.4572599   -1.3983803  0.063706999   -2.4572599    1.0588796   957980 
 1951000    1.0056437   -2.4569119   -2.4569119   -1.3976116  0.069425825   -2.4569119    1.0593003   957980 
 1952000    1.0074155   -2.4590062   -2.4590062   -1.3978395  0.067625315   -2.4590062    1.0611667   957980 
 1953000    1.0054003   -2.4567842   -2.4567842   -1.3977403  0.061989052   -2.4567842    1.0590439   957980 
 1954000    1.0057231   -2.4570737   -2.4570737   -1.3976897  0.070426203   -2.4570737     1.059384   957980 
 1955000    1.0055577   -2.4569619   -2.4569619   -1.3977522  0.068906255   -2.4569619    1.0592097   957980 
 1956000    1.0063545   -2.4573559   -2.4573559   -1.3973068   0.06090627   -2.4573559    1.0600491   957980 
 1957000    1.0055622   -2.4570466   -2.4570466    -1.397832  0.060308559   -2.4570466    1.0592145   957980 
 1958000    1.0061532   -2.4572737   -2.4572737   -1.3974368  0.067225208   -2.4572737     1.059837   957980 
 1959000    1.0063563   -2.4574851   -2.4574851   -1.3974341  0.067458172   -2.4574851     1.060051   957980 
 1960000    1.0069889   -2.4583197   -2.4583197   -1.3976024  0.064706964   -2.4583197    1.0607173   957980 
 1961000    1.0052427   -2.4563725   -2.4563725   -1.3974946   0.07190257   -2.4563725    1.0588779   957980 
 1962000    1.0066076   -2.4578822   -2.4578822   -1.3975665  0.065075578   -2.4578822    1.0603157   957980 
 1963000    1.0064602   -2.4569429   -2.4569429   -1.3967826  0.071177714   -2.4569429    1.0601604   957980 
 1964000    1.0081122   -2.4587216   -2.4587216   -1.3968211  0.068766138   -2.4587216    1.0619005   957980 
 1965000     1.007249   -2.4569693   -2.4569693    -1.395978   0.06709033   -2.4569693    1.0609913   957980 
 1966000    1.0062653   -2.4563057   -2.4563057   -1.3963505   0.07365883   -2.4563057    1.0599551   957980 
 1967000    1.0076878   -2.4580801   -2.4580801   -1.3966265  0.065460871   -2.4580801    1.0614535   957980 
 1968000    1.0079245   -2.4582222   -2.4582222   -1.3965194   0.06922615   -2.4582222    1.0617028   957980 
 1969000    1.0068394   -2.4574179   -2.4574179    -1.396858  0.066741428   -2.4574179    1.0605599   957980 
 1970000    1.0074086   -2.4584199   -2.4584199   -1.3972606  0.065985516   -2.4584199    1.0611593   957980 
 1971000     1.007235   -2.4573968   -2.4573968   -1.3964203  0.061627522   -2.4573968    1.0609766   957980 
 1972000    1.0071822   -2.4574314   -2.4574314   -1.3965105  0.067435833   -2.4574314    1.0609209   957980 
 1973000    1.0072551    -2.457166    -2.457166   -1.3961684  0.061638158    -2.457166    1.0609977   957980 
 1974000    1.0071911   -2.4571817   -2.4571817   -1.3962514  0.063780004   -2.4571817    1.0609303   957980 
 1975000    1.0065332   -2.4568759   -2.4568759   -1.3966387  0.062044235   -2.4568759    1.0602373   957980 
 1976000    1.0070559   -2.4570951   -2.4570951   -1.3963072  0.065248731   -2.4570951    1.0607879   957980 
 1977000    1.0065553   -2.4561785   -2.4561785   -1.3959179  0.061073445   -2.4561785    1.0602606   957980 
 1978000    1.0070846   -2.4574115   -2.4574115   -1.3965934  0.063975804   -2.4574115     1.060818   957980 
 1979000    1.0062994   -2.4566985   -2.4566985   -1.3967075  0.067138251   -2.4566985     1.059991   957980 
 1980000      1.00557   -2.4558892   -2.4558892   -1.3966665   0.06161386   -2.4558892    1.0592227   957980 
 1981000    1.0054984   -2.4555277   -2.4555277   -1.3963804  0.061237747   -2.4555277    1.0591472   957980 
 1982000     1.005557   -2.4551462   -2.4551462   -1.3959372  0.061050156   -2.4551462     1.059209   957980 
 1983000    1.0065131   -2.4562447   -2.4562447   -1.3960286  0.058316087   -2.4562447    1.0602161   957980 
 1984000    1.0063549   -2.4560912   -2.4560912   -1.3960417  0.063803257   -2.4560912    1.0600495   957980 
 1985000    1.0067244   -2.4564629   -2.4564629   -1.3960243  0.064306753   -2.4564629    1.0604386   957980 
 1986000     1.007585   -2.4563013   -2.4563013   -1.3949561  0.066060549   -2.4563013    1.0613452   957980 
 1987000    1.0080628   -2.4562868   -2.4562868   -1.3944384  0.064597118   -2.4562868    1.0618485   957980 
 1988000    1.0081154   -2.4558422   -2.4558422   -1.3939383  0.075683675   -2.4558422    1.0619039   957980 
 1989000    1.0082808   -2.4554744   -2.4554744   -1.3933962  0.063491741   -2.4554744    1.0620782   957980 
 1990000    1.0073783   -2.4549176   -2.4549176   -1.3937901   0.06937769   -2.4549176    1.0611275   957980 
 1991000    1.0081761   -2.4556353   -2.4556353   -1.3936675  0.060245271   -2.4556353    1.0619678   957980 
 1992000    1.0070525    -2.455141    -2.455141   -1.3943567   0.06090545    -2.455141    1.0607843   957980 
 1993000    1.0064194   -2.4553072   -2.4553072   -1.3951898  0.064560486   -2.4553072    1.0601174   957980 
 1994000    1.0077228   -2.4560464   -2.4560464    -1.394556  0.062710525   -2.4560464    1.0614904   957980 
 1995000    1.0065938   -2.4548413   -2.4548413   -1.3945402   0.06781233   -2.4548413    1.0603011   957980 
 1996000    1.0058171   -2.4545875   -2.4545875   -1.3951045  0.075084287   -2.4545875     1.059483   957980 
 1997000    1.0056393   -2.4546063   -2.4546063   -1.3953106  0.060141239   -2.4546063    1.0592957   957980 
 1998000    1.0045941    -2.453091    -2.453091   -1.3948963   0.07460911    -2.453091    1.0581947   957980 
 1999000     1.006605   -2.4553454   -2.4553454   -1.3950325  0.062870998   -2.4553454    1.0603129   957980 
 2000000    1.0058386   -2.4541232   -2.4541232   -1.3946177  0.065661517   -2.4541232    1.0595056   957980 
 2001000    1.0066555    -2.455498    -2.455498   -1.3951319  0.059630663    -2.455498    1.0603661   957980 
 2002000    1.0059425   -2.4554207   -2.4554207   -1.3958056  0.068023085   -2.4554207    1.0596151   957980 
 2003000    1.0068031    -2.456057    -2.456057   -1.3955354  0.063086395    -2.456057    1.0605216   957980 
 2004000    1.0060243   -2.4551102   -2.4551102   -1.3954089  0.065195391   -2.4551102    1.0597013   957980 
 2005000    1.0072121   -2.4561354   -2.4561354   -1.3951829  0.065611931   -2.4561354    1.0609525   957980 
 2006000    1.0064297   -2.4547709   -2.4547709   -1.3946427  0.072252216   -2.4547709    1.0601282   957980 
 2007000    1.0073474   -2.4563673   -2.4563673   -1.3952724  0.063651348   -2.4563673    1.0610949   957980 
 2008000     1.007559   -2.4565765   -2.4565765   -1.3952588  0.067701135   -2.4565765    1.0613178   957980 
 2009000    1.0060151   -2.4558153   -2.4558153   -1.3961238  0.071292065   -2.4558153    1.0596915   957980 
 2010000     1.006329   -2.4566003   -2.4566003   -1.3965782  0.061844279   -2.4566003    1.0600222   957980 
 2011000    1.0077616   -2.4581554   -2.4581554   -1.3966242  0.062004433   -2.4581554    1.0615313   957980 
 2012000    1.0064025   -2.4562664   -2.4562664   -1.3961668   0.07953568   -2.4562664    1.0600996   957980 
 2013000     1.007978   -2.4587092   -2.4587092     -1.39695  0.071150834   -2.4587092    1.0617592   957980 
 2014000    1.0071578   -2.4580542   -2.4580542    -1.397159  0.065354373   -2.4580542    1.0608952   957980 
 2015000    1.0088633   -2.4598749   -2.4598749   -1.3971832  0.066649143   -2.4598749    1.0626917   957980 
 2016000    1.0064941    -2.457323    -2.457323    -1.397127  0.073174763    -2.457323    1.0601961   957980 
 2017000    1.0080226   -2.4593311   -2.4593311    -1.397525  0.065855182   -2.4593311    1.0618061   957980 
 2018000     1.008179   -2.4592169   -2.4592169   -1.3972461  0.074859364   -2.4592169    1.0619709   957980 
 2019000    1.0068157   -2.4574017   -2.4574017   -1.3968668  0.065389422   -2.4574017    1.0605348   957980 
 2020000    1.0091453   -2.4598791   -2.4598791   -1.3968903  0.065432957   -2.4598791    1.0629888   957980 
 2021000    1.0082526   -2.4592776   -2.4592776   -1.3972292  0.076450061   -2.4592776    1.0620484   957980 
 2022000    1.0073774   -2.4585892   -2.4585892   -1.3974627  0.078783164   -2.4585892    1.0611265   957980 
 2023000    1.0079983   -2.4590955   -2.4590955   -1.3973149  0.073080468   -2.4590955    1.0617805   957980 
 2024000    1.0060774   -2.4574564   -2.4574564   -1.3976993  0.074293388   -2.4574564    1.0597571   957980 
 2025000     1.008215   -2.4590986   -2.4590986   -1.3970898  0.071887672   -2.4590986    1.0620089   957980 
 2026000    1.0085501   -2.4588199   -2.4588199   -1.3964581  0.064951467   -2.4588199    1.0623618   957980 
 2027000    1.0072601   -2.4577473   -2.4577473   -1.3967444  0.075400381   -2.4577473    1.0610029   957980 
 2028000    1.0084979    -2.459135    -2.459135   -1.3968282  0.067935785    -2.459135    1.0623068   957980 
 2029000     1.007377   -2.4578669   -2.4578669   -1.3967407  0.072589551   -2.4578669    1.0611262   957980 
 2030000    1.0069323   -2.4571471   -2.4571471   -1.3964895  0.068961125   -2.4571471    1.0606577   957980 
 2031000    1.0078436   -2.4585907   -2.4585907   -1.3969731  0.069756495   -2.4585907    1.0616176   957980 
 2032000     1.007186   -2.4577194   -2.4577194   -1.3967944  0.068649854   -2.4577194     1.060925   957980 
 2033000    1.0069726    -2.457632    -2.457632   -1.3969319  0.074599055    -2.457632    1.0607001   957980 
 2034000    1.0060539    -2.456898    -2.456898   -1.3971655  0.063136224    -2.456898    1.0597324   957980 
 2035000    1.0060143   -2.4567835   -2.4567835   -1.3970928  0.060965336   -2.4567835    1.0596907   957980 
 2036000    1.0065311   -2.4573413   -2.4573413   -1.3971063  0.063712431   -2.4573413    1.0602351   957980 
 2037000     1.007044   -2.4574076   -2.4574076   -1.3966322   0.06156575   -2.4574076    1.0607754   957980 
 2038000    1.0057315   -2.4563977   -2.4563977   -1.3970048  0.063090538   -2.4563977    1.0593928   957980 
 2039000    1.0071167   -2.4573317   -2.4573317   -1.3964798  0.068081806   -2.4573317    1.0608519   957980 
 2040000    1.0072306   -2.4576202   -2.4576202   -1.3966484  0.070038024   -2.4576202    1.0609719   957980 
 2041000    1.0059291   -2.4563451   -2.4563451   -1.3967442  0.063606752   -2.4563451    1.0596009   957980 
 2042000    1.0064682   -2.4567241   -2.4567241   -1.3965553   0.07453424   -2.4567241    1.0601688   957980 
 2043000    1.0053559   -2.4554986   -2.4554986   -1.3965015  0.058190452   -2.4554986    1.0589972   957980 
 2044000    1.0064241   -2.4570385   -2.4570385   -1.3969162  0.065641005   -2.4570385    1.0601223   957980 
 2045000    1.0066016    -2.457384    -2.457384   -1.3970747  0.058453132    -2.457384    1.0603094   957980 
 2046000     1.006676   -2.4575583   -2.4575583   -1.3971706  0.062886023   -2.4575583    1.0603877   957980 
 2047000    1.0064866   -2.4567046   -2.4567046   -1.3965164  0.079278246   -2.4567046    1.0601882   957980 
 2048000    1.0071475   -2.4571053   -2.4571053   -1.3962209  0.061138776   -2.4571053    1.0608844   957980 
 2049000    1.0069132   -2.4571506   -2.4571506    -1.396513  0.055880254   -2.4571506    1.0606376   957980 
 2050000    1.0065413   -2.4563306   -2.4563306   -1.3960848  0.065421741   -2.4563306    1.0602458   957980 
 2051000    1.0076413   -2.4581601   -2.4581601   -1.3967556   0.06913091   -2.4581601    1.0614045   957980 
 2052000    1.0062958   -2.4569754   -2.4569754   -1.3969882  0.068690968   -2.4569754    1.0599872   957980 
 2053000    1.0068541   -2.4579298   -2.4579298   -1.3973545  0.062602944   -2.4579298    1.0605753   957980 
 2054000    1.0069195   -2.4576264   -2.4576264   -1.3969823  0.062166478   -2.4576264    1.0606442   957980 
 2055000     1.006662   -2.4567394   -2.4567394   -1.3963665  0.064729341   -2.4567394    1.0603729   957980 
 2056000     1.006621   -2.4574938   -2.4574938   -1.3971641  0.072899741   -2.4574938    1.0603297   957980 
 2057000    1.0071255   -2.4584261   -2.4584261   -1.3975649  0.072797831   -2.4584261    1.0608612   957980 
 2058000    1.0069466    -2.458443    -2.458443   -1.3977703  0.065306185    -2.458443    1.0606727   957980 
 2059000    1.0067658   -2.4580742   -2.4580742   -1.3975919  0.069578867   -2.4580742    1.0604822   957980 
 2060000    1.0066825   -2.4582067   -2.4582067   -1.3978121  0.064759638   -2.4582067    1.0603946   957980 
 2061000    1.0057801    -2.457124    -2.457124     -1.39768  0.066469327    -2.457124     1.059444   957980 
 2062000    1.0073571   -2.4588535   -2.4588535   -1.3977483  0.061915087   -2.4588535    1.0611051   957980 
 2063000    1.0058947   -2.4575826   -2.4575826   -1.3980179  0.062366856   -2.4575826    1.0595647   957980 
 2064000    1.0078006    -2.458654    -2.458654   -1.3970818  0.064680636    -2.458654    1.0615723   957980 
 2065000    1.0091622   -2.4598387   -2.4598387   -1.3968322   0.06358721   -2.4598387    1.0630066   957980 
 2066000    1.0081062   -2.4587528   -2.4587528   -1.3968586  0.061511226   -2.4587528    1.0618943   957980 
 2067000    1.0088868   -2.4592564   -2.4592564     -1.39654  0.070124902   -2.4592564    1.0627165   957980 
 2068000    1.0079865   -2.4585057   -2.4585057   -1.3967376  0.070062777   -2.4585057    1.0617681   957980 
 2069000    1.0083546   -2.4590153   -2.4590153   -1.3968594  0.076308793   -2.4590153    1.0621559   957980 
 2070000    1.0087098   -2.4586278   -2.4586278   -1.3960977  0.069931024   -2.4586278    1.0625301   957980 
 2071000    1.0074584   -2.4575521   -2.4575521   -1.3963403  0.070450992   -2.4575521    1.0612118   957980 
 2072000    1.0072641   -2.4572317   -2.4572317   -1.3962246  0.069106054   -2.4572317    1.0610072   957980 
 2073000    1.0070287   -2.4574939   -2.4574939   -1.3967347  0.071210349   -2.4574939    1.0607592   957980 
 2074000     1.006307   -2.4566385   -2.4566385   -1.3966394  0.066383008   -2.4566385    1.0599991   957980 
 2075000    1.0069346   -2.4569081   -2.4569081    -1.396248  0.057735746   -2.4569081      1.06066   957980 
 2076000     1.006241    -2.455973    -2.455973   -1.3960435  0.070537217    -2.455973    1.0599295   957980 
 2077000    1.0056186    -2.455043    -2.455043   -1.3957691  0.072999844    -2.455043    1.0592739   957980 
 2078000    1.0062673   -2.4561669   -2.4561669   -1.3962096  0.066388451   -2.4561669    1.0599572   957980 
 2079000    1.0064873   -2.4557546   -2.4557546   -1.3955657  0.071630142   -2.4557546     1.060189   957980 
 2080000    1.0077376   -2.4569469   -2.4569469   -1.3954409  0.065285011   -2.4569469     1.061506   957980 
 2081000    1.0068445   -2.4560572   -2.4560572    -1.395492  0.063476835   -2.4560572    1.0605651   957980 
 2082000    1.0061275   -2.4551236   -2.4551236   -1.3953137  0.073111667   -2.4551236      1.05981   957980 
 2083000    1.0054143   -2.4543627   -2.4543627    -1.395304  0.070473908   -2.4543627    1.0590587   957980 
 2084000    1.0072695   -2.4561549   -2.4561549   -1.3951421  0.066120474   -2.4561549    1.0610128   957980 
 2085000    1.0067642   -2.4551422   -2.4551422   -1.3946616  0.070767675   -2.4551422    1.0604806   957980 
 2086000    1.0059505   -2.4543311   -2.4543311   -1.3947076  0.065743607   -2.4543311    1.0596235   957980 
 2087000    1.0055782   -2.4548279   -2.4548279   -1.3955965  0.068614134   -2.4548279    1.0592313   957980 
 2088000    1.0050927   -2.4546585   -2.4546585   -1.3959386  0.069714107   -2.4546585      1.05872   957980 
 2089000    1.0057399   -2.4556405   -2.4556405   -1.3962389  0.064562301   -2.4556405    1.0594016   957980 
 2090000    1.0071528   -2.4571121   -2.4571121   -1.3962221  0.063769352   -2.4571121      1.06089   957980 
 2091000    1.0061744   -2.4555073   -2.4555073    -1.395648  0.068180513   -2.4555073    1.0598593   957980 
 2092000    1.0061233   -2.4552758   -2.4552758   -1.3954703  0.060080047   -2.4552758    1.0598055   957980 
 2093000    1.0063463   -2.4556483   -2.4556483    -1.395608  0.068016193   -2.4556483    1.0600404   957980 
 2094000    1.0061114   -2.4551012   -2.4551012   -1.3953082  0.068012118   -2.4551012     1.059793   957980 
 2095000    1.0075155   -2.4563786   -2.4563786   -1.3951066  0.068506186   -2.4563786     1.061272   957980 
 2096000    1.0061571   -2.4554216   -2.4554216   -1.3955805  0.066357239   -2.4554216    1.0598411   957980 
 2097000    1.0065372   -2.4560388   -2.4560388   -1.3957973  0.070562678   -2.4560388    1.0602415   957980 
 2098000    1.0061493   -2.4552634   -2.4552634   -1.3954305   0.06522629   -2.4552634    1.0598329   957980 
 2099000    1.0075076   -2.4563583   -2.4563583   -1.3950946  0.066864388   -2.4563583    1.0612637   957980 
 2100000     1.007453   -2.4565272   -2.4565272   -1.3953211  0.066124077   -2.4565272    1.0612061   957980 
 2101000    1.0064494   -2.4555221   -2.4555221   -1.3953731  0.066273903   -2.4555221     1.060149   957980 
 2102000    1.0073577    -2.456111    -2.456111   -1.3950053  0.073152228    -2.456111    1.0611058   957980 
 2103000    1.0080915   -2.4570495   -2.4570495   -1.3951708  0.067184263   -2.4570495    1.0618787   957980 
 2104000    1.0068237   -2.4560128   -2.4560128   -1.3954696  0.067289745   -2.4560128    1.0605433   957980 
 2105000    1.0064563   -2.4561864   -2.4561864   -1.3960301  0.064034769   -2.4561864    1.0601562   957980 
 2106000    1.0062483   -2.4551889   -2.4551889   -1.3952518  0.065602965   -2.4551889    1.0599372   957980 
 2107000    1.0081908   -2.4573424   -2.4573424    -1.395359  0.059499104   -2.4573424    1.0619834   957980 
 2108000    1.0070128   -2.4555065   -2.4555065    -1.394764   0.06965949   -2.4555065    1.0607425   957980 
 2109000     1.006969   -2.4562942   -2.4562942   -1.3955978  0.066388174   -2.4562942    1.0606964   957980 
 2110000    1.0080442   -2.4572791   -2.4572791   -1.3954502  0.069216704   -2.4572791    1.0618289   957980 
 2111000    1.0081484   -2.4579174   -2.4579174   -1.3959787  0.065689004   -2.4579174    1.0619387   957980 
 2112000    1.0061398   -2.4559754   -2.4559754   -1.3961525  0.066186871   -2.4559754    1.0598229   957980 
 2113000    1.0072221    -2.458074    -2.458074    -1.397111  0.065422039    -2.458074    1.0609629   957980 
 2114000    1.0065821    -2.457352    -2.457352   -1.3970632  0.062881992    -2.457352    1.0602888   957980 
 2115000     1.005941   -2.4562573   -2.4562573   -1.3966439   0.06784667   -2.4562573    1.0596135   957980 
 2116000    1.0058549   -2.4557023   -2.4557023   -1.3961796  0.066489673   -2.4557023    1.0595228   957980 
 2117000     1.006626   -2.4561644   -2.4561644   -1.3958294  0.066839287   -2.4561644     1.060335   957980 
 2118000    1.0073619   -2.4570969   -2.4570969   -1.3959867  0.064198187   -2.4570969    1.0611102   957980 
 2119000    1.0073984   -2.4577116   -2.4577116   -1.3965629  0.066925549   -2.4577116    1.0611487   957980 
 2120000    1.0070952   -2.4571608   -2.4571608   -1.3963316  0.059775895   -2.4571608    1.0608292   957980 
 2121000    1.0058833   -2.4561923   -2.4561923   -1.3966396  0.064803971   -2.4561923    1.0595527   957980 
 2122000    1.0061197   -2.4556645   -2.4556645   -1.3958628   0.07262431   -2.4556645    1.0598018   957980 
 2123000    1.0082286   -2.4573038   -2.4573038   -1.3952806  0.070545401   -2.4573038    1.0620231   957980 
 2124000    1.0063501   -2.4561531   -2.4561531   -1.3961088  0.065896099   -2.4561531    1.0600444   957980 
 2125000    1.0077084    -2.457032    -2.457032   -1.3955568  0.065393608    -2.457032    1.0614752   957980 
 2126000    1.0061381   -2.4564163   -2.4564163   -1.3965952  0.058992195   -2.4564163    1.0598211   957980 
 2127000    1.0067546   -2.4572667   -2.4572667   -1.3967961  0.053896398   -2.4572667    1.0604705   957980 
 2128000     1.004303   -2.4545214   -2.4545214   -1.3966334  0.066696028   -2.4545214     1.057888   957980 
 2129000    1.0071689   -2.4571241   -2.4571241   -1.3962172  0.067791135   -2.4571241    1.0609069   957980 
 2130000    1.0076017    -2.457461    -2.457461   -1.3960981  0.058698644    -2.457461    1.0613628   957980 
 2131000    1.0064761   -2.4555671   -2.4555671     -1.39539   0.07014819   -2.4555671    1.0601771   957980 
 2132000    1.0061262   -2.4558665   -2.4558665   -1.3960579  0.066696196   -2.4558665    1.0598086   957980 
 2133000    1.0073333   -2.4568512   -2.4568512   -1.3957712  0.067028347   -2.4568512      1.06108   957980 
 2134000    1.0067142   -2.4563345   -2.4563345   -1.3959066  0.072783712   -2.4563345    1.0604279   957980 
 2135000    1.0073862   -2.4569927   -2.4569927    -1.395857  0.069911384   -2.4569927    1.0611358   957980 
 2136000    1.0070297   -2.4569885   -2.4569885   -1.3962283  0.069999782   -2.4569885    1.0607602   957980 
 2137000    1.0073901   -2.4568982   -2.4568982   -1.3957583  0.069020973   -2.4568982    1.0611399   957980 
 2138000    1.0068884   -2.4567444   -2.4567444    -1.396133  0.068000645   -2.4567444    1.0606114   957980 
 2139000    1.0076899   -2.4573731   -2.4573731   -1.3959174  0.070705286   -2.4573731    1.0614557   957980 
 2140000    1.0056972   -2.4556203   -2.4556203   -1.3962637   0.06030237   -2.4556203    1.0593567   957980 
 2141000    1.0067847   -2.4565238   -2.4565238   -1.3960216  0.069837101   -2.4565238    1.0605022   957980 
 2142000    1.0059981   -2.4559428   -2.4559428   -1.3962692   0.06519579   -2.4559428    1.0596736   957980 
 2143000    1.0068961   -2.4565559   -2.4565559   -1.3959363  0.063854585   -2.4565559    1.0606196   957980 
 2144000    1.0064356   -2.4559896   -2.4559896   -1.3958551   0.05929457   -2.4559896    1.0601344   957980 
 2145000    1.0067061   -2.4558641   -2.4558641   -1.3954447  0.067531233   -2.4558641    1.0604194   957980 
 2146000    1.0071982   -2.4564234   -2.4564234   -1.3954857  0.063098658   -2.4564234    1.0609377   957980 
 2147000    1.0075682   -2.4570941   -2.4570941   -1.3957666  0.064746705   -2.4570941    1.0613275   957980 
 2148000    1.0074703   -2.4572668   -2.4572668   -1.3960425  0.065510897   -2.4572668    1.0612244   957980 
 2149000    1.0077691   -2.4574196   -2.4574196   -1.3958804  0.059614593   -2.4574196    1.0615391   957980 
 2150000    1.0085575   -2.4572637   -2.4572637   -1.3948941  0.065238897   -2.4572637    1.0623696   957980 
 2151000    1.0070723   -2.4553214   -2.4553214   -1.3945162  0.065934528   -2.4553214    1.0608052   957980 
 2152000     1.006851   -2.4554541   -2.4554541    -1.394882  0.061035691   -2.4554541    1.0605721   957980 
 2153000    1.0069756   -2.4552936   -2.4552936   -1.3945903  0.067924416   -2.4552936    1.0607033   957980 
 2154000    1.0076518   -2.4566457   -2.4566457   -1.3952301  0.070098028   -2.4566457    1.0614156   957980 
 2155000     1.005408   -2.4546527   -2.4546527   -1.3956007  0.070882452   -2.4546527     1.059052   957980 
 2156000    1.0064542   -2.4560221   -2.4560221   -1.3958681  0.066612048   -2.4560221     1.060154   957980 
 2157000    1.0055073     -2.45436     -2.45436   -1.3952033  0.070095029     -2.45436    1.0591566   957980 
 2158000    1.0054848   -2.4550038   -2.4550038   -1.3958709  0.066860044   -2.4550038    1.0591329   957980 
 2159000    1.0052795   -2.4545662   -2.4545662   -1.3956495  0.080927189   -2.4545662    1.0589167   957980 
 2160000    1.0062312   -2.4552976   -2.4552976   -1.3953784  0.060779661   -2.4552976    1.0599192   957980 
 2161000    1.0054702   -2.4546699   -2.4546699   -1.3955523  0.074810048   -2.4546699    1.0591175   957980 
 2162000    1.0073419   -2.4565282   -2.4565282   -1.3954391  0.063316217   -2.4565282    1.0610891   957980 
 2163000    1.0063244    -2.456219    -2.456219   -1.3962017  0.067057455    -2.456219    1.0600174   957980 
 2164000    1.0069517   -2.4565522   -2.4565522   -1.3958741  0.066263064   -2.4565522    1.0606781   957980 
 2165000    1.0067141   -2.4560933   -2.4560933   -1.3956655  0.063897886   -2.4560933    1.0604278   957980 
 2166000    1.0064379   -2.4566344   -2.4566344   -1.3964975  0.063484855   -2.4566344    1.0601369   957980 
 2167000    1.0053117   -2.4553592   -2.4553592   -1.3964086   0.06798401   -2.4553592    1.0589506   957980 
 2168000     1.006204    -2.455856    -2.455856   -1.3959654  0.064715664    -2.455856    1.0598905   957980 
 2169000    1.0066715   -2.4562286   -2.4562286   -1.3958456  0.056741566   -2.4562286     1.060383   957980 
 2170000    1.0055005    -2.455092    -2.455092   -1.3959425  0.066906378    -2.455092    1.0591495   957980 
 2171000    1.0065635    -2.456659    -2.456659   -1.3963898  0.069344158    -2.456659    1.0602692   957980 
 2172000     1.006141   -2.4564839   -2.4564839   -1.3966598  0.075235588   -2.4564839    1.0598242   957980 
 2173000    1.0054365   -2.4554174   -2.4554174   -1.3963353  0.069489951   -2.4554174    1.0590821   957980 
 2174000    1.0056668   -2.4554409   -2.4554409   -1.3961162   0.06946771   -2.4554409    1.0593246   957980 
 2175000    1.0075736    -2.457183    -2.457183   -1.3958498  0.072481258    -2.457183    1.0613332   957980 
 2176000    1.0067426   -2.4561775   -2.4561775   -1.3957197  0.068607592   -2.4561775    1.0604579   957980 
 2177000    1.0077084   -2.4574741   -2.4574741   -1.3959989   0.07725199   -2.4574741    1.0614751   957980 
 2178000    1.0072276   -2.4573217   -2.4573217    -1.396353  0.063287714   -2.4573217    1.0609687   957980 
 2179000    1.0075622   -2.4575205   -2.4575205   -1.3961993    0.0658388   -2.4575205    1.0613211   957980 
 2180000    1.0080553   -2.4577067   -2.4577067   -1.3958661  0.060674029   -2.4577067    1.0618406   957980 
 2181000    1.0077962   -2.4566019   -2.4566019   -1.3950343  0.066554689   -2.4566019    1.0615676   957980 
 2182000     1.008252   -2.4566638   -2.4566638   -1.3946161  0.076697745   -2.4566638    1.0620477   957980 
 2183000     1.008414   -2.4563775   -2.4563775    -1.394159  0.068228511   -2.4563775    1.0622185   957980 
 2184000    1.0071915   -2.4548932   -2.4548932   -1.3939625  0.068750448   -2.4548932    1.0609307   957980 
 2185000    1.0070436    -2.454883    -2.454883   -1.3941081  0.071569885    -2.454883    1.0607749   957980 
 2186000    1.0080937   -2.4557014   -2.4557014   -1.3938203   0.06826079   -2.4557014    1.0618811   957980 
 2187000    1.0081238   -2.4571543   -2.4571543   -1.3952416  0.070896955   -2.4571543    1.0619127   957980 
 2188000    1.0090953   -2.4580554   -2.4580554   -1.3951193  0.063343023   -2.4580554    1.0629361   957980 
 2189000    1.0073469   -2.4567749   -2.4567749   -1.3956805  0.067205606   -2.4567749    1.0610944   957980 
 2190000    1.0062822   -2.4557555   -2.4557555   -1.3957826  0.066222974   -2.4557555    1.0599729   957980 
 2191000    1.0075782   -2.4566396   -2.4566396   -1.3953016  0.068706616   -2.4566396     1.061338   957980 
 2192000    1.0059456   -2.4552426   -2.4552426   -1.3956243  0.065259448   -2.4552426    1.0596183   957980 
 2193000    1.0063128   -2.4551398   -2.4551398   -1.3951346  0.066093259   -2.4551398    1.0600051   957980 
 2194000    1.0074006   -2.4557641   -2.4557641   -1.3946131  0.062036991   -2.4557641    1.0611509   957980 
 2195000    1.0068258   -2.4552021   -2.4552021   -1.3946566  0.070404554   -2.4552021    1.0605455   957980 
 2196000    1.0068711   -2.4559984   -2.4559984   -1.3954052  0.071072662   -2.4559984    1.0605932   957980 
 2197000    1.0055295   -2.4559978   -2.4559978   -1.3968177   0.06428588   -2.4559978      1.05918   957980 
 2198000    1.0059552   -2.4558235   -2.4558235    -1.396195  0.066336117   -2.4558235    1.0596285   957980 
 2199000    1.0067533   -2.4570274   -2.4570274   -1.3965583  0.059463277   -2.4570274    1.0604691   957980 
 2200000    1.0072528   -2.4574662   -2.4574662    -1.396471   0.06142143   -2.4574662    1.0609952   957980 
 2201000    1.0069359   -2.4570701   -2.4570701   -1.3964086  0.066056438   -2.4570701    1.0606615   957980 
 2202000    1.0064705   -2.4564049   -2.4564049   -1.3962336  0.070744678   -2.4564049    1.0601713   957980 
 2203000     1.007107   -2.4562178   -2.4562178   -1.3953762   0.06579413   -2.4562178    1.0608417   957980 
 2204000     1.009124   -2.4582908   -2.4582908   -1.3953245  0.064998371   -2.4582908    1.0629663   957980 
 2205000    1.0078761   -2.4570202   -2.4570202   -1.3953684  0.079190488   -2.4570202    1.0616519   957980 
 2206000    1.0087157   -2.4583171   -2.4583171   -1.3957809   0.06770803   -2.4583171    1.0625363   957980 
 2207000    1.0063307    -2.456265    -2.456265    -1.396241  0.066975735    -2.456265     1.060024   957980 
 2208000    1.0084944   -2.4577756   -2.4577756   -1.3954726  0.063554898   -2.4577756    1.0623031   957980 
 2209000    1.0080136   -2.4574912   -2.4574912   -1.3956946  0.064052305   -2.4574912    1.0617966   957980 
 2210000    1.0081986   -2.4574498   -2.4574498   -1.3954583  0.072647128   -2.4574498    1.0619915   957980 
 2211000     1.008421   -2.4579255   -2.4579255   -1.3956997  0.072697631   -2.4579255    1.0622258   957980 
 2212000    1.0077557   -2.4573349   -2.4573349   -1.3958099  0.063573219   -2.4573349     1.061525   957980 
 2213000    1.0063533   -2.4572525   -2.4572525   -1.3972048  0.068377216   -2.4572525    1.0600478   957980 
 2214000    1.0061393   -2.4571908   -2.4571908   -1.3973685  0.062686565   -2.4571908    1.0598224   957980 
 2215000    1.0063554   -2.4569773   -2.4569773   -1.3969274  0.062123914   -2.4569773      1.06005   957980 
 2216000    1.0068975   -2.4572997   -2.4572997   -1.3966787  0.065365692   -2.4572997     1.060621   957980 
 2217000    1.0071272    -2.457536    -2.457536    -1.396673  0.066836968    -2.457536     1.060863   957980 
 2218000    1.0065219   -2.4568762   -2.4568762   -1.3966508  0.067885565   -2.4568762    1.0602254   957980 
 2219000    1.0072444   -2.4576519   -2.4576519   -1.3966654  0.067824568   -2.4576519    1.0609865   957980 
 2220000    1.0086234   -2.4586105   -2.4586105   -1.3961715  0.065765088   -2.4586105     1.062439   957980 
 2221000    1.0068327   -2.4567941   -2.4567941   -1.3962413  0.066796954   -2.4567941    1.0605528   957980 
 2222000    1.0072482    -2.457004    -2.457004   -1.3960135  0.070440842    -2.457004    1.0609905   957980 
 2223000    1.0071166   -2.4574625   -2.4574625   -1.3966107  0.067719176   -2.4574625    1.0608518   957980 
 2224000    1.0066488   -2.4568284   -2.4568284   -1.3964694  0.070797708   -2.4568284     1.060359   957980 
 2225000    1.0070397   -2.4570054   -2.4570054   -1.3962345  0.062764291   -2.4570054    1.0607709   957980 
 2226000    1.0089496   -2.4582823   -2.4582823   -1.3954997    0.0676443   -2.4582823    1.0627826   957980 
 2227000    1.0081122   -2.4570199   -2.4570199   -1.3951194  0.062795234   -2.4570199    1.0619005   957980 
 2228000    1.0070581   -2.4568045   -2.4568045   -1.3960143  0.074000265   -2.4568045    1.0607902   957980 
 2229000    1.0083883   -2.4577367   -2.4577367   -1.3955453  0.071108659   -2.4577367    1.0621914   957980 
 2230000    1.0080395   -2.4566144   -2.4566144   -1.3947905  0.069439114   -2.4566144    1.0618239   957980 
 2231000    1.0092672   -2.4574778   -2.4574778   -1.3943606  0.063032167   -2.4574778    1.0631172   957980 
 2232000    1.0092447   -2.4575254   -2.4575254    -1.394432  0.074526886   -2.4575254    1.0630934   957980 
 2233000     1.007608   -2.4564121   -2.4564121   -1.3950427  0.065801122   -2.4564121    1.0613694   957980 
 2234000    1.0077162   -2.4565266   -2.4565266   -1.3950432  0.072904154   -2.4565266    1.0614834   957980 
 2235000    1.0079142   -2.4562881   -2.4562881   -1.3945961  0.070748581   -2.4562881     1.061692   957980 
 2236000    1.0081916   -2.4570197   -2.4570197   -1.3950356  0.066632327   -2.4570197    1.0619841   957980 
 2237000    1.0064243   -2.4558253   -2.4558253   -1.3957027    0.0701948   -2.4558253    1.0601226   957980 
 2238000    1.0059377   -2.4550857   -2.4550857   -1.3954757  0.065440738   -2.4550857      1.05961   957980 
 2239000    1.0069953   -2.4554067   -2.4554067   -1.3946826  0.064914319   -2.4554067    1.0607241   957980 
 2240000    1.0085245   -2.4567782   -2.4567782   -1.3944434  0.062118233   -2.4567782    1.0623348   957980 
 2241000    1.0068783   -2.4555387   -2.4555387   -1.3949379  0.069426268   -2.4555387    1.0606008   957980 
 2242000    1.0077898   -2.4565863   -2.4565863   -1.3950254  0.061560105   -2.4565863    1.0615609   957980 
 2243000    1.0070296   -2.4560027   -2.4560027   -1.3952426  0.071598687   -2.4560027    1.0607601   957980 
 2244000    1.0063434   -2.4554584   -2.4554584   -1.3954211  0.064802185   -2.4554584    1.0600373   957980 
 2245000    1.0068234   -2.4556665   -2.4556665   -1.3951235  0.070842716   -2.4556665     1.060543   957980 
 2246000    1.0058224   -2.4551308   -2.4551308   -1.3956422  0.065534618   -2.4551308    1.0594886   957980 
 2247000    1.0063109   -2.4556162   -2.4556162   -1.3956131  0.064669065   -2.4556162    1.0600031   957980 
 2248000    1.0069594   -2.4557673   -2.4557673   -1.3950811  0.065057659   -2.4557673    1.0606862   957980 
 2249000    1.0053142   -2.4541655   -2.4541655   -1.3952123  0.065307852   -2.4541655    1.0589532   957980 
 2250000    1.0053628   -2.4539158   -2.4539158   -1.3949114  0.066196836   -2.4539158    1.0590044   957980 
 2251000    1.0069441   -2.4550234   -2.4550234   -1.3943532   0.06292636   -2.4550234    1.0606701   957980 
 2252000    1.0082766    -2.455547    -2.455547   -1.3934732  0.066893071    -2.455547    1.0620737   957980 
 2253000    1.0084069   -2.4562654   -2.4562654   -1.3940545  0.070149391   -2.4562654    1.0622109   957980 
 2254000    1.0081487   -2.4564239   -2.4564239   -1.3944849  0.069534497   -2.4564239    1.0619389   957980 
 2255000    1.0074591   -2.4555533   -2.4555533   -1.3943408  0.068396696   -2.4555533    1.0612126   957980 
 2256000    1.0073741   -2.4561508   -2.4561508   -1.3950277  0.062902487   -2.4561508     1.061123   957980 
 2257000    1.0076661   -2.4558354   -2.4558354   -1.3944048  0.068138685   -2.4558354    1.0614306   957980 
 2258000    1.0076953   -2.4565332   -2.4565332   -1.3950718  0.068080534   -2.4565332    1.0614614   957980 
 2259000    1.0072142    -2.456399    -2.456399   -1.3954444  0.065051795    -2.456399    1.0609547   957980 
 2260000     1.006748   -2.4551918   -2.4551918   -1.3947283  0.069109408   -2.4551918    1.0604635   957980 
 2261000    1.0066752   -2.4554402   -2.4554402   -1.3950534  0.064497697   -2.4554402    1.0603868   957980 
 2262000    1.0085238   -2.4564872   -2.4564872   -1.3941531   0.06561823   -2.4564872    1.0623341   957980 
 2263000    1.0068249   -2.4553009   -2.4553009   -1.3947563  0.065279503   -2.4553009    1.0605446   957980 
 2264000    1.0082582   -2.4570988   -2.4570988   -1.3950445  0.066623076   -2.4570988    1.0620543   957980 
 2265000     1.006594   -2.4557559   -2.4557559   -1.3954546  0.072824159   -2.4557559    1.0603013   957980 
 2266000    1.0077543   -2.4566973   -2.4566973   -1.3951737  0.065603354   -2.4566973    1.0615235   957980 
 2267000     1.007332   -2.4566481   -2.4566481   -1.3955694  0.066705122   -2.4566481    1.0610787   957980 
 2268000    1.0083312   -2.4575575   -2.4575575   -1.3954263  0.065638975   -2.4575575    1.0621312   957980 
 2269000      1.00885   -2.4572997   -2.4572997    -1.394622  0.080197605   -2.4572997    1.0626777   957980 
 2270000    1.0078505   -2.4567599   -2.4567599    -1.395135  0.073233308   -2.4567599    1.0616248   957980 
 2271000    1.0067673   -2.4559844   -2.4559844   -1.3955005  0.070852219   -2.4559844    1.0604838   957980 
 2272000    1.0078522   -2.4563623   -2.4563623   -1.3947357  0.068334569   -2.4563623    1.0616267   957980 
 2273000    1.0083996   -2.4569444   -2.4569444   -1.3947411  0.066464734   -2.4569444    1.0622033   957980 
 2274000    1.0076466   -2.4560702   -2.4560702   -1.3946602  0.076492786   -2.4560702    1.0614101   957980 
 2275000    1.0074489   -2.4565456   -2.4565456   -1.3953438  0.067374182   -2.4565456    1.0612018   957980 
 2276000    1.0070604    -2.455494    -2.455494   -1.3947014  0.069098851    -2.455494    1.0607926   957980 
 2277000    1.0083103   -2.4567183   -2.4567183    -1.394609  0.069296151   -2.4567183    1.0621093   957980 
 2278000    1.0080392   -2.4566607   -2.4566607   -1.3948371  0.069261897   -2.4566607    1.0618236   957980 
 2279000    1.0070495   -2.4553358   -2.4553358   -1.3945547  0.069089628   -2.4553358    1.0607811   957980 
 2280000    1.0072563   -2.4554817   -2.4554817   -1.3944827  0.068211205   -2.4554817     1.060999   957980 
 2281000    1.0076318   -2.4568787   -2.4568787   -1.3954842  0.067846272   -2.4568787    1.0613945   957980 
 2282000    1.0063048    -2.455071    -2.455071   -1.3950743  0.065275156    -2.455071    1.0599967   957980 
 2283000    1.0055235   -2.4545371   -2.4545371   -1.3953634  0.065555081   -2.4545371    1.0591737   957980 
 2284000    1.0066809   -2.4554248   -2.4554248   -1.3950319  0.067912334   -2.4554248    1.0603929   957980 
 2285000    1.0076592   -2.4563562   -2.4563562   -1.3949329   0.05768059   -2.4563562    1.0614234   957980 
 2286000     1.006295   -2.4556176   -2.4556176   -1.3956312  0.069755382   -2.4556176    1.0599864   957980 
 2287000    1.0053862   -2.4547326   -2.4547326   -1.3957035  0.064403119   -2.4547326    1.0590291   957980 
 2288000    1.0044772   -2.4537096   -2.4537096   -1.3956379  0.068178092   -2.4537096    1.0580716   957980 
 2289000    1.0068296   -2.4555765   -2.4555765    -1.395027  0.064578228   -2.4555765    1.0605495   957980 
 2290000    1.0066092   -2.4556066   -2.4556066   -1.3952893  0.061834176   -2.4556066    1.0603174   957980 
 2291000    1.0063456   -2.4559574   -2.4559574   -1.3959178  0.059463725   -2.4559574    1.0600396   957980 
 2292000    1.0051707   -2.4542782   -2.4542782   -1.3954761  0.066360269   -2.4542782    1.0588021   957980 
 2293000    1.0066288   -2.4559536   -2.4559536   -1.3956156  0.063792291   -2.4559536     1.060338   957980 
 2294000    1.0048548   -2.4544635   -2.4544635   -1.3959942  0.066503248   -2.4544635    1.0584693   957980 
 2295000    1.0062058   -2.4557264   -2.4557264    -1.395834   0.06632777   -2.4557264    1.0598924   957980 
 2296000    1.0072003   -2.4561067   -2.4561067   -1.3951667  0.059924796   -2.4561067      1.06094   957980 
 2297000     1.006927   -2.4555401   -2.4555401    -1.394888  0.065320625   -2.4555401    1.0606521   957980 
 2298000    1.0067528   -2.4550941   -2.4550941   -1.3946254  0.069123355   -2.4550941    1.0604686   957980 
 2299000    1.0082461   -2.4563038   -2.4563038   -1.3942622  0.067402905   -2.4563038    1.0620416   957980 
 2300000    1.0064147   -2.4544313   -2.4544313   -1.3943189  0.066543986   -2.4544313    1.0601125   957980 
 2301000    1.0087005   -2.4572806   -2.4572806   -1.3947604   0.06618651   -2.4572806    1.0625202   957980 
 2302000    1.0081341   -2.4568523   -2.4568523   -1.3949287  0.062127251   -2.4568523    1.0619236   957980 
 2303000    1.0079638    -2.457032    -2.457032   -1.3952877  0.064088463    -2.457032    1.0617443   957980 
 2304000    1.0065266   -2.4555917   -2.4555917   -1.3953614  0.073912077   -2.4555917    1.0602303   957980 
 2305000    1.0065992   -2.4564055   -2.4564055   -1.3960987  0.063379431   -2.4564055    1.0603068   957980 
 2306000    1.0070308   -2.4566908   -2.4566908   -1.3959294  0.067832912   -2.4566908    1.0607614   957980 
 2307000    1.0086528   -2.4587869   -2.4587869    -1.396317   0.06394865   -2.4587869      1.06247   957980 
 2308000    1.0071097   -2.4578711   -2.4578711   -1.3970266  0.072674304   -2.4578711    1.0608446   957980 
 2309000    1.0064413    -2.457347    -2.457347   -1.3972065   0.06005646    -2.457347    1.0601405   957980 
 2310000    1.0075496   -2.4582125   -2.4582125   -1.3969046  0.063920388   -2.4582125    1.0613079   957980 
 2311000    1.0072946   -2.4590157   -2.4590157   -1.3979765  0.071105433   -2.4590157    1.0610393   957980 
 2312000    1.0068756   -2.4581013   -2.4581013   -1.3975034  0.067751092   -2.4581013    1.0605979   957980 
 2313000    1.0065287   -2.4575065   -2.4575065    -1.397274  0.072561981   -2.4575065    1.0602325   957980 
 2314000     1.008001   -2.4586921   -2.4586921   -1.3969087  0.064196796   -2.4586921    1.0617834   957980 
 2315000    1.0066827   -2.4580459   -2.4580459   -1.3976512  0.063821488   -2.4580459    1.0603947   957980 
 2316000    1.0073746   -2.4589408   -2.4589408   -1.3978172  0.068403139   -2.4589408    1.0611235   957980 
 2317000    1.0066241   -2.4588923   -2.4588923   -1.3985592   0.06974384   -2.4588923    1.0603331   957980 
 2318000    1.0075514   -2.4593982   -2.4593982   -1.3980884  0.071623915   -2.4593982    1.0613098   957980 
 2319000    1.0068847   -2.4588754   -2.4588754   -1.3982679  0.068425879   -2.4588754    1.0606075   957980 
 2320000    1.0067309   -2.4587667   -2.4587667   -1.3983212  0.067575978   -2.4587667    1.0604455   957980 
 2321000     1.006355   -2.4583586   -2.4583586   -1.3983091  0.063621954   -2.4583586    1.0600495   957980 
 2322000    1.0072954   -2.4589415   -2.4589415   -1.3979014  0.067402344   -2.4589415    1.0610401   957980 
 2323000    1.0076242   -2.4599708   -2.4599708   -1.3985842  0.069135104   -2.4599708    1.0613865   957980 
 2324000    1.0067423   -2.4587482   -2.4587482   -1.3982907  0.071653723   -2.4587482    1.0604576   957980 
 2325000    1.0064677   -2.4590499   -2.4590499   -1.3988817  0.064393112   -2.4590499    1.0601683   957980 
 2326000    1.0069706   -2.4590091   -2.4590091   -1.3983111  0.075734169   -2.4590091     1.060698   957980 
 2327000    1.0087841   -2.4608206   -2.4608206   -1.3982123  0.067204146   -2.4608206    1.0626083   957980 
 2328000    1.0071494   -2.4588134   -2.4588134    -1.397927  0.071031252   -2.4588134    1.0608864   957980 
 2329000    1.0089212   -2.4609313   -2.4609313   -1.3981786  0.066461367   -2.4609313    1.0627527   957980 
 2330000    1.0087085   -2.4604172   -2.4604172   -1.3978886  0.065133459   -2.4604172    1.0625286   957980 
 2331000    1.0080496   -2.4596108   -2.4596108   -1.3977762  0.070089575   -2.4596108    1.0618346   957980 
 2332000    1.0073965   -2.4601078   -2.4601078   -1.3989611  0.071419153   -2.4601078    1.0611467   957980 
 2333000    1.0065888   -2.4588329   -2.4588329    -1.398537  0.070887468   -2.4588329    1.0602958   957980 
 2334000    1.0073544   -2.4599651   -2.4599651   -1.3988627  0.069808222   -2.4599651    1.0611023   957980 
 2335000    1.0075282   -2.4599442   -2.4599442   -1.3986589  0.068808696   -2.4599442    1.0612854   957980 
 2336000    1.0065569    -2.458538    -2.458538   -1.3982758  0.064370922    -2.458538    1.0602622   957980 
 2337000    1.0068055   -2.4587432   -2.4587432   -1.3982191  0.066759252   -2.4587432    1.0605241   957980 
 2338000    1.0058588   -2.4586594   -2.4586594   -1.3991325  0.061881921   -2.4586594    1.0595269   957980 
 2339000    1.0057779   -2.4581108   -2.4581108   -1.3986692  0.072627592   -2.4581108    1.0594416   957980 
 2340000    1.0059005   -2.4578174   -2.4578174   -1.3982466  0.064882487   -2.4578174    1.0595708   957980 
 2341000    1.0065721   -2.4583644   -2.4583644   -1.3980861  0.066873983   -2.4583644    1.0602783   957980 
 2342000    1.0075022   -2.4593463   -2.4593463   -1.3980884  0.069023462   -2.4593463    1.0612579   957980 
 2343000    1.0063998   -2.4570966   -2.4570966   -1.3969999  0.072981609   -2.4570966    1.0600967   957980 
 2344000    1.0072947   -2.4576142   -2.4576142   -1.3965748  0.060266801   -2.4576142    1.0610394   957980 
 2345000    1.0069641    -2.457804    -2.457804   -1.3971128  0.059904256    -2.457804    1.0606912   957980 
 2346000    1.0062907    -2.457752    -2.457752   -1.3977701  0.070037781    -2.457752    1.0599818   957980 
 2347000    1.0063034   -2.4577286   -2.4577286   -1.3977334  0.066685448   -2.4577286    1.0599952   957980 
 2348000    1.0048593   -2.4558741   -2.4558741   -1.3974001  0.064146627   -2.4558741     1.058474   957980 
 2349000    1.0058839   -2.4565066   -2.4565066   -1.3969533  0.069317786   -2.4565066    1.0595533   957980 
 2350000    1.0070503   -2.4578421   -2.4578421   -1.3970601  0.068164162   -2.4578421     1.060782   957980 
 2351000    1.0051479   -2.4563529   -2.4563529   -1.3975748  0.065326501   -2.4563529    1.0587781   957980 
 2352000    1.0062499   -2.4575858   -2.4575858    -1.397647  0.064623108   -2.4575858    1.0599388   957980 
 2353000    1.0053701   -2.4563273   -2.4563273   -1.3973152  0.061601305   -2.4563273    1.0590121   957980 
 2354000    1.0064448   -2.4577699   -2.4577699   -1.3976258  0.059674644   -2.4577699    1.0601441   957980 
 2355000    1.0071647   -2.4582101   -2.4582101   -1.3973076    0.0690339   -2.4582101    1.0609024   957980 
 2356000     1.005715   -2.4560221   -2.4560221   -1.3966466  0.062499412   -2.4560221    1.0593755   957980 
 2357000    1.0067277    -2.457005    -2.457005   -1.3965628  0.068516564    -2.457005    1.0604422   957980 
 2358000    1.0075409   -2.4579197   -2.4579197    -1.396621  0.059066041   -2.4579197    1.0612988   957980 
 2359000    1.0070379   -2.4572148   -2.4572148   -1.3964458  0.072365431   -2.4572148     1.060769   957980 
 2360000    1.0074312     -2.45814     -2.45814   -1.3969568  0.061718233     -2.45814    1.0611832   957980 
 2361000    1.0078099   -2.4583085   -2.4583085   -1.3967264  0.066292022   -2.4583085    1.0615821   957980 
 2362000    1.0077595   -2.4577959   -2.4577959   -1.3962669  0.058233719   -2.4577959     1.061529   957980 
 2363000    1.0068223   -2.4572392   -2.4572392   -1.3966974  0.069375555   -2.4572392    1.0605418   957980 
 2364000    1.0077292   -2.4576094   -2.4576094   -1.3961123  0.071381522   -2.4576094    1.0614971   957980 
 2365000    1.0065764   -2.4571968   -2.4571968    -1.396914  0.072595584   -2.4571968    1.0602828   957980 
 2366000    1.0076571   -2.4585605   -2.4585605   -1.3971394   0.06723485   -2.4585605    1.0614211   957980 
 2367000    1.0052362   -2.4559387   -2.4559387   -1.3970677  0.070893357   -2.4559387     1.058871   957980 
 2368000    1.0064433   -2.4570453   -2.4570453   -1.3969027   0.06635456   -2.4570453    1.0601426   957980 
 2369000    1.0078333   -2.4581515   -2.4581515   -1.3965448   0.06328863   -2.4581515    1.0616067   957980 
 2370000    1.0073668   -2.4584429   -2.4584429   -1.3973276  0.059952001   -2.4584429    1.0611154   957980 
 2371000    1.0071736   -2.4584698   -2.4584698   -1.3975579   0.06545475   -2.4584698    1.0609119   957980 
 2372000    1.0073101   -2.4582286   -2.4582286    -1.397173  0.066431034   -2.4582286    1.0610556   957980 
 2373000    1.0063058   -2.4572559   -2.4572559   -1.3972582  0.067634705   -2.4572559    1.0599977   957980 
 2374000    1.0070727   -2.4574766   -2.4574766    -1.396671  0.066425575   -2.4574766    1.0608056   957980 
 2375000    1.0074062   -2.4577694   -2.4577694   -1.3966125  0.069759061   -2.4577694    1.0611569   957980 
 2376000    1.0085289   -2.4585204   -2.4585204   -1.3961809  0.062363617   -2.4585204    1.0623395   957980 
 2377000    1.0064921   -2.4566786   -2.4566786   -1.3964845  0.070010969   -2.4566786     1.060194   957980 
 2378000    1.0050162   -2.4550311   -2.4550311   -1.3963918  0.065915391   -2.4550311    1.0586393   957980 
 2379000    1.0074635   -2.4583179   -2.4583179   -1.3971007   0.07069888   -2.4583179    1.0612172   957980 
 2380000    1.0082171    -2.459321    -2.459321   -1.3973099  0.065178298    -2.459321     1.062011   957980 
 2381000    1.0080434   -2.4589005   -2.4589005   -1.3970725  0.074256611   -2.4589005     1.061828   957980 
 2382000    1.0076655   -2.4584512   -2.4584512   -1.3970211   0.06951027   -2.4584512      1.06143   957980 
 2383000     1.007468   -2.4576671   -2.4576671   -1.3964452  0.069281125   -2.4576671    1.0612219   957980 
 2384000     1.007789    -2.457522    -2.457522   -1.3959619   0.07621941    -2.457522    1.0615601   957980 
 2385000     1.006755   -2.4563725   -2.4563725   -1.3959016  0.063762053   -2.4563725    1.0604709   957980 
 2386000    1.0063078   -2.4569225   -2.4569225   -1.3969227  0.062764802   -2.4569225    1.0599998   957980 
 2387000    1.0060921    -2.456623    -2.456623   -1.3968503  0.066662184    -2.456623    1.0597726   957980 
 2388000    1.0057394   -2.4559596   -2.4559596   -1.3965585  0.063238187   -2.4559596    1.0594011   957980 
 2389000    1.0064407   -2.4574015   -2.4574015   -1.3972616  0.069702354   -2.4574015    1.0601399   957980 
 2390000    1.0066855   -2.4570769   -2.4570769   -1.3966792  0.068594181   -2.4570769    1.0603977   957980 
 2391000    1.0075156     -2.45718     -2.45718   -1.3959079  0.061622963     -2.45718    1.0612721   957980 
 2392000    1.0073966   -2.4560301   -2.4560301   -1.3948834  0.075569535   -2.4560301    1.0611467   957980 
 2393000    1.0077246   -2.4568495   -2.4568495   -1.3953573  0.058182475   -2.4568495    1.0614922   957980 
 2394000     1.007745   -2.4562974   -2.4562974   -1.3947837  0.063663214   -2.4562974    1.0615137   957980 
 2395000    1.0076991    -2.456136    -2.456136   -1.3946706   0.07145048    -2.456136    1.0614654   957980 
 2396000    1.0074657   -2.4562601   -2.4562601   -1.3950405  0.065222634   -2.4562601    1.0612196   957980 
 2397000    1.0069477   -2.4564374   -2.4564374   -1.3957634  0.072403468   -2.4564374    1.0606739   957980 
 2398000    1.0076573    -2.457347    -2.457347   -1.3959256  0.069796182    -2.457347    1.0614213   957980 
 2399000    1.0075894   -2.4566875   -2.4566875   -1.3953377  0.071003592   -2.4566875    1.0613498   957980 
 2400000    1.0068123   -2.4568563   -2.4568563   -1.3963251   0.06565027   -2.4568563    1.0605313   957980 
 2401000    1.0064025   -2.4558779   -2.4558779   -1.3957783   0.06890072   -2.4558779    1.0600996   957980 
 2402000    1.0062503   -2.4558413   -2.4558413   -1.3959021  0.063579891   -2.4558413    1.0599393   957980 
 2403000    1.0061432   -2.4558821   -2.4558821   -1.3960556  0.069775262   -2.4558821    1.0598264   957980 
 2404000    1.0058299   -2.4551553   -2.4551553   -1.3956588   0.06208476   -2.4551553    1.0594965   957980 
 2405000    1.0059661   -2.4544039   -2.4544039    -1.394764  0.065797101   -2.4544039    1.0596399   957980 
 2406000    1.0083593   -2.4567275   -2.4567275   -1.3945667  0.062517555   -2.4567275    1.0621608   957980 
 2407000    1.0071177   -2.4559482   -2.4559482   -1.3950952  0.064856898   -2.4559482     1.060853   957980 
 2408000    1.0055059   -2.4539314   -2.4539314   -1.3947762  0.068147389   -2.4539314    1.0591551   957980 
 2409000    1.0058077   -2.4540568   -2.4540568   -1.3945838  0.071524494   -2.4540568    1.0594731   957980 
 2410000    1.0083207   -2.4566207   -2.4566207   -1.3945006  0.067772309   -2.4566207    1.0621201   957980 
 2411000    1.0066873   -2.4544527   -2.4544527   -1.3940531  0.064344002   -2.4544527    1.0603996   957980 
 2412000    1.0072835   -2.4551241   -2.4551241   -1.3940965  0.062203007   -2.4551241    1.0610276   957980 
 2413000    1.0072437   -2.4550637   -2.4550637    -1.394078  0.065943275   -2.4550637    1.0609857   957980 
 2414000    1.0084207   -2.4556347   -2.4556347   -1.3934092  0.063199498   -2.4556347    1.0622255   957980 
 2415000    1.0079891   -2.4552798   -2.4552798    -1.393509  0.067188897   -2.4552798    1.0617708   957980 
 2416000      1.00762   -2.4548968   -2.4548968   -1.3935148  0.072986234   -2.4548968     1.061382   957980 
 2417000    1.0080668   -2.4554807   -2.4554807    -1.393628  0.066833393   -2.4554807    1.0618527   957980 
 2418000    1.0066264   -2.4541218   -2.4541218   -1.3937863  0.072112951   -2.4541218    1.0603355   957980 
 2419000    1.0065981   -2.4540406   -2.4540406   -1.3937349  0.065295134   -2.4540406    1.0603057   957980 
 2420000    1.0066736   -2.4546627   -2.4546627   -1.3942776  0.069245849   -2.4546627    1.0603852   957980 
 2421000     1.007127   -2.4554734   -2.4554734   -1.3946107  0.066204049   -2.4554734    1.0608627   957980 
 2422000    1.0057478   -2.4542872   -2.4542872   -1.3948773  0.065420552   -2.4542872      1.05941   957980 
 2423000    1.0047906     -2.45323     -2.45323   -1.3948283  0.064048005     -2.45323    1.0584017   957980 
 2424000    1.0069495    -2.456018    -2.456018   -1.3953422   0.06072491    -2.456018    1.0606758   957980 
 2425000    1.0069707   -2.4562202   -2.4562202   -1.3955221  0.063975911   -2.4562202    1.0606981   957980 
 2426000    1.0059178   -2.4543643   -2.4543643   -1.3947753  0.073494527   -2.4543643    1.0595891   957980 
 2427000    1.0062236   -2.4547483   -2.4547483   -1.3948372  0.067473783   -2.4547483    1.0599111   957980 
 2428000    1.0062744   -2.4551578   -2.4551578   -1.3951931  0.061010476   -2.4551578    1.0599647   957980 
 2429000    1.0075639   -2.4559271   -2.4559271   -1.3946041  0.071494785   -2.4559271     1.061323   957980 
 2430000    1.0081651   -2.4566059   -2.4566059   -1.3946496  0.072727719   -2.4566059    1.0619563   957980 
 2431000    1.0088103   -2.4575412   -2.4575412   -1.3949053  0.065210573   -2.4575412    1.0626359   957980 
 2432000    1.0066156   -2.4559355   -2.4559355   -1.3956114   0.07696763   -2.4559355    1.0603241   957980 
 2433000    1.0073425   -2.4567108   -2.4567108    -1.395621  0.065219976   -2.4567108    1.0610898   957980 
 2434000    1.0063976   -2.4561037   -2.4561037   -1.3960093  0.074131295   -2.4561037    1.0600944   957980 
 2435000    1.0067717   -2.4556934   -2.4556934   -1.3952049   0.06984219   -2.4556934    1.0604885   957980 
 2436000    1.0073075   -2.4564209   -2.4564209   -1.3953681  0.068065123   -2.4564209    1.0610529   957980 
 2437000    1.0075814   -2.4571473   -2.4571473   -1.3958059  0.065987615   -2.4571473    1.0613414   957980 
 2438000    1.0075908   -2.4574296   -2.4574296   -1.3960784  0.069843936   -2.4574296    1.0613513   957980 
 2439000    1.0077332   -2.4569596   -2.4569596   -1.3954583  0.065226351   -2.4569596    1.0615013   957980 
 2440000    1.0072111   -2.4573216   -2.4573216   -1.3963703  0.064191962   -2.4573216    1.0609513   957980 
 2441000    1.0084988   -2.4579712   -2.4579712   -1.3956634  0.072989023   -2.4579712    1.0623078   957980 
 2442000     1.008439   -2.4586479   -2.4586479   -1.3964031  0.068983102   -2.4586479    1.0622447   957980 
 2443000    1.0092564   -2.4594099   -2.4594099   -1.3963041  0.067581418   -2.4594099    1.0631058   957980 
 2444000    1.0089234   -2.4586312   -2.4586312   -1.3958761  0.069623624   -2.4586312     1.062755   957980 
 2445000     1.009469   -2.4588429   -2.4588429   -1.3955132  0.071760129   -2.4588429    1.0633297   957980 
 2446000    1.0094986   -2.4581923   -2.4581923   -1.3948314  0.065462995   -2.4581923    1.0633609   957980 
 2447000     1.008419   -2.4572912   -2.4572912   -1.3950675  0.069101724   -2.4572912    1.0622237   957980 
 2448000    1.0098787   -2.4582114   -2.4582114   -1.3944502   0.06384492   -2.4582114    1.0637612   957980 
 2449000    1.0092123   -2.4574974   -2.4574974   -1.3944381  0.069654076   -2.4574974    1.0630593   957980 
 2450000    1.0086637   -2.4573055   -2.4573055   -1.3948241  0.071613864   -2.4573055    1.0624814   957980 
 2451000    1.0086187   -2.4564451   -2.4564451    -1.394011  0.057311073   -2.4564451    1.0624341   957980 
 2452000    1.0083361   -2.4561904   -2.4561904   -1.3940541  0.073917616   -2.4561904    1.0621364   957980 
 2453000    1.0074573   -2.4561532   -2.4561532   -1.3949426  0.064661697   -2.4561532    1.0612107   957980 
 2454000    1.0059844   -2.4547379   -2.4547379   -1.3950787  0.067424598   -2.4547379    1.0596592   957980 
 2455000    1.0082542   -2.4563763   -2.4563763   -1.3943262  0.065104128   -2.4563763    1.0620501   957980 
 2456000    1.0061792   -2.4543428   -2.4543428   -1.3944784  0.066509004   -2.4543428    1.0598643   957980 
 2457000    1.0061663   -2.4542193   -2.4542193   -1.3943684  0.065926549   -2.4542193    1.0598508   957980 
 2458000    1.0070057   -2.4544999   -2.4544999   -1.3937649  0.063247498   -2.4544999     1.060735   957980 
 2459000     1.006492   -2.4541153   -2.4541153   -1.3939214  0.069687417   -2.4541153    1.0601939   957980 
 2460000    1.0065108   -2.4540905   -2.4540905   -1.3938768  0.066061699   -2.4540905    1.0602137   957980 
 2461000    1.0052056   -2.4523708   -2.4523708    -1.393532  0.064058911   -2.4523708    1.0588388   957980 
 2462000     1.005788     -2.45281     -2.45281   -1.3933576  0.076714648     -2.45281    1.0594524   957980 
 2463000    1.0078619   -2.4552831   -2.4552831   -1.3936462  0.066645632   -2.4552831    1.0616368   957980 
 2464000    1.0071894   -2.4542268   -2.4542268   -1.3932983  0.056854099   -2.4542268    1.0609285   957980 
 2465000    1.0061683   -2.4538511   -2.4538511   -1.3939982  0.060763925   -2.4538511    1.0598529   957980 
 2466000    1.0059403    -2.453441    -2.453441   -1.3938283  0.065966382    -2.453441    1.0596127   957980 
 2467000    1.0055298   -2.4533958   -2.4533958   -1.3942154  0.066573047   -2.4533958    1.0591804   957980 
 2468000    1.0052716   -2.4527556   -2.4527556   -1.3938472  0.064539365   -2.4527556    1.0589084   957980 
 2469000    1.0059933   -2.4542048   -2.4542048   -1.3945362  0.066721383   -2.4542048    1.0596686   957980 
 2470000    1.0064115   -2.4541715   -2.4541715   -1.3940623  0.062715271   -2.4541715    1.0601091   957980 
 2471000    1.0069334   -2.4551939   -2.4551939    -1.394535  0.063336791   -2.4551939    1.0606589   957980 
 2472000    1.0055997   -2.4544841   -2.4544841   -1.3952301  0.067627759   -2.4544841     1.059254   957980 
 2473000    1.0054746   -2.4546087   -2.4546087   -1.3954866  0.069256008   -2.4546087    1.0591222   957980 
 2474000    1.0056635   -2.4544158   -2.4544158   -1.3950946  0.063644871   -2.4544158    1.0593212   957980 
 2475000    1.0062247   -2.4554728   -2.4554728   -1.3955605  0.061441144   -2.4554728    1.0599123   957980 
 2476000    1.0069576   -2.4562452   -2.4562452   -1.3955608  0.067894368   -2.4562452    1.0606843   957980 
 2477000    1.0060439   -2.4553858   -2.4553858   -1.3956639   0.06783948   -2.4553858    1.0597219   957980 
 2478000    1.0069882   -2.4566792   -2.4566792   -1.3959627  0.062155424   -2.4566792    1.0607165   957980 
 2479000    1.0085141    -2.458148    -2.458148   -1.3958241  0.070736315    -2.458148    1.0623238   957980 
 2480000    1.0070465   -2.4578252   -2.4578252   -1.3970473   0.07009363   -2.4578252    1.0607779   957980 
 2481000    1.0084152   -2.4586632   -2.4586632   -1.3964434  0.075278211   -2.4586632    1.0622197   957980 
 2482000    1.0080577   -2.4587157   -2.4587157   -1.3968726  0.067368872   -2.4587157    1.0618431   957980 
 2483000    1.0085599   -2.4593358   -2.4593358   -1.3969636  0.072183221   -2.4593358    1.0623721   957980 
 2484000    1.0077881   -2.4586015   -2.4586015   -1.3970423  0.074196115   -2.4586015    1.0615592   957980 
 2485000     1.008312   -2.4600145   -2.4600145   -1.3979036  0.069350204   -2.4600145     1.062111   957980 
 2486000    1.0083957   -2.4591819   -2.4591819   -1.3969827  0.071372261   -2.4591819    1.0621992   957980 
 2487000    1.0086936   -2.4595654   -2.4595654   -1.3970524  0.065327603   -2.4595654    1.0625129   957980 
 2488000    1.0089636   -2.4598131   -2.4598131   -1.3970157  0.061949373   -2.4598131    1.0627974   957980 
 2489000    1.0095488   -2.4600693   -2.4600693   -1.3966556  0.077797398   -2.4600693    1.0634137   957980 
 2490000    1.0081189   -2.4589719   -2.4589719   -1.3970643  0.072497511   -2.4589719    1.0619076   957980 
 2491000    1.0079889   -2.4594647   -2.4594647   -1.3976941  0.075833621   -2.4594647    1.0617706   957980 
 2492000    1.0086405   -2.4599048   -2.4599048   -1.3974478  0.062003005   -2.4599048     1.062457   957980 
 2493000    1.0075489   -2.4587848   -2.4587848   -1.3974776  0.076513824   -2.4587848    1.0613071   957980 
 2494000    1.0081272   -2.4596543   -2.4596543    -1.397738  0.062694361   -2.4596543    1.0619164   957980 
 2495000    1.0069176   -2.4587517   -2.4587517   -1.3981095  0.065810712   -2.4587517    1.0606422   957980 
 2496000    1.0073005   -2.4591453   -2.4591453   -1.3980997  0.060634878   -2.4591453    1.0610456   957980 
 2497000    1.0063398   -2.4573936   -2.4573936   -1.3973601  0.068159831   -2.4573936    1.0600335   957980 
 2498000    1.0071542   -2.4584315   -2.4584315   -1.3975402  0.065630454   -2.4584315    1.0608914   957980 
 2499000    1.0068041   -2.4574524   -2.4574524   -1.3969298  0.070480644   -2.4574524    1.0605226   957980 
 2500000    1.0051923    -2.456522    -2.456522   -1.3976972  0.064166709    -2.456522    1.0588249   957980 
 2501000    1.0058318   -2.4562258   -2.4562258   -1.3967274  0.066845233   -2.4562258    1.0594984   957980 
 2502000    1.0056753   -2.4556169   -2.4556169   -1.3962833  0.068452546   -2.4556169    1.0593336   957980 
 2503000    1.0059156   -2.4557726   -2.4557726   -1.3961859  0.069953345   -2.4557726    1.0595867   957980 
 2504000    1.0059974   -2.4560256   -2.4560256   -1.3963526  0.064782346   -2.4560256    1.0596729   957980 
 2505000    1.0058443   -2.4562005   -2.4562005   -1.3966889  0.062335817   -2.4562005    1.0595116   957980 
 2506000    1.0059193   -2.4560504   -2.4560504   -1.3964598  0.067855239   -2.4560504    1.0595906   957980 
 2507000    1.0066809   -2.4568922   -2.4568922   -1.3964993  0.067161461   -2.4568922    1.0603929   957980 
 2508000    1.0062865   -2.4563063   -2.4563063   -1.3963288  0.069036121   -2.4563063    1.0599774   957980 
 2509000    1.0068852   -2.4564161   -2.4564161    -1.395808  0.066501339   -2.4564161    1.0606081   957980 
 2510000    1.0065034   -2.4558258   -2.4558258   -1.3956199  0.070888691   -2.4558258    1.0602059   957980 
 2511000    1.0072885   -2.4566751   -2.4566751   -1.3956423  0.067093257   -2.4566751    1.0610329   957980 
 2512000    1.0064803    -2.456317    -2.456317   -1.3961355  0.073078921    -2.456317    1.0601815   957980 
 2513000    1.0062712   -2.4562376   -2.4562376   -1.3962764   0.06124858   -2.4562376    1.0599613   957980 
 2514000    1.0072367   -2.4567642   -2.4567642   -1.3957859  0.064237333   -2.4567642    1.0609783   957980 
 2515000    1.0068805   -2.4570053   -2.4570053   -1.3964022  0.072302684   -2.4570053    1.0606031   957980 
 2516000    1.0061925   -2.4560714   -2.4560714   -1.3961929  0.063312197   -2.4560714    1.0598785   957980 
 2517000    1.0065986   -2.4560943   -2.4560943   -1.3957882  0.069617253   -2.4560943    1.0603061   957980 
 2518000    1.0068812   -2.4571358   -2.4571358    -1.396532  0.068204701   -2.4571358    1.0606038   957980 
 2519000    1.0065831   -2.4564618   -2.4564618    -1.396172  0.068428817   -2.4564618    1.0602899   957980 
 2520000    1.0083734   -2.4582751   -2.4582751   -1.3960994  0.066844657   -2.4582751    1.0621757   957980 
 2521000    1.0090034   -2.4583637   -2.4583637   -1.3955244  0.064449762   -2.4583637    1.0628393   957980 
 2522000    1.0073905   -2.4575648   -2.4575648   -1.3964245  0.064913896   -2.4575648    1.0611403   957980 
 2523000    1.0078348   -2.4579095   -2.4579095   -1.3963012   0.07762979   -2.4579095    1.0616083   957980 
 2524000    1.0064601   -2.4571727   -2.4571727   -1.3970124  0.068926612   -2.4571727    1.0601603   957980 
 2525000    1.0080558    -2.458956    -2.458956   -1.3971149  0.069762232    -2.458956    1.0618411   957980 
 2526000    1.0074416   -2.4584648   -2.4584648   -1.3972707  0.066541612   -2.4584648    1.0611941   957980 
 2527000    1.0073403   -2.4589903   -2.4589903   -1.3979028  0.063321403   -2.4589903    1.0610875   957980 
 2528000    1.0079112   -2.4595715   -2.4595715   -1.3978827  0.062970697   -2.4595715    1.0616888   957980 
 2529000    1.0063128   -2.4573868   -2.4573868   -1.3973817  0.068956942   -2.4573868    1.0600051   957980 
 2530000    1.0073964   -2.4581406   -2.4581406   -1.3969941  0.070440172   -2.4581406    1.0611465   957980 
 2531000    1.0058914   -2.4565841   -2.4565841   -1.3970229  0.074700838   -2.4565841    1.0595612   957980 
 2532000    1.0063949   -2.4570325   -2.4570325   -1.3969409  0.062840548   -2.4570325    1.0600916   957980 
 2533000      1.00602   -2.4567687   -2.4567687   -1.3970721  0.067368507   -2.4567687    1.0596966   957980 
 2534000    1.0070902   -2.4578781   -2.4578781   -1.3970541  0.068105771   -2.4578781     1.060824   957980 
 2535000    1.0073659   -2.4581939   -2.4581939   -1.3970795  0.070393519   -2.4581939    1.0611144   957980 
 2536000    1.0094669   -2.4596038   -2.4596038   -1.3962763  0.067300767   -2.4596038    1.0633275   957980 
 2537000     1.007625   -2.4580922   -2.4580922   -1.3967048  0.070987878   -2.4580922    1.0613874   957980 
 2538000    1.0090803   -2.4591063   -2.4591063    -1.396186  0.069558997   -2.4591063    1.0629203   957980 
 2539000    1.0089274   -2.4592764   -2.4592764   -1.3965171  0.071090422   -2.4592764    1.0627593   957980 
 2540000     1.007411   -2.4577977   -2.4577977   -1.3966358  0.065829328   -2.4577977    1.0611619   957980 
 2541000    1.0072164   -2.4574081   -2.4574081   -1.3964511   0.07529261   -2.4574081     1.060957   957980 
 2542000    1.0062737   -2.4569254   -2.4569254   -1.3969614  0.067919528   -2.4569254    1.0599639   957980 
 2543000    1.0071279   -2.4576931   -2.4576931   -1.3968294  0.056885206   -2.4576931    1.0608637   957980 
 2544000    1.0063224   -2.4568336   -2.4568336   -1.3968184  0.064211175   -2.4568336    1.0600153   957980 
 2545000    1.0063271    -2.456779    -2.456779   -1.3967588  0.063026972    -2.456779    1.0600202   957980 
 2546000    1.0049048   -2.4555636   -2.4555636   -1.3970416   0.06901515   -2.4555636     1.058522   957980 
 2547000     1.005699   -2.4562869   -2.4562869   -1.3969284  0.071514704   -2.4562869    1.0593586   957980 
 2548000    1.0063881   -2.4568194   -2.4568194    -1.396735  0.066056753   -2.4568194    1.0600844   957980 
 2549000     1.007156   -2.4570927   -2.4570927   -1.3961994  0.065833899   -2.4570927    1.0608933   957980 
 2550000    1.0072377   -2.4576396   -2.4576396   -1.3966603  0.064089947   -2.4576396    1.0609793   957980 
 2551000    1.0064408   -2.4563806   -2.4563806   -1.3962406  0.066383575   -2.4563806    1.0601399   957980 
 2552000    1.0053498   -2.4552353   -2.4552353   -1.3962445  0.062993888   -2.4552353    1.0589907   957980 
 2553000    1.0066454     -2.45675     -2.45675   -1.3963945  0.071063861     -2.45675    1.0603554   957980 
 2554000    1.0064527   -2.4563016   -2.4563016   -1.3961491  0.070587234   -2.4563016    1.0601525   957980 
 2555000    1.0063313   -2.4558809   -2.4558809   -1.3958563  0.067798647   -2.4558809    1.0600246   957980 
 2556000    1.0061772   -2.4560938   -2.4560938   -1.3962315   0.06832158   -2.4560938    1.0598623   957980 
 2557000    1.0063336   -2.4561577   -2.4561577   -1.3961306  0.067892467   -2.4561577     1.060027   957980 
 2558000    1.0060559   -2.4567275   -2.4567275    -1.396993  0.066383353   -2.4567275    1.0597345   957980 
 2559000    1.0055785   -2.4563439   -2.4563439   -1.3971122  0.069112737   -2.4563439    1.0592317   957980 
 2560000    1.0066641   -2.4571247   -2.4571247   -1.3967495  0.056549914   -2.4571247    1.0603752   957980 
 2561000    1.0053796   -2.4557358   -2.4557358   -1.3967136  0.069301298   -2.4557358    1.0590222   957980 
 2562000    1.0058433   -2.4566063   -2.4566063   -1.3970958  0.069081901   -2.4566063    1.0595105   957980 
 2563000    1.0068662   -2.4573106   -2.4573106   -1.3967225  0.068441615   -2.4573106     1.060588   957980 
 2564000    1.0079878    -2.458066    -2.458066   -1.3962965  0.069176344    -2.458066    1.0617695   957980 
 2565000     1.007037   -2.4568343   -2.4568343   -1.3960663  0.073398152   -2.4568343     1.060768   957980 
 2566000    1.0074965   -2.4574762   -2.4574762   -1.3962242  0.067328549   -2.4574762     1.061252   957980 
 2567000    1.0082095   -2.4571601   -2.4571601   -1.3951571  0.068728396   -2.4571601     1.062003   957980 
 2568000    1.0083678   -2.4572693   -2.4572693   -1.3950995  0.070260886   -2.4572693    1.0621698   957980 
 2569000    1.0076662   -2.4564294   -2.4564294   -1.3949986  0.071672448   -2.4564294    1.0614308   957980 
 2570000    1.0075321    -2.456403    -2.456403   -1.3951135  0.064562239    -2.456403    1.0612895   957980 
 2571000    1.0085432   -2.4577155   -2.4577155   -1.3953609  0.067232034   -2.4577155    1.0623545   957980 
 2572000    1.0086319   -2.4580655   -2.4580655   -1.3956176  0.067640839   -2.4580655     1.062448   957980 
 2573000    1.0077351   -2.4572376   -2.4572376   -1.3957343  0.064083762   -2.4572376    1.0615033   957980 
 2574000    1.0072381   -2.4570275   -2.4570275   -1.3960477  0.062461569   -2.4570275    1.0609798   957980 
 2575000    1.0067011   -2.4559866   -2.4559866   -1.3955725  0.065423205   -2.4559866    1.0604141   957980 
 2576000    1.0056448   -2.4548561   -2.4548561   -1.3955545  0.072028618   -2.4548561    1.0593015   957980 
 2577000    1.0067752   -2.4562653   -2.4562653   -1.3957732  0.064119414   -2.4562653    1.0604922   957980 
 2578000    1.0057539   -2.4555459   -2.4555459   -1.3961295  0.064527957   -2.4555459    1.0594164   957980 
 2579000    1.0075018   -2.4569696   -2.4569696   -1.3957121  0.071223762   -2.4569696    1.0612576   957980 
 2580000    1.0058175   -2.4559031   -2.4559031   -1.3964197  0.064950985   -2.4559031    1.0594834   957980 
 2581000    1.0073877   -2.4573666   -2.4573666   -1.3962292  0.062233549   -2.4573666    1.0611374   957980 
 2582000    1.0045756    -2.454705    -2.454705   -1.3965298  0.064713139    -2.454705    1.0581752   957980 
 2583000    1.0056794   -2.4552757   -2.4552757   -1.3959377  0.060898372   -2.4552757     1.059338   957980 
 2584000    1.0058429   -2.4547223   -2.4547223   -1.3952122  0.069895122   -2.4547223    1.0595102   957980 
 2585000    1.0066168   -2.4560811   -2.4560811   -1.3957558  0.069351436   -2.4560811    1.0603253   957980 
 2586000    1.0068498   -2.4563942   -2.4563942   -1.3958234  0.068126528   -2.4563942    1.0605708   957980 
 2587000    1.0068116   -2.4566867   -2.4566867   -1.3961562  0.065212223   -2.4566867    1.0605305   957980 
 2588000    1.0062865   -2.4561807   -2.4561807   -1.3962033  0.060944511   -2.4561807    1.0599774   957980 
 2589000    1.0065287   -2.4558189   -2.4558189   -1.3955864  0.064248901   -2.4558189    1.0602326   957980 
 2590000     1.007796   -2.4570392   -2.4570392   -1.3954717  0.065864714   -2.4570392    1.0615675   957980 
 2591000    1.0071818   -2.4560782   -2.4560782   -1.3951577  0.061039192   -2.4560782    1.0609205   957980 
 2592000    1.0068574   -2.4557802   -2.4557802   -1.3952015  0.061955697   -2.4557802    1.0605787   957980 
 2593000    1.0065361   -2.4553931   -2.4553931   -1.3951528  0.068743814   -2.4553931    1.0602403   957980 
 2594000    1.0060011   -2.4549993   -2.4549993   -1.3953225  0.066657337   -2.4549993    1.0596768   957980 
 2595000    1.0071726   -2.4558167   -2.4558167   -1.3949059  0.063453551   -2.4558167    1.0609108   957980 
 2596000    1.0065854   -2.4556667   -2.4556667   -1.3953745  0.062481392   -2.4556667    1.0602922   957980 
 2597000    1.0059339   -2.4546816   -2.4546816   -1.3950756  0.069181155   -2.4546816     1.059606   957980 
 2598000    1.0071624   -2.4565771   -2.4565771   -1.3956771   0.07178353   -2.4565771       1.0609   957980 
 2599000    1.0074277   -2.4566002   -2.4566002   -1.3954207  0.061986961   -2.4566002    1.0611796   957980 
 2600000    1.0066357   -2.4558602   -2.4558602   -1.3955149  0.064568453   -2.4558602    1.0603452   957980 
 2601000    1.0090624   -2.4578752   -2.4578752   -1.3949738  0.066024956   -2.4578752    1.0629015   957980 
 2602000    1.0086187   -2.4571313   -2.4571313   -1.3946973   0.06850682   -2.4571313     1.062434   957980 
 2603000    1.0063978   -2.4550932   -2.4550932   -1.3949985  0.073979087   -2.4550932    1.0600946   957980 
 2604000    1.0069652   -2.4550323   -2.4550323     -1.39434  0.069046504   -2.4550323    1.0606924   957980 
 2605000     1.006969   -2.4554067   -2.4554067   -1.3947103  0.067910484   -2.4554067    1.0606963   957980 
 2606000    1.0060604   -2.4547162   -2.4547162    -1.394977  0.060398209   -2.4547162    1.0597392   957980 
 2607000    1.0074172   -2.4558376   -2.4558376   -1.3946692  0.066210617   -2.4558376    1.0611685   957980 
 2608000    1.0077402   -2.4559715   -2.4559715   -1.3944629  0.062733906   -2.4559715    1.0615086   957980 
 2609000    1.0065867   -2.4552172   -2.4552172   -1.3949236  0.062190972   -2.4552172    1.0602936   957980 
 2610000    1.0070525   -2.4553392   -2.4553392   -1.3945549  0.072813431   -2.4553392    1.0607843   957980 
 2611000    1.0078901   -2.4565936   -2.4565936    -1.394927  0.060010457   -2.4565936    1.0616666   957980 
 2612000    1.0069323   -2.4555525   -2.4555525   -1.3948948  0.072324193   -2.4555525    1.0606577   957980 
 2613000     1.006555   -2.4550003   -2.4550003     -1.39474  0.064269232   -2.4550003    1.0602602   957980 
 2614000      1.00739   -2.4553698   -2.4553698     -1.39423   0.07060113   -2.4553698    1.0611398   957980 
 2615000     1.007112   -2.4551873   -2.4551873   -1.3943404  0.063601978   -2.4551873    1.0608469   957980 
 2616000    1.0075036    -2.454881    -2.454881   -1.3936215  0.072781116    -2.454881    1.0612595   957980 
 2617000    1.0067405   -2.4545926   -2.4545926    -1.394137  0.070136043   -2.4545926    1.0604556   957980 
 2618000    1.0070015   -2.4553724   -2.4553724   -1.3946418  0.065350115   -2.4553724    1.0607306   957980 
 2619000    1.0066186   -2.4547793   -2.4547793   -1.3944522   0.06976024   -2.4547793    1.0603272   957980 
 2620000    1.0067701   -2.4548337   -2.4548337   -1.3943469  0.071508481   -2.4548337    1.0604868   957980 
 2621000    1.0080155   -2.4558178   -2.4558178   -1.3940192  0.062068856   -2.4558178    1.0617986   957980 
 2622000    1.0065099   -2.4549784   -2.4549784   -1.3947657  0.068900548   -2.4549784    1.0602127   957980 
 2623000    1.0065055   -2.4551535   -2.4551535   -1.3949454  0.063373699   -2.4551535    1.0602081   957980 
 2624000    1.0077225   -2.4558206   -2.4558206   -1.3943305  0.069765729   -2.4558206    1.0614901   957980 
 2625000    1.0075811    -2.456073    -2.456073   -1.3947319   0.05947573    -2.456073    1.0613411   957980 
 2626000    1.0075982   -2.4552332   -2.4552332    -1.393874  0.065415677   -2.4552332    1.0613591   957980 
 2627000    1.0066307   -2.4547752   -2.4547752   -1.3944352  0.068434004   -2.4547752      1.06034   957980 
 2628000    1.0060255   -2.4545262   -2.4545262   -1.3948237  0.069672193   -2.4545262    1.0597025   957980 
 2629000    1.0059215    -2.453943    -2.453943     -1.39435  0.069403505    -2.453943     1.059593   957980 
 2630000    1.0067585    -2.455181    -2.455181   -1.3947064  0.071063522    -2.455181    1.0604746   957980 
 2631000    1.0070472    -2.455414    -2.455414   -1.3946353  0.064827685    -2.455414    1.0607787   957980 
 2632000     1.006545   -2.4549865   -2.4549865   -1.3947368   0.06073695   -2.4549865    1.0602497   957980 
 2633000    1.0069448   -2.4560444   -2.4560444   -1.3953736  0.065061147   -2.4560444    1.0606709   957980 
 2634000    1.0061899   -2.4549691   -2.4549691   -1.3950934  0.066562689   -2.4549691    1.0598757   957980 
 2635000    1.0064333   -2.4548651   -2.4548651   -1.3947331  0.070795073   -2.4548651     1.060132   957980 
 2636000    1.0091996   -2.4575324   -2.4575324   -1.3944865  0.067294312   -2.4575324    1.0630459   957980 
 2637000    1.0078107   -2.4563323   -2.4563323   -1.3947494  0.070817891   -2.4563323    1.0615829   957980 
 2638000    1.0083744   -2.4565153   -2.4565153   -1.3943385  0.069330924   -2.4565153    1.0621768   957980 
 2639000    1.0087455   -2.4566434   -2.4566434   -1.3940758  0.068759581   -2.4566434    1.0625676   957980 
 2640000    1.0083359   -2.4561206   -2.4561206   -1.3939844  0.067894162   -2.4561206    1.0621362   957980 
 2641000    1.0089536   -2.4565531   -2.4565531   -1.3937663   0.07147362   -2.4565531    1.0627868   957980 
 2642000    1.0074969   -2.4551344   -2.4551344    -1.393882  0.071288794   -2.4551344    1.0612524   957980 
 2643000    1.0085445   -2.4563119   -2.4563119    -1.393956  0.068950188   -2.4563119    1.0623559   957980 
 2644000    1.0087652   -2.4564186   -2.4564186   -1.3938302   0.06305356   -2.4564186    1.0625884   957980 
 2645000    1.0079266   -2.4554381   -2.4554381   -1.3937331  0.068621901   -2.4554381     1.061705   957980 
 2646000    1.0087253   -2.4570851   -2.4570851   -1.3945388  0.073383972   -2.4570851    1.0625463   957980 
 2647000    1.0075649   -2.4552383   -2.4552383   -1.3939143  0.072522084   -2.4552383     1.061324   957980 
 2648000    1.0076427   -2.4561031   -2.4561031   -1.3946972  0.065651929   -2.4561031     1.061406   957980 
 2649000     1.006443   -2.4546007   -2.4546007   -1.3944585  0.074497077   -2.4546007    1.0601423   957980 
 2650000    1.0072136   -2.4545104   -2.4545104   -1.3935564  0.068029392   -2.4545104     1.060954   957980 
 2651000      1.00792   -2.4555581   -2.4555581     -1.39386   0.06718229   -2.4555581    1.0616981   957980 
 2652000    1.0076332   -2.4553169   -2.4553169   -1.3939209  0.066155281   -2.4553169     1.061396   957980 
 2653000    1.0080063   -2.4559133   -2.4559133   -1.3941242   0.07449376   -2.4559133     1.061789   957980 
 2654000    1.0071906   -2.4549977   -2.4549977   -1.3940679  0.064424224   -2.4549977    1.0609298   957980 
 2655000    1.0068747   -2.4544133   -2.4544133   -1.3938163  0.062881732   -2.4544133     1.060597   957980 
 2656000    1.0073026   -2.4545973   -2.4545973   -1.3935496  0.064508622   -2.4545973    1.0610478   957980 
 2657000    1.0071355   -2.4542053   -2.4542053   -1.3933336  0.069013559   -2.4542053    1.0608717   957980 
 2658000    1.0066731   -2.4537296   -2.4537296    -1.393345  0.064601918   -2.4537296    1.0603846   957980 
 2659000    1.0065371   -2.4526838   -2.4526838   -1.3924424    0.0635883   -2.4526838    1.0602414   957980 
 2660000    1.0078824   -2.4546649   -2.4546649   -1.3930065  0.070683434   -2.4546649    1.0616585   957980 
 2661000    1.0066816   -2.4535262   -2.4535262   -1.3931326  0.064496817   -2.4535262    1.0603936   957980 
 2662000    1.0080372   -2.4549017   -2.4549017   -1.3930802  0.064185286   -2.4549017    1.0618216   957980 
 2663000    1.0082915   -2.4548251   -2.4548251   -1.3927357   0.06752328   -2.4548251    1.0620894   957980 
 2664000    1.0078234   -2.4546439   -2.4546439   -1.3930475  0.071837922   -2.4546439    1.0615963   957980 
 2665000    1.0072056   -2.4537052   -2.4537052   -1.3927596  0.067200747   -2.4537052    1.0609456   957980 
 2666000    1.0076785   -2.4538002   -2.4538002   -1.3923565  0.072534396   -2.4538002    1.0614436   957980 
 2667000    1.0065272   -2.4531277   -2.4531277   -1.3928968  0.070985963   -2.4531277    1.0602309   957980 
 2668000    1.0083796   -2.4545252   -2.4545252    -1.392343  0.065437203   -2.4545252    1.0621822   957980 
 2669000    1.0067562   -2.4528129   -2.4528129   -1.3923407  0.068580837   -2.4528129    1.0604722   957980 
 2670000     1.006759   -2.4533098   -2.4533098   -1.3928347  0.057829812   -2.4533098    1.0604751   957980 
 2671000    1.0068352    -2.453252    -2.453252   -1.3926965  0.070595885    -2.453252    1.0605554   957980 
 2672000    1.0051609   -2.4524463   -2.4524463   -1.3936545   0.06925523   -2.4524463    1.0587918   957980 
 2673000    1.0072006   -2.4544183   -2.4544183    -1.393478  0.058566819   -2.4544183    1.0609403   957980 
 2674000    1.0063534    -2.453777    -2.453777   -1.3937291  0.063289641    -2.453777    1.0600478   957980 
 2675000    1.0062337    -2.453507    -2.453507   -1.3935852  0.072118598    -2.453507    1.0599218   957980 
 2676000    1.0057682   -2.4531154   -2.4531154   -1.3936839  0.065340607   -2.4531154    1.0594315   957980 
 2677000    1.0055081   -2.4535079   -2.4535079   -1.3943504  0.060225449   -2.4535079    1.0591575   957980 
 2678000    1.0059408   -2.4531918   -2.4531918   -1.3935785  0.070040673   -2.4531918    1.0596133   957980 
 2679000     1.007944   -2.4544671   -2.4544671   -1.3927438  0.065540647   -2.4544671    1.0617233   957980 
 2680000    1.0065654   -2.4532016   -2.4532016   -1.3929304  0.071414005   -2.4532016    1.0602712   957980 
 2681000    1.0066446   -2.4537782   -2.4537782   -1.3934236   0.07071769   -2.4537782    1.0603546   957980 
 2682000    1.0061267   -2.4538746   -2.4538746   -1.3940655  0.070058287   -2.4538746    1.0598091   957980 
 2683000    1.0052287   -2.4530684   -2.4530684   -1.3942052  0.069149049   -2.4530684    1.0588632   957980 
 2684000    1.0074113   -2.4553495   -2.4553495   -1.3941872  0.072748874   -2.4553495    1.0611623   957980 
 2685000     1.007478   -2.4556665   -2.4556665    -1.394434   0.06982127   -2.4556665    1.0612325   957980 
 2686000    1.0076545   -2.4553044   -2.4553044   -1.3938861  0.073427599   -2.4553044    1.0614184   957980 
 2687000    1.0078522    -2.455624    -2.455624   -1.3939973  0.070628943    -2.455624    1.0616267   957980 
 2688000    1.0082946   -2.4560439   -2.4560439   -1.3939513  0.062128878   -2.4560439    1.0620926   957980 
 2689000    1.0083419   -2.4563148   -2.4563148   -1.3941723   0.06893187   -2.4563148    1.0621425   957980 
 2690000    1.0069074    -2.454832    -2.454832   -1.3942006  0.074641301    -2.454832    1.0606315   957980 
 2691000    1.0068135   -2.4548601   -2.4548601   -1.3943275  0.062362048   -2.4548601    1.0605325   957980 
 2692000    1.0083192   -2.4560384   -2.4560384   -1.3939198  0.068139487   -2.4560384    1.0621186   957980 
 2693000     1.007889   -2.4555296   -2.4555296   -1.3938642  0.069214493   -2.4555296    1.0616654   957980 
 2694000    1.0073065   -2.4555402   -2.4555402   -1.3944883  0.067345402   -2.4555402    1.0610519   957980 
 2695000    1.0077029   -2.4557718   -2.4557718   -1.3943024  0.063739905   -2.4557718    1.0614694   957980 
 2696000    1.0065151   -2.4549382   -2.4549382     -1.39472  0.068997828   -2.4549382    1.0602182   957980 
 2697000    1.0065777   -2.4553962   -2.4553962    -1.395112  0.065531375   -2.4553962    1.0602842   957980 
 2698000    1.0073622   -2.4559722   -2.4559722   -1.3948617  0.063660902   -2.4559722    1.0611105   957980 
 2699000    1.0075941   -2.4559619   -2.4559619   -1.3946071  0.070603127   -2.4559619    1.0613548   957980 
 2700000    1.0079889   -2.4562663   -2.4562663   -1.3944957  0.064376282   -2.4562663    1.0617707   957980 
 2701000    1.0079878   -2.4563933   -2.4563933   -1.3946238  0.070631081   -2.4563933    1.0617694   957980 
 2702000    1.0082819    -2.455964    -2.455964   -1.3938847  0.075480925    -2.455964    1.0620793   957980 
 2703000    1.0090049   -2.4572896   -2.4572896   -1.3944488  0.069745677   -2.4572896    1.0628409   957980 
 2704000    1.0076996   -2.4555772   -2.4555772   -1.3941113  0.068147992   -2.4555772     1.061466   957980 
 2705000    1.0072932   -2.4556479   -2.4556479     -1.39461  0.070620414   -2.4556479    1.0610378   957980 
 2706000    1.0075956   -2.4560714   -2.4560714   -1.3947151   0.07395068   -2.4560714    1.0613564   957980 
 2707000    1.0079648   -2.4565131   -2.4565131   -1.3947678  0.068462113   -2.4565131    1.0617453   957980 
 2708000     1.007589   -2.4555317   -2.4555317   -1.3941823  0.066419122   -2.4555317    1.0613494   957980 
 2709000    1.0068719   -2.4552278   -2.4552278   -1.3946338  0.072583129   -2.4552278    1.0605941   957980 
 2710000    1.0072554   -2.4552716   -2.4552716   -1.3942736   0.06792107   -2.4552716     1.060998   957980 
 2711000    1.0084057   -2.4566539   -2.4566539   -1.3944442  0.063796941   -2.4566539    1.0622097   957980 
 2712000    1.0073293   -2.4556613   -2.4556613   -1.3945854   0.06954646   -2.4556613    1.0610759   957980 
 2713000    1.0069844   -2.4545689   -2.4545689   -1.3938563  0.067109781   -2.4545689    1.0607126   957980 
 2714000    1.0068374   -2.4545293   -2.4545293   -1.3939716  0.058147802   -2.4545293    1.0605577   957980 
 2715000     1.006982   -2.4544019   -2.4544019   -1.3936919  0.065843704   -2.4544019      1.06071   957980 
 2716000    1.0070923   -2.4543188   -2.4543188   -1.3934926  0.072189369   -2.4543188    1.0608262   957980 
 2717000    1.0076729   -2.4553606   -2.4553606   -1.3939228  0.065523661   -2.4553606    1.0614378   957980 
 2718000    1.0076318   -2.4555381   -2.4555381   -1.3941436   0.06257889   -2.4555381    1.0613945   957980 
 2719000    1.0064385   -2.4541932   -2.4541932   -1.3940557  0.072519187   -2.4541932    1.0601375   957980 
 2720000    1.0075518   -2.4550378   -2.4550378   -1.3937275  0.068053861   -2.4550378    1.0613102   957980 
 2721000    1.0073458   -2.4552395   -2.4552395   -1.3941463   0.06650224   -2.4552395    1.0610932   957980 
 2722000    1.0048089   -2.4525207   -2.4525207   -1.3940998  0.060111839   -2.4525207    1.0584209   957980 
 2723000    1.0076031   -2.4550467   -2.4550467   -1.3936825  0.058814918   -2.4550467    1.0613642   957980 
 2724000    1.0062826   -2.4535441   -2.4535441   -1.3935708  0.064870218   -2.4535441    1.0599733   957980 
 2725000    1.0071747   -2.4542415   -2.4542415   -1.3933285  0.064285656   -2.4542415     1.060913   957980 
 2726000    1.0059438   -2.4529224   -2.4529224    -1.393306  0.063530572   -2.4529224    1.0596164   957980 
 2727000    1.0065684   -2.4533825   -2.4533825   -1.3931081  0.061491193   -2.4533825    1.0602744   957980 
 2728000    1.0062536   -2.4537614   -2.4537614   -1.3938186   0.06539089   -2.4537614    1.0599428   957980 
 2729000    1.0061222   -2.4529086   -2.4529086   -1.3931042  0.065311842   -2.4529086    1.0598044   957980 
 2730000    1.0072246   -2.4538954   -2.4538954   -1.3929298  0.070539284   -2.4538954    1.0609656   957980 
 2731000    1.0071943   -2.4539895   -2.4539895   -1.3930559   0.06438883   -2.4539895    1.0609337   957980 
 2732000     1.009287   -2.4557221   -2.4557221   -1.3925841  0.063555799   -2.4557221     1.063138   957980 
 2733000    1.0080034   -2.4540273   -2.4540273   -1.3922414  0.070476186   -2.4540273    1.0617859   957980 
 2734000    1.0071686   -2.4538509   -2.4538509   -1.3929443  0.070216079   -2.4538509    1.0609066   957980 
 2735000    1.0076388   -2.4540394   -2.4540394   -1.3926375  0.066781711   -2.4540394    1.0614018   957980 
 2736000    1.0085863   -2.4551491   -2.4551491   -1.3927492  0.070866178   -2.4551491       1.0624   957980 
 2737000    1.0074294     -2.45462     -2.45462   -1.3934388  0.070544658     -2.45462    1.0611813   957980 
 2738000    1.0062036   -2.4531441   -2.4531441   -1.3932541  0.070088375   -2.4531441      1.05989   957980 
 2739000    1.0064179   -2.4536856   -2.4536856   -1.3935698  0.070233813   -2.4536856    1.0601158   957980 
 2740000     1.007041   -2.4543481   -2.4543481    -1.393576  0.060627124   -2.4543481    1.0607721   957980 
 2741000    1.0080647   -2.4552969   -2.4552969   -1.3934464  0.074820878   -2.4552969    1.0618505   957980 
 2742000    1.0080691   -2.4555592   -2.4555592   -1.3937041   0.06983875   -2.4555592    1.0618551   957980 
 2743000    1.0078949   -2.4554452   -2.4554452   -1.3937737  0.060078687   -2.4554452    1.0616716   957980 
 2744000    1.0082641   -2.4556006   -2.4556006   -1.3935401  0.062564555   -2.4556006    1.0620605   957980 
 2745000    1.0074129   -2.4546261   -2.4546261   -1.3934621  0.064459367   -2.4546261     1.061164   957980 
 2746000     1.008102   -2.4561846   -2.4561846   -1.3942948  0.064904445   -2.4561846    1.0618898   957980 
 2747000    1.0087248   -2.4558937   -2.4558937   -1.3933478  0.070953243   -2.4558937    1.0625458   957980 
 2748000    1.0084112   -2.4553457   -2.4553457   -1.3931303   0.07309425   -2.4553457    1.0622155   957980 
 2749000    1.0085692   -2.4545225   -2.4545225   -1.3921406   0.07352956   -2.4545225    1.0623819   957980 
 2750000    1.0083343   -2.4549642   -2.4549642   -1.3928298  0.071874788   -2.4549642    1.0621344   957980 
 2751000    1.0089595   -2.4560575   -2.4560575   -1.3932645  0.066962211   -2.4560575     1.062793   957980 
 2752000     1.009477    -2.456557    -2.456557   -1.3932188  0.070557866    -2.456557    1.0633382   957980 
 2753000    1.0081347    -2.455857    -2.455857   -1.3939328  0.070367759    -2.455857    1.0619242   957980 
 2754000     1.008847   -2.4566523   -2.4566523   -1.3939778  0.064331187   -2.4566523    1.0626746   957980 
 2755000    1.0070469   -2.4547623   -2.4547623   -1.3939839  0.066014741   -2.4547623    1.0607784   957980 
 2756000    1.0078764   -2.4551925   -2.4551925   -1.3935404  0.063177404   -2.4551925    1.0616521   957980 
 2757000    1.0070086   -2.4547383   -2.4547383   -1.3940002  0.073155696   -2.4547383     1.060738   957980 
 2758000    1.0073111   -2.4557529   -2.4557529   -1.3946962  0.068331956   -2.4557529    1.0610567   957980 
 2759000    1.0082008   -2.4561061   -2.4561061   -1.3941122   0.07190758   -2.4561061    1.0619939   957980 
 2760000    1.0079792   -2.4562506   -2.4562506   -1.3944901  0.075853972   -2.4562506    1.0617604   957980 
 2761000    1.0056474   -2.4543129   -2.4543129   -1.3950087  0.056145643   -2.4543129    1.0593043   957980 
 2762000    1.0057464   -2.4552808   -2.4552808   -1.3958723  0.060898861   -2.4552808    1.0594085   957980 
 2763000    1.0065883   -2.4561242   -2.4561242   -1.3958289   0.06602104   -2.4561242    1.0602953   957980 
 2764000    1.0065144   -2.4559251   -2.4559251   -1.3957076  0.065604487   -2.4559251    1.0602175   957980 
 2765000    1.0062512   -2.4554555   -2.4554555   -1.3955153  0.071030255   -2.4554555    1.0599403   957980 
 2766000    1.0065019   -2.4555091   -2.4555091   -1.3953048  0.066305672   -2.4555091    1.0602044   957980 
 2767000    1.0068525   -2.4558199   -2.4558199   -1.3952464  0.064105991   -2.4558199    1.0605736   957980 
 2768000    1.0067668   -2.4555411   -2.4555411   -1.3950578  0.066252568   -2.4555411    1.0604833   957980 
 2769000    1.0077546   -2.4562672   -2.4562672   -1.3947433  0.069036067   -2.4562672    1.0615239   957980 
 2770000    1.0078084   -2.4562604   -2.4562604   -1.3946798  0.074278479   -2.4562604    1.0615806   957980 
 2771000    1.0074871   -2.4557424   -2.4557424   -1.3945004  0.064312829   -2.4557424     1.061242   957980 
 2772000    1.0086981   -2.4562516   -2.4562516   -1.3937339  0.066089942   -2.4562516    1.0625177   957980 
 2773000    1.0082902   -2.4560785   -2.4560785   -1.3939905   0.07158638   -2.4560785     1.062088   957980 
 2774000    1.0090601   -2.4567918   -2.4567918   -1.3938927  0.072480571   -2.4567918     1.062899   957980 
 2775000    1.0081799   -2.4560771   -2.4560771   -1.3941053  0.070150936   -2.4560771    1.0619718   957980 
 2776000    1.0070889   -2.4546883   -2.4546883   -1.3938657  0.072575861   -2.4546883    1.0608226   957980 
 2777000     1.008018   -2.4558807   -2.4558807   -1.3940794  0.068352082   -2.4558807    1.0618013   957980 
 2778000    1.0076013   -2.4552768   -2.4552768   -1.3939145  0.064772462   -2.4552768    1.0613623   957980 
 2779000    1.0076352   -2.4555414   -2.4555414   -1.3941433  0.069645028   -2.4555414    1.0613981   957980 
 2780000    1.0086224   -2.4564657   -2.4564657   -1.3940278  0.069035146   -2.4564657    1.0624379   957980 
 2781000    1.0063707   -2.4541808   -2.4541808   -1.3941147  0.072112338   -2.4541808    1.0600661   957980 
 2782000    1.0074345   -2.4552836   -2.4552836    -1.394097  0.066051822   -2.4552836    1.0611866   957980 
 2783000    1.0061674   -2.4543974   -2.4543974   -1.3945455  0.069890523   -2.4543974    1.0598519   957980 
 2784000    1.0067346   -2.4550084   -2.4550084   -1.3945589  0.063746723   -2.4550084    1.0604495   957980 
 2785000    1.0070332   -2.4554453   -2.4554453   -1.3946813  0.072062928   -2.4554453     1.060764   957980 
 2786000    1.0069243   -2.4542132   -2.4542132    -1.393564  0.062091626   -2.4542132    1.0606492   957980 
 2787000    1.0061843   -2.4531815   -2.4531815   -1.3933118  0.074654295   -2.4531815    1.0598697   957980 
 2788000    1.0077994   -2.4556145   -2.4556145   -1.3940435  0.063410971   -2.4556145     1.061571   957980 
 2789000    1.0076234   -2.4558174   -2.4558174   -1.3944317  0.072624219   -2.4558174    1.0613856   957980 
 2790000    1.0053342   -2.4532091   -2.4532091   -1.3942347  0.064914308   -2.4532091    1.0589743   957980 
 2791000    1.0084317   -2.4558404   -2.4558404   -1.3936033  0.069326362   -2.4558404    1.0622371   957980 
 2792000    1.0077306    -2.455052    -2.455052   -1.3935534  0.066872675    -2.455052    1.0614985   957980 
 2793000    1.0061453   -2.4534757   -2.4534757    -1.393647  0.068275019   -2.4534757    1.0598287   957980 
 2794000    1.0084283   -2.4553599   -2.4553599   -1.3931264  0.064992058   -2.4553599    1.0622335   957980 
 2795000    1.0061974   -2.4541663   -2.4541663   -1.3942828  0.070875917   -2.4541663    1.0598835   957980 
 2796000    1.0081433    -2.456432    -2.456432   -1.3944986  0.066955587    -2.456432    1.0619333   957980 
 2797000    1.0069802   -2.4554352   -2.4554352    -1.394727  0.064623143   -2.4554352    1.0607082   957980 
 2798000    1.0066992   -2.4553153   -2.4553153   -1.3949031  0.063006405   -2.4553153    1.0604121   957980 
 2799000    1.0060493   -2.4543207   -2.4543207   -1.3945931  0.073973189   -2.4543207    1.0597276   957980 
 2800000    1.0066825   -2.4549614   -2.4549614   -1.3945669  0.063886257   -2.4549614    1.0603945   957980 
 2801000    1.0067188    -2.454717    -2.454717   -1.3942842  0.068922699    -2.454717    1.0604328   957980 
 2802000    1.0065659   -2.4548743   -2.4548743   -1.3946026  0.063447151   -2.4548743    1.0602718   957980 
 2803000    1.0071374   -2.4554631   -2.4554631   -1.3945894  0.072260383   -2.4554631    1.0608737   957980 
 2804000    1.0082549   -2.4563793   -2.4563793   -1.3943285  0.067713784   -2.4563793    1.0620508   957980 
 2805000    1.0081358   -2.4560704   -2.4560704    -1.394145  0.070688974   -2.4560704    1.0619254   957980 
 2806000    1.0082006   -2.4557774   -2.4557774   -1.3937837  0.071896443   -2.4557774    1.0619936   957980 
 2807000    1.0073367   -2.4551698   -2.4551698   -1.3940861  0.064846989   -2.4551698    1.0610836   957980 
 2808000    1.0075288   -2.4556605   -2.4556605   -1.3943744  0.071882857   -2.4556605     1.061286   957980 
 2809000    1.0069888   -2.4552991   -2.4552991    -1.394582  0.074396509   -2.4552991    1.0607172   957980 
 2810000    1.0090985   -2.4567815   -2.4567815    -1.393842  0.056555973   -2.4567815    1.0629395   957980 
 2811000    1.0064146   -2.4541127   -2.4541127   -1.3940003  0.069721092   -2.4541127    1.0601124   957980 
 2812000    1.0076147   -2.4552371   -2.4552371   -1.3938605  0.066373524   -2.4552371    1.0613765   957980 
 2813000     1.007967   -2.4556156   -2.4556156   -1.3938679  0.062489658   -2.4556156    1.0617476   957980 
 2814000    1.0072165   -2.4544512   -2.4544512   -1.3934941  0.071133075   -2.4544512    1.0609571   957980 
 2815000    1.0085374   -2.4561928   -2.4561928   -1.3938444  0.065360345   -2.4561928    1.0623484   957980 
 2816000    1.0083866    -2.456186    -2.456186   -1.3939964  0.062596147    -2.456186    1.0621896   957980 
 2817000     1.008127   -2.4553731   -2.4553731    -1.393457  0.071328643   -2.4553731    1.0619161   957980 
 2818000    1.0097162   -2.4566683   -2.4566683   -1.3930782  0.071338465   -2.4566683    1.0635901   957980 
 2819000    1.0083848   -2.4552256   -2.4552256   -1.3930379  0.075312247   -2.4552256    1.0621877   957980 
 2820000    1.0095092   -2.4563829   -2.4563829   -1.3930108  0.061944435   -2.4563829    1.0633721   957980 
 2821000    1.0095951   -2.4554311   -2.4554311   -1.3919685  0.069380116   -2.4554311    1.0634625   957980 
 2822000    1.0077547   -2.4542621   -2.4542621   -1.3927382  0.075512998   -2.4542621    1.0615239   957980 
 2823000    1.0072954   -2.4542161   -2.4542161   -1.3931759  0.071875963   -2.4542161    1.0610402   957980 
 2824000    1.0071938   -2.4540324   -2.4540324   -1.3930992  0.066875517   -2.4540324    1.0609331   957980 
 2825000    1.0073155   -2.4536883   -2.4536883    -1.392627  0.063711815   -2.4536883    1.0610613   957980 
 2826000    1.0085133   -2.4547844   -2.4547844   -1.3924614  0.067405577   -2.4547844     1.062323   957980 
 2827000     1.009248   -2.4557155   -2.4557155   -1.3926186   0.06811329   -2.4557155     1.063097   957980 
 2828000    1.0099936   -2.4565953   -2.4565953   -1.3927129  0.064182351   -2.4565953    1.0638824   957980 
 2829000    1.0084907   -2.4545158   -2.4545158   -1.3922166  0.066686465   -2.4545158    1.0622993   957980 
 2830000    1.0087862   -2.4548216   -2.4548216   -1.3922111  0.062755357   -2.4548216    1.0626105   957980 
 2831000    1.0071814   -2.4541207   -2.4541207   -1.3932007  0.069322284   -2.4541207      1.06092   957980 
 2832000    1.0065507   -2.4531415   -2.4531415   -1.3928858  0.064916961   -2.4531415    1.0602557   957980 
 2833000    1.0075609   -2.4534856   -2.4534856   -1.3921658   0.06607957   -2.4534856    1.0613198   957980 
 2834000    1.0083356   -2.4545751   -2.4545751   -1.3924392  0.069243149   -2.4545751    1.0621359   957980 
 2835000    1.0073051    -2.453074    -2.453074   -1.3920237  0.062907482    -2.453074    1.0610503   957980 
 2836000    1.0073162   -2.4536855   -2.4536855   -1.3926234  0.068359975   -2.4536855    1.0610621   957980 
 2837000    1.0069299   -2.4535037   -2.4535037   -1.3928485  0.070880359   -2.4535037    1.0606551   957980 
 2838000    1.0073458   -2.4540148   -2.4540148   -1.3929216  0.068619248   -2.4540148    1.0610932   957980 
 2839000    1.0071816   -2.4539802   -2.4539802   -1.3930599  0.071380755   -2.4539802    1.0609203   957980 
 2840000    1.0080655   -2.4548143   -2.4548143   -1.3929629  0.067490232   -2.4548143    1.0618513   957980 
 2841000    1.0072869   -2.4542343   -2.4542343    -1.393203  0.072636314   -2.4542343    1.0610312   957980 
 2842000    1.0064062   -2.4535854   -2.4535854   -1.3934819  0.062525035   -2.4535854    1.0601035   957980 
 2843000    1.0067945   -2.4541324   -2.4541324   -1.3936199  0.071793742   -2.4541324    1.0605126   957980 
 2844000    1.0073553   -2.4543585   -2.4543585   -1.3932553  0.064180083   -2.4543585    1.0611032   957980 
 2845000    1.0067763   -2.4536836   -2.4536836   -1.3931903  0.067625404   -2.4536836    1.0604934   957980 
 2846000      1.00744   -2.4544626   -2.4544626   -1.3932702  0.068588605   -2.4544626    1.0611925   957980 
 2847000    1.0079151   -2.4545701   -2.4545701   -1.3928771  0.064202718   -2.4545701    1.0616929   957980 
 2848000    1.0082403   -2.4546975   -2.4546975    -1.392662  0.073736569   -2.4546975    1.0620355   957980 
 2849000    1.0083097   -2.4550164   -2.4550164   -1.3929079   0.06082527   -2.4550164    1.0621086   957980 
 2850000    1.0085341    -2.455632    -2.455632   -1.3932871  0.066523063    -2.455632    1.0623449   957980 
 2851000    1.0070479   -2.4539113   -2.4539113   -1.3931319  0.063522207   -2.4539113    1.0607794   957980 
 2852000    1.0072803   -2.4543978   -2.4543978   -1.3933736  0.063190114   -2.4543978    1.0610242   957980 
 2853000    1.0085823   -2.4549345   -2.4549345   -1.3925387  0.071421811   -2.4549345    1.0623957   957980 
 2854000    1.0080727   -2.4556274   -2.4556274   -1.3937684   0.07105242   -2.4556274     1.061859   957980 
 2855000    1.0076443   -2.4553258   -2.4553258   -1.3939182  0.073017319   -2.4553258    1.0614076   957980 
 2856000    1.0088474    -2.456764    -2.456764   -1.3940891  0.067319967    -2.456764    1.0626749   957980 
 2857000    1.0075041   -2.4556827   -2.4556827   -1.3944227  0.075779337   -2.4556827      1.06126   957980 
 2858000    1.0087416    -2.456585    -2.456585   -1.3940215  0.074374215    -2.456585    1.0625635   957980 
 2859000    1.0087329   -2.4557151   -2.4557151   -1.3931607  0.070228195   -2.4557151    1.0625544   957980 
 2860000    1.0079895   -2.4547748   -2.4547748   -1.3930035  0.070255481   -2.4547748    1.0617713   957980 
 2861000    1.0090391   -2.4559874   -2.4559874   -1.3931104  0.064879358   -2.4559874    1.0628769   957980 
 2862000    1.0078251   -2.4554381   -2.4554381     -1.39384  0.064987961   -2.4554381    1.0615981   957980 
 2863000    1.0074446   -2.4551033   -2.4551033    -1.393906  0.065647809   -2.4551033    1.0611973   957980 
 2864000    1.0075784   -2.4554408   -2.4554408   -1.3941026  0.067720339   -2.4554408    1.0613382   957980 
 2865000    1.0076736   -2.4552999   -2.4552999   -1.3938614  0.069071932   -2.4552999    1.0614385   957980 
 2866000     1.008226    -2.455733    -2.455733   -1.3937125  0.065284314    -2.455733    1.0620204   957980 
 2867000    1.0088549    -2.456221    -2.456221   -1.3935382  0.068146469    -2.456221    1.0626828   957980 
 2868000    1.0072291   -2.4552301   -2.4552301   -1.3942598   0.06530148   -2.4552301    1.0609703   957980 
 2869000    1.0076336   -2.4561554   -2.4561554    -1.394759  0.074064001   -2.4561554    1.0613964   957980 
 2870000    1.0092154   -2.4569315   -2.4569315   -1.3938689  0.070258429   -2.4569315    1.0630626   957980 
 2871000    1.0080792   -2.4557785   -2.4557785   -1.3939127  0.073014576   -2.4557785    1.0618658   957980 
 2872000    1.0077829   -2.4555516   -2.4555516   -1.3939979  0.068314813   -2.4555516    1.0615537   957980 
 2873000    1.0073703   -2.4556538   -2.4556538   -1.3945347  0.063388207   -2.4556538    1.0611191   957980 
 2874000    1.0069256   -2.4547571   -2.4547571   -1.3941064  0.072758794   -2.4547571    1.0606506   957980 
 2875000    1.0068913   -2.4546402   -2.4546402   -1.3940256  0.070898007   -2.4546402    1.0606145   957980 
 2876000    1.0085211   -2.4559487   -2.4559487   -1.3936175  0.067095793   -2.4559487    1.0623312   957980 
 2877000     1.007949   -2.4554469   -2.4554469   -1.3937183  0.066544818   -2.4554469    1.0617286   957980 
 2878000    1.0082265   -2.4553354   -2.4553354   -1.3933145  0.078455274   -2.4553354    1.0620209   957980 
 2879000    1.0069697   -2.4542814   -2.4542814   -1.3935843  0.070738088   -2.4542814    1.0606971   957980 
 2880000    1.0078187   -2.4536974   -2.4536974    -1.392106  0.074720782   -2.4536974    1.0615914   957980 
 2881000    1.0082078   -2.4544139   -2.4544139   -1.3924127  0.069608554   -2.4544139    1.0620012   957980 
 2882000    1.0083431   -2.4545676   -2.4545676   -1.3924239  0.067725575   -2.4545676    1.0621437   957980 
 2883000    1.0090636    -2.455875    -2.455875   -1.3929722  0.062977514    -2.455875    1.0629027   957980 
 2884000    1.0094547   -2.4564144   -2.4564144   -1.3930997  0.073407561   -2.4564144    1.0633147   957980 
 2885000    1.0079637   -2.4545063   -2.4545063   -1.3927622  0.072303041   -2.4545063    1.0617441   957980 
 2886000    1.0078297   -2.4545197   -2.4545197   -1.3929167   0.07691491   -2.4545197     1.061603   957980 
 2887000    1.0090385    -2.456267    -2.456267   -1.3933907  0.064279302    -2.456267    1.0628763   957980 
 2888000    1.0086029   -2.4555123   -2.4555123   -1.3930948  0.064739513   -2.4555123    1.0624175   957980 
 2889000     1.008477   -2.4553222   -2.4553222   -1.3930374  0.063579801   -2.4553222    1.0622848   957980 
 2890000    1.0073913   -2.4542738   -2.4542738   -1.3931326  0.065187342   -2.4542738    1.0611412   957980 
 2891000    1.0086551   -2.4555164   -2.4555164    -1.393044  0.067198302   -2.4555164    1.0624724   957980 
 2892000    1.0068798   -2.4539891   -2.4539891   -1.3933868  0.066462235   -2.4539891    1.0606023   957980 
 2893000    1.0085586   -2.4551147   -2.4551147    -1.392744  0.072071967   -2.4551147    1.0623707   957980 
 2894000     1.007771   -2.4544878   -2.4544878   -1.3929467  0.068326459   -2.4544878    1.0615412   957980 
 2895000    1.0062116   -2.4529625   -2.4529625   -1.3930641  0.067012836   -2.4529625    1.0598985   957980 
 2896000     1.006952   -2.4534795   -2.4534795    -1.392801  0.066466563   -2.4534795    1.0606785   957980 
 2897000    1.0065039   -2.4526807   -2.4526807   -1.3924742   0.06455828   -2.4526807    1.0602064   957980 
 2898000    1.0066342   -2.4536157   -2.4536157    -1.393272  0.067434248   -2.4536157    1.0603437   957980 
 2899000    1.0069632   -2.4534435   -2.4534435   -1.3927533  0.060815607   -2.4534435    1.0606903   957980 
 2900000    1.0065929    -2.452715    -2.452715   -1.3924148  0.063819846    -2.452715    1.0603001   957980 
 2901000    1.0067128    -2.453412    -2.453412   -1.3929855    0.0755127    -2.453412    1.0604265   957980 
 2902000    1.0070217   -2.4530545   -2.4530545   -1.3923026  0.069848748   -2.4530545    1.0607519   957980 
 2903000    1.0066515   -2.4532012   -2.4532012   -1.3928393  0.075537953   -2.4532012    1.0603619   957980 
 2904000    1.0064525   -2.4536079   -2.4536079   -1.3934556  0.055132584   -2.4536079    1.0601523   957980 
 2905000    1.0075736    -2.454025    -2.454025   -1.3926919  0.068875913    -2.454025    1.0613332   957980 
 2906000    1.0076889   -2.4540536   -2.4540536    -1.392599   0.06973867   -2.4540536    1.0614546   957980 
 2907000    1.0089665   -2.4550297   -2.4550297   -1.3922293  0.064253988   -2.4550297    1.0628004   957980 
 2908000    1.0071235   -2.4536948   -2.4536948   -1.3928357   0.06309074   -2.4536948    1.0608591   957980 
 2909000    1.0071665   -2.4531911   -2.4531911   -1.3922867   0.07272021   -2.4531911    1.0609044   957980 
 2910000    1.0073138   -2.4537358   -2.4537358   -1.3926763  0.068813213   -2.4537358    1.0610595   957980 
 2911000    1.0070142    -2.453023    -2.453023    -1.392279  0.071581974    -2.453023    1.0607439   957980 
 2912000    1.0084231   -2.4548014   -2.4548014   -1.3925733  0.063488645   -2.4548014     1.062228   957980 
 2913000    1.0086214   -2.4543843   -2.4543843   -1.3919474  0.066567547   -2.4543843    1.0624369   957980 
 2914000     1.008462   -2.4539996   -2.4539996   -1.3917306  0.066789494   -2.4539996     1.062269   957980 
 2915000    1.0068885     -2.45271     -2.45271   -1.3920984  0.063908599     -2.45271    1.0606116   957980 
 2916000    1.0068207   -2.4527133   -2.4527133   -1.3921732  0.066870937   -2.4527133    1.0605401   957980 
 2917000    1.0075707   -2.4536326   -2.4536326   -1.3923025  0.068247701   -2.4536326    1.0613301   957980 
 2918000     1.008589   -2.4546772   -2.4546772   -1.3922745  0.066052007   -2.4546772    1.0624027   957980 
 2919000    1.0074359   -2.4547834   -2.4547834   -1.3935952  0.069847627   -2.4547834    1.0611882   957980 
 2920000    1.0070124   -2.4544737   -2.4544737   -1.3937316  0.063427438   -2.4544737    1.0607421   957980 
 2921000    1.0071891   -2.4537713   -2.4537713   -1.3928431  0.064164915   -2.4537713    1.0609281   957980 
 2922000    1.0086322   -2.4547838   -2.4547838   -1.3923356  0.073654664   -2.4547838    1.0624483   957980 
 2923000    1.0080836   -2.4538579   -2.4538579   -1.3919875  0.069134113   -2.4538579    1.0618704   957980 
 2924000    1.0089744   -2.4550575   -2.4550575   -1.3922487  0.072243876   -2.4550575    1.0628088   957980 
 2925000    1.0090172   -2.4551383   -2.4551383   -1.3922845  0.065162933   -2.4551383    1.0628539   957980 
 2926000    1.0078275   -2.4536528   -2.4536528   -1.3920522  0.073991382   -2.4536528    1.0616007   957980 
 2927000    1.0082812    -2.454498    -2.454498   -1.3924195  0.067694071    -2.454498    1.0620785   957980 
 2928000    1.0076611    -2.454162    -2.454162   -1.3927366  0.067110952    -2.454162    1.0614254   957980 
 2929000    1.0092617   -2.4555553   -2.4555553   -1.3924439  0.065965451   -2.4555553    1.0631114   957980 
 2930000    1.0076198   -2.4541349   -2.4541349   -1.3927531   0.06941484   -2.4541349    1.0613819   957980 
 2931000    1.0075075    -2.454502    -2.454502   -1.3932385  0.067817798    -2.454502    1.0612635   957980 
 2932000    1.0084905    -2.454554    -2.454554    -1.392255   0.06307904    -2.454554     1.062299   957980 
 2933000    1.0081615   -2.4545907   -2.4545907   -1.3926382  0.066238997   -2.4545907    1.0619525   957980 
 2934000    1.0081693   -2.4557333   -2.4557333   -1.3937726   0.06921541   -2.4557333    1.0619607   957980 
 2935000    1.0081347   -2.4559531   -2.4559531    -1.394029   0.06330266   -2.4559531    1.0619242   957980 
 2936000    1.0077932   -2.4546879   -2.4546879   -1.3931233   0.06631185   -2.4546879    1.0615645   957980 
 2937000    1.0083312   -2.4551027   -2.4551027   -1.3929715  0.066982138   -2.4551027    1.0621312   957980 
 2938000    1.0082646   -2.4545331   -2.4545331   -1.3924721  0.067791544   -2.4545331     1.062061   957980 
 2939000    1.0073901   -2.4539593   -2.4539593   -1.3928194  0.073337044   -2.4539593    1.0611399   957980 
 2940000    1.0080615   -2.4547187   -2.4547187   -1.3928715  0.062990583   -2.4547187    1.0618471   957980 
 2941000    1.0084298   -2.4562447   -2.4562447   -1.3940096  0.071374793   -2.4562447    1.0622351   957980 
 2942000    1.0075967   -2.4554202   -2.4554202   -1.3940626  0.065440737   -2.4554202    1.0613576   957980 
 2943000    1.0074813   -2.4554165   -2.4554165   -1.3941805  0.066410491   -2.4554165     1.061236   957980 
 2944000    1.0083376   -2.4560274   -2.4560274   -1.3938895  0.069367683   -2.4560274    1.0621379   957980 
 2945000    1.0078118   -2.4555232   -2.4555232   -1.3939391  0.070771796   -2.4555232    1.0615841   957980 
 2946000    1.0070521   -2.4552033   -2.4552033   -1.3944195  0.072632095   -2.4552033    1.0607838   957980 
 2947000    1.0078335   -2.4559423   -2.4559423   -1.3943353  0.065395712   -2.4559423     1.061607   957980 
 2948000    1.0065913   -2.4545624   -2.4545624   -1.3942639  0.067998024   -2.4545624    1.0602984   957980 
 2949000    1.0076602   -2.4548965   -2.4548965   -1.3934721  0.068407832   -2.4548965    1.0614244   957980 
 2950000    1.0094638   -2.4563277   -2.4563277   -1.3930035  0.073009195   -2.4563277    1.0633242   957980 
 2951000    1.0086224   -2.4556752   -2.4556752   -1.3932372   0.07164204   -2.4556752     1.062438   957980 
 2952000    1.0094212   -2.4564065   -2.4564065   -1.3931272   0.06765916   -2.4564065    1.0632793   957980 
 2953000    1.0083033   -2.4557127   -2.4557127   -1.3936109  0.068691973   -2.4557127    1.0621019   957980 
 2954000    1.0086506   -2.4557758   -2.4557758   -1.3933082  0.070891768   -2.4557758    1.0624677   957980 
 2955000    1.0082202   -2.4551242   -2.4551242     -1.39311  0.069750062   -2.4551242    1.0620143   957980 
 2956000    1.0096684    -2.456068    -2.456068   -1.3925282  0.067662989    -2.456068    1.0635397   957980 
 2957000    1.0095745    -2.456397    -2.456397   -1.3929562  0.067554413    -2.456397    1.0634408   957980 
 2958000    1.0095156   -2.4560071   -2.4560071   -1.3926283  0.060454039   -2.4560071    1.0633788   957980 
 2959000    1.0081586   -2.4549185   -2.4549185   -1.3929691   0.07010349   -2.4549185    1.0619494   957980 
 2960000    1.0093662   -2.4562512   -2.4562512   -1.3930298  0.068301103   -2.4562512    1.0632215   957980 
 2961000    1.0081244   -2.4550188   -2.4550188   -1.3931055  0.063986671   -2.4550188    1.0619133   957980 
 2962000    1.0084634   -2.4557459   -2.4557459   -1.3934754  0.063198949   -2.4557459    1.0622705   957980 
 2963000    1.0083346    -2.455128    -2.455128   -1.3929932  0.069282352    -2.455128    1.0621348   957980 
 2964000    1.0083889   -2.4546725   -2.4546725   -1.3924806  0.065819108   -2.4546725     1.062192   957980 
 2965000    1.0077571    -2.453914    -2.453914   -1.3923874  0.065758775    -2.453914    1.0615265   957980 
 2966000    1.0083675   -2.4547286   -2.4547286   -1.3925592  0.067032493   -2.4547286    1.0621694   957980 
 2967000    1.0076843   -2.4544441   -2.4544441   -1.3929943  0.075139219   -2.4544441    1.0614498   957980 
 2968000    1.0081695   -2.4549381   -2.4549381   -1.3929772  0.069031321   -2.4549381    1.0619609   957980 
 2969000    1.0084301   -2.4548522   -2.4548522   -1.3926168  0.062554202   -2.4548522    1.0622354   957980 
 2970000    1.0064545   -2.4528943   -2.4528943   -1.3927398  0.068664725   -2.4528943    1.0601544   957980 
 2971000    1.0053449   -2.4515378   -2.4515378   -1.3925522  0.075593551   -2.4515378    1.0589855   957980 
 2972000     1.006543   -2.4530754   -2.4530754   -1.3928278  0.060651002   -2.4530754    1.0602476   957980 
 2973000    1.0076971    -2.453581    -2.453581   -1.3921177  0.062132263    -2.453581    1.0614633   957980 
 2974000    1.0075925   -2.4532758   -2.4532758   -1.3919227  0.062770859   -2.4532758    1.0613531   957980 
 2975000    1.0059404   -2.4522252   -2.4522252   -1.3926123  0.063261706   -2.4522252    1.0596129   957980 
 2976000    1.0068891   -2.4531068   -2.4531068   -1.3924946  0.069203206   -2.4531068    1.0606122   957980 
 2977000    1.0062525   -2.4522116   -2.4522116     -1.39227  0.062225929   -2.4522116    1.0599416   957980 
 2978000    1.0073764   -2.4536335   -2.4536335    -1.392508  0.068483264   -2.4536335    1.0611255   957980 
 2979000    1.0063551   -2.4526127   -2.4526127    -1.392563  0.063531058   -2.4526127    1.0600497   957980 
 2980000    1.0083228   -2.4543175   -2.4543175   -1.3921952  0.067276871   -2.4543175    1.0621224   957980 
 2981000    1.0081729   -2.4542291   -2.4542291   -1.3922647  0.065760253   -2.4542291    1.0619644   957980 
 2982000    1.0082252    -2.454179    -2.454179   -1.3921594    0.0667083    -2.454179    1.0620196   957980 
 2983000    1.0075921   -2.4537045   -2.4537045   -1.3923519  0.075339188   -2.4537045    1.0613526   957980 
 2984000    1.0089405   -2.4552566   -2.4552566   -1.3924835  0.069504895   -2.4552566    1.0627731   957980 
 2985000    1.0078675   -2.4544316   -2.4544316   -1.3927888  0.065973476   -2.4544316    1.0616428   957980 
 2986000    1.0080511   -2.4552436   -2.4552436   -1.3934075  0.066690946   -2.4552436    1.0618362   957980 
 2987000    1.0064398   -2.4532292   -2.4532292   -1.3930902   0.07550882   -2.4532292    1.0601389   957980 
 2988000    1.0069746   -2.4543241   -2.4543241   -1.3936219  0.063309576   -2.4543241    1.0607022   957980 
 2989000    1.0067577   -2.4535328   -2.4535328   -1.3930591  0.066590303   -2.4535328    1.0604737   957980 
 2990000    1.0073851   -2.4548224   -2.4548224   -1.3936878  0.063200609   -2.4548224    1.0611346   957980 
 2991000    1.0075329   -2.4546489   -2.4546489   -1.3933586  0.067967111   -2.4546489    1.0612903   957980 
 2992000    1.0081387   -2.4551665   -2.4551665    -1.393238  0.060898655   -2.4551665    1.0619285   957980 
 2993000    1.0084595   -2.4548762   -2.4548762   -1.3926098  0.068697007   -2.4548762    1.0622664   957980 
 2994000    1.0079091   -2.4544187   -2.4544187   -1.3927321  0.073166963   -2.4544187    1.0616866   957980 
 2995000    1.0088444   -2.4555315   -2.4555315   -1.3928597  0.068524773   -2.4555315    1.0626718   957980 
 2996000    1.0090213   -2.4558752   -2.4558752    -1.393017  0.068865514   -2.4558752    1.0628582   957980 
 2997000    1.0087978   -2.4558627   -2.4558627   -1.3932399  0.068727105   -2.4558627    1.0626227   957980 
 2998000    1.0090447   -2.4557417   -2.4557417   -1.3928588  0.075240501   -2.4557417    1.0628828   957980 
 2999000    1.0089444   -2.4550331   -2.4550331   -1.3922559  0.079106331   -2.4550331    1.0627771   957980 
 3000000    1.0079136   -2.4540505   -2.4540505   -1.3923591  0.065494518   -2.4540505    1.0616913   957980 
 3001000    1.0075569   -2.4546755   -2.4546755     -1.39336  0.068109698   -2.4546755    1.0613156   957980 
 3002000     1.007415   -2.4547045   -2.4547045   -1.3935384  0.065814588   -2.4547045    1.0611661   957980 
 3003000    1.0082737   -2.4560202   -2.4560202   -1.3939496  0.068069485   -2.4560202    1.0620706   957980 
 3004000    1.0076932   -2.4552296   -2.4552296   -1.3937704  0.060457238   -2.4552296    1.0614592   957980 
 3005000    1.0077778   -2.4553051   -2.4553051   -1.3937568  0.067405381   -2.4553051    1.0615483   957980 
 3006000    1.0078357   -2.4550323   -2.4550323    -1.393423  0.073934171   -2.4550323    1.0616093   957980 
 3007000    1.0090261   -2.4557404   -2.4557404   -1.3928772  0.069389787   -2.4557404    1.0628632   957980 
 3008000    1.0091945   -2.4561602   -2.4561602   -1.3931197  0.071911247   -2.4561602    1.0630405   957980 
 3009000    1.0079549   -2.4550436   -2.4550436   -1.3933088     0.072713   -2.4550436    1.0617348   957980 
 3010000    1.0072417   -2.4535088   -2.4535088   -1.3925253  0.072621138   -2.4535088    1.0609835   957980 
 3011000    1.0076976   -2.4547805   -2.4547805   -1.3933167   0.06399561   -2.4547805    1.0614638   957980 
 3012000    1.0077545    -2.455035    -2.455035   -1.3935113  0.070526195    -2.455035    1.0615238   957980 
 3013000    1.0072088   -2.4544083   -2.4544083   -1.3934593  0.067014553   -2.4544083    1.0609489   957980 
 3014000    1.0069613    -2.454647    -2.454647   -1.3939588  0.059370919    -2.454647    1.0606882   957980 
 3015000    1.0079105    -2.455295    -2.455295   -1.3936069  0.070915875    -2.455295    1.0616881   957980 
 3016000     1.006397   -2.4538453   -2.4538453   -1.3937515  0.069087378   -2.4538453    1.0600938   957980 
 3017000    1.0059016   -2.4541242   -2.4541242   -1.3945522  0.066894284   -2.4541242     1.059572   957980 
 3018000    1.0066157   -2.4549945   -2.4549945   -1.3946703  0.071815788   -2.4549945    1.0603242   957980 
 3019000    1.0064793   -2.4544462   -2.4544462   -1.3942656  0.060577932   -2.4544462    1.0601805   957980 
 3020000     1.005767    -2.454015    -2.454015   -1.3945848   0.06974209    -2.454015    1.0594302   957980 
 3021000    1.0068069   -2.4544097   -2.4544097   -1.3938841  0.066558004   -2.4544097    1.0605256   957980 
 3022000    1.0075562   -2.4550479   -2.4550479   -1.3937331  0.070307491   -2.4550479    1.0613148   957980 
 3023000    1.0057127    -2.453497    -2.453497    -1.394124  0.069793148    -2.453497     1.059373   957980 
 3024000    1.0065422   -2.4544481   -2.4544481   -1.3942013   0.07085065   -2.4544481    1.0602468   957980 
 3025000    1.0064941   -2.4546959   -2.4546959   -1.3944998  0.061077168   -2.4546959    1.0601961   957980 
 3026000    1.0066276    -2.454713    -2.454713   -1.3943763  0.061932626    -2.454713    1.0603367   957980 
 3027000     1.008804   -2.4557784   -2.4557784   -1.3931491  0.070344841   -2.4557784    1.0626292   957980 
 3028000    1.0079164   -2.4556476   -2.4556476   -1.3939534  0.069503563   -2.4556476    1.0616943   957980 
 3029000    1.0088158   -2.4565889   -2.4565889   -1.3939473  0.064327269   -2.4565889    1.0626416   957980 
 3030000    1.0087385   -2.4563653   -2.4563653    -1.393805  0.066068862   -2.4563653    1.0625602   957980 
 3031000    1.0079286   -2.4554115   -2.4554115   -1.3937043  0.071764753   -2.4554115    1.0617072   957980 
 3032000    1.0084083   -2.4557833   -2.4557833   -1.3935709  0.069249566   -2.4557833    1.0622124   957980 
 3033000    1.0076975   -2.4548518   -2.4548518   -1.3933881  0.071046833   -2.4548518    1.0614637   957980 
 3034000    1.0081645   -2.4554935   -2.4554935   -1.3935379   0.06610107   -2.4554935    1.0619556   957980 
 3035000    1.0077259   -2.4550372   -2.4550372   -1.3935435  0.072600926   -2.4550372    1.0614937   957980 
 3036000    1.0063222   -2.4544406   -2.4544406   -1.3944256  0.075845514   -2.4544406     1.060015   957980 
 3037000    1.0074103   -2.4552219   -2.4552219   -1.3940608  0.071563594   -2.4552219    1.0611611   957980 
 3038000    1.0076679   -2.4544073   -2.4544073   -1.3929748  0.070349027   -2.4544073    1.0614325   957980 
 3039000    1.0065686   -2.4533184   -2.4533184   -1.3930439  0.062633159   -2.4533184    1.0602746   957980 
 3040000    1.0073256   -2.4536406   -2.4536406   -1.3925686  0.067410946   -2.4536406     1.061072   957980 
 3041000     1.007591   -2.4535819   -2.4535819   -1.3922304   0.06581818   -2.4535819    1.0613515   957980 
 3042000    1.0074787   -2.4534555   -2.4534555   -1.3922223   0.06765704   -2.4534555    1.0612332   957980 
 3043000      1.00569   -2.4522007   -2.4522007   -1.3928516  0.068743113   -2.4522007    1.0593491   957980 
 3044000    1.0073172    -2.453658    -2.453658   -1.3925949  0.066914745    -2.453658    1.0610631   957980 
 3045000    1.0066889   -2.4532991   -2.4532991   -1.3928978  0.074751076   -2.4532991    1.0604013   957980 
 3046000     1.007329   -2.4535981   -2.4535981   -1.3925225  0.067727053   -2.4535981    1.0610756   957980 
 3047000    1.0071515   -2.4531668   -2.4531668   -1.3922782  0.068618946   -2.4531668    1.0608886   957980 
 3048000    1.0069071   -2.4529589   -2.4529589   -1.3923277  0.072935425   -2.4529589    1.0606312   957980 
 3049000    1.0057659    -2.452628    -2.452628    -1.393199  0.064626994    -2.452628    1.0594291   957980 
 3050000    1.0054401   -2.4518294   -2.4518294   -1.3927435  0.072018844   -2.4518294    1.0590859   957980 
 3051000    1.0063181   -2.4527399   -2.4527399   -1.3927292  0.071914825   -2.4527399    1.0600107   957980 
 3052000    1.0062631   -2.4525478   -2.4525478    -1.392595  0.059918593   -2.4525478    1.0599528   957980 
 3053000    1.0051729   -2.4514757   -2.4514757   -1.3926714  0.075001965   -2.4514757    1.0588044   957980 
 3054000    1.0055178   -2.4520147   -2.4520147    -1.392847  0.067929824   -2.4520147    1.0591677   957980 
 3055000    1.0063326   -2.4528892   -2.4528892   -1.3928632  0.069683247   -2.4528892     1.060026   957980 
 3056000    1.0055138   -2.4517944   -2.4517944   -1.3926309   0.06672051   -2.4517944    1.0591635   957980 
 3057000    1.0068611   -2.4530447   -2.4530447    -1.392462   0.07018001   -2.4530447    1.0605827   957980 
 3058000    1.0066303   -2.4529616   -2.4529616    -1.392622  0.066364075   -2.4529616    1.0603396   957980 
 3059000    1.0064253   -2.4527585   -2.4527585   -1.3926349  0.070617467   -2.4527585    1.0601236   957980 
 3060000    1.0067427   -2.4523974   -2.4523974   -1.3919395  0.070198464   -2.4523974    1.0604579   957980 
 3061000     1.007361   -2.4535123   -2.4535123   -1.3924031  0.070627917   -2.4535123    1.0611092   957980 
 3062000    1.0061873   -2.4530077   -2.4530077   -1.3931349  0.067553555   -2.4530077    1.0598729   957980 
 3063000    1.0061736   -2.4519533   -2.4519533   -1.3920948    0.0703457   -2.4519533    1.0598585   957980 
 3064000    1.0079352   -2.4542197   -2.4542197   -1.3925056  0.068001615   -2.4542197    1.0617141   957980 
 3065000    1.0061311   -2.4528223   -2.4528223   -1.3930086  0.070007707   -2.4528223    1.0598137   957980 
 3066000    1.0082435   -2.4552782   -2.4552782   -1.3932394  0.061371216   -2.4552782    1.0620388   957980 
 3067000    1.0079077   -2.4546334   -2.4546334   -1.3929483  0.067806962   -2.4546334    1.0616851   957980 
 3068000      1.00841   -2.4549716   -2.4549716   -1.3927573  0.065084916   -2.4549716    1.0622142   957980 
 3069000    1.0072172   -2.4538169   -2.4538169   -1.3928591  0.066829911   -2.4538169    1.0609578   957980 
 3070000    1.0079516    -2.454594    -2.454594   -1.3928627  0.068304587    -2.454594    1.0617314   957980 
 3071000    1.0072356   -2.4536076   -2.4536076   -1.3926305  0.065735935   -2.4536076    1.0609771   957980 
 3072000     1.007174   -2.4543054   -2.4543054   -1.3933931  0.073606769   -2.4543054    1.0609123   957980 
 3073000    1.0070588   -2.4542663   -2.4542663   -1.3934753  0.068387055   -2.4542663     1.060791   957980 
 3074000    1.0060438   -2.4534231   -2.4534231   -1.3937014  0.070624097   -2.4534231    1.0597217   957980 
 3075000    1.0054682   -2.4532731   -2.4532731   -1.3941576  0.070700052   -2.4532731    1.0591155   957980 
 3076000    1.0069326    -2.454504    -2.454504    -1.393846  0.068727906    -2.454504     1.060658   957980 
 3077000    1.0071488   -2.4542189   -2.4542189   -1.3933332  0.068335416   -2.4542189    1.0608857   957980 
 3078000    1.0072562   -2.4546192   -2.4546192   -1.3936203  0.070157533   -2.4546192    1.0609989   957980 
 3079000    1.0057534   -2.4528529   -2.4528529    -1.393437  0.069259164   -2.4528529    1.0594159   957980 
 3080000     1.008555   -2.4554324   -2.4554324   -1.3930654  0.070204117   -2.4554324     1.062367   957980 
 3081000    1.0080915   -2.4558323   -2.4558323   -1.3939536  0.070597274   -2.4558323    1.0618787   957980 
 3082000    1.0062416   -2.4545256   -2.4545256   -1.3945955  0.069187936   -2.4545256    1.0599301   957980 
 3083000     1.007858   -2.4560485   -2.4560485   -1.3944158  0.070337318   -2.4560485    1.0616327   957980 
 3084000    1.0060727   -2.4548902   -2.4548902    -1.395138  0.061948548   -2.4548902    1.0597522   957980 
 3085000    1.0075709   -2.4562248   -2.4562248   -1.3948945  0.065337858   -2.4562248    1.0613303   957980 
 3086000    1.0069618   -2.4548811   -2.4548811   -1.3941923  0.066244164   -2.4548811    1.0606888   957980 
 3087000    1.0067123   -2.4550047   -2.4550047   -1.3945788   0.05250209   -2.4550047    1.0604259   957980 
 3088000    1.0044309   -2.4524502   -2.4524502   -1.3944274  0.068598471   -2.4524502    1.0580228   957980 
 3089000     1.006606   -2.4545816   -2.4545816   -1.3942676  0.063846774   -2.4545816     1.060314   957980 
 3090000     1.006183   -2.4545238   -2.4545238   -1.3946554  0.067494254   -2.4545238    1.0598684   957980 
 3091000    1.0070978   -2.4547487   -2.4547487   -1.3939167  0.066542634   -2.4547487     1.060832   957980 
 3092000    1.0059645    -2.453786    -2.453786   -1.3941477  0.066686641    -2.453786    1.0596383   957980 
 3093000    1.0071063    -2.454811    -2.454811   -1.3939701  0.067658754    -2.454811     1.060841   957980 
 3094000     1.007315   -2.4553696   -2.4553696   -1.3943089  0.068599144   -2.4553696    1.0610608   957980 
 3095000    1.0072145    -2.455407    -2.455407    -1.394452  0.066710287    -2.455407     1.060955   957980 
 3096000    1.0063908   -2.4540317   -2.4540317   -1.3939444  0.063934319   -2.4540317    1.0600873   957980 
 3097000    1.0062023   -2.4540801   -2.4540801   -1.3941914  0.068205202   -2.4540801    1.0598887   957980 
 3098000    1.0065427   -2.4541779   -2.4541779   -1.3939306  0.067844122   -2.4541779    1.0602473   957980 
 3099000    1.0067949   -2.4541971   -2.4541971   -1.3936842   0.06103951   -2.4541971    1.0605129   957980 
 3100000    1.0063638   -2.4533715   -2.4533715   -1.3933126  0.068198518   -2.4533715    1.0600589   957980 
 3101000    1.0073158   -2.4542473   -2.4542473   -1.3931858  0.068321056   -2.4542473    1.0610616   957980 
 3102000    1.0058483   -2.4536254   -2.4536254   -1.3941095  0.071081395   -2.4536254    1.0595158   957980 
 3103000    1.0066184   -2.4542107   -2.4542107   -1.3938837  0.063884291   -2.4542107     1.060327   957980 
 3104000    1.0053389   -2.4529821   -2.4529821   -1.3940028  0.065341443   -2.4529821    1.0589793   957980 
 3105000    1.0056392   -2.4537921   -2.4537921   -1.3944965  0.060998069   -2.4537921    1.0592956   957980 
 3106000    1.0061588    -2.454327    -2.454327   -1.3944841  0.062167749    -2.454327    1.0598429   957980 
 3107000    1.0056341   -2.4531624   -2.4531624   -1.3938721  0.066492493   -2.4531624    1.0592902   957980 
 3108000    1.0065334   -2.4541651   -2.4541651   -1.3939277  0.058699422   -2.4541651    1.0602375   957980 
 3109000    1.0065925    -2.454723    -2.454723   -1.3944232  0.066036254    -2.454723    1.0602997   957980 
 3110000    1.0056733   -2.4538234   -2.4538234   -1.3944919  0.064071407   -2.4538234    1.0593315   957980 
 3111000    1.0053147   -2.4525155   -2.4525155   -1.3935617  0.072169591   -2.4525155    1.0589537   957980 
 3112000    1.0072332   -2.4538534   -2.4538534   -1.3928788  0.072470627   -2.4538534    1.0609746   957980 
 3113000    1.0070965   -2.4549599   -2.4549599   -1.3941293  0.064512074   -2.4549599    1.0608306   957980 
 3114000    1.0089012   -2.4567959   -2.4567959   -1.3940642  0.068994522   -2.4567959    1.0627317   957980 
 3115000    1.0075843   -2.4545025   -2.4545025    -1.393158  0.066776877   -2.4545025    1.0613445   957980 
 3116000    1.0089034   -2.4557777   -2.4557777   -1.3930438   0.06609565   -2.4557777    1.0627339   957980 
 3117000    1.0078121   -2.4546299   -2.4546299   -1.3930455  0.074107188   -2.4546299    1.0615844   957980 
 3118000    1.0072013   -2.4547595   -2.4547595   -1.3938185  0.077486377   -2.4547595     1.060941   957980 
 3119000    1.0062518   -2.4534005   -2.4534005   -1.3934596  0.067394022   -2.4534005    1.0599409   957980 
 3120000    1.0086314    -2.455518    -2.455518   -1.3930707  0.063353045    -2.455518    1.0624474   957980 
 3121000    1.0085641   -2.4558383   -2.4558383   -1.3934617  0.066869464   -2.4558383    1.0623766   957980 
 3122000    1.0088446   -2.4562337   -2.4562337   -1.3935617  0.070654857   -2.4562337     1.062672   957980 
 3123000    1.0084736   -2.4564906   -2.4564906   -1.3942095  0.065348468   -2.4564906    1.0622812   957980 
 3124000    1.0075287   -2.4555334   -2.4555334   -1.3942475  0.067696228   -2.4555334    1.0612859   957980 
 3125000    1.0078014   -2.4558024   -2.4558024   -1.3942293  0.063306784   -2.4558024    1.0615731   957980 
 3126000    1.0061695   -2.4541204   -2.4541204   -1.3942662  0.072716042   -2.4541204    1.0598542   957980 
 3127000    1.0077727   -2.4556765   -2.4556765   -1.3941335  0.070423109   -2.4556765    1.0615429   957980 
 3128000    1.0067245   -2.4548221   -2.4548221   -1.3943833   0.06745332   -2.4548221    1.0604388   957980 
 3129000    1.0074584   -2.4556707   -2.4556707   -1.3944589  0.071709656   -2.4556707    1.0612118   957980 
 3130000    1.0062332   -2.4546446   -2.4546446   -1.3947233  0.069286432   -2.4546446    1.0599213   957980 
 3131000    1.0072623   -2.4544516   -2.4544516   -1.3934463  0.071905067   -2.4544516    1.0610053   957980 
 3132000    1.0082855   -2.4561873   -2.4561873   -1.3941042  0.061711114   -2.4561873    1.0620831   957980 
 3133000    1.0077356   -2.4564169   -2.4564169    -1.394913  0.065607837   -2.4564169    1.0615038   957980 
 3134000    1.0071108   -2.4557354   -2.4557354   -1.3948897  0.067580606   -2.4557354    1.0608457   957980 
 3135000    1.0063374   -2.4553096   -2.4553096   -1.3952785  0.067813002   -2.4553096    1.0600311   957980 
 3136000    1.0059128    -2.454719    -2.454719   -1.3951353  0.073614531    -2.454719    1.0595837   957980 
 3137000    1.0071377   -2.4548253   -2.4548253   -1.3939513  0.070477695   -2.4548253     1.060874   957980 
 3138000    1.0077264   -2.4539902   -2.4539902   -1.3924961  0.066274935   -2.4539902    1.0614941   957980 
 3139000    1.0081797   -2.4543782   -2.4543782   -1.3924066  0.060588182   -2.4543782    1.0619716   957980 
 3140000    1.0069904   -2.4532999   -2.4532999    -1.392581  0.065325359   -2.4532999    1.0607189   957980 
 3141000    1.0083848   -2.4554604   -2.4554604   -1.3932727  0.069243155   -2.4554604    1.0621877   957980 
 3142000    1.0073218   -2.4542267   -2.4542267   -1.3931588  0.065597839   -2.4542267    1.0610679   957980 
 3143000    1.0092327   -2.4560975   -2.4560975   -1.3930167  0.065907076   -2.4560975    1.0630808   957980 
 3144000    1.0078748   -2.4546383   -2.4546383   -1.3929878  0.067169861   -2.4546383    1.0616505   957980 
 3145000    1.0077829   -2.4549687   -2.4549687   -1.3934151  0.071189476   -2.4549687    1.0615536   957980 
 3146000    1.0085912   -2.4553227   -2.4553227   -1.3929177   0.07251299   -2.4553227    1.0624051   957980 
 3147000    1.0075003   -2.4536845   -2.4536845   -1.3924285  0.073881456   -2.4536845    1.0612559   957980 
 3148000    1.0070707    -2.453293    -2.453293   -1.3924895  0.064632639    -2.453293    1.0608034   957980 
 3149000    1.0079034   -2.4540114   -2.4540114   -1.3923308   0.07085504   -2.4540114    1.0616806   957980 
 3150000     1.006777   -2.4534821   -2.4534821    -1.392988  0.067762501   -2.4534821    1.0604941   957980 
 3151000    1.0066078    -2.453258    -2.453258   -1.3929421  0.067430579    -2.453258    1.0603159   957980 
 3152000    1.0073652   -2.4538924   -2.4538924   -1.3927787  0.069030307   -2.4538924    1.0611137   957980 
 3153000    1.0071267   -2.4538739   -2.4538739   -1.3930115  0.072068957   -2.4538739    1.0608624   957980 
 3154000    1.0067603   -2.4532278   -2.4532278   -1.3927513  0.058484322   -2.4532278    1.0604765   957980 
 3155000    1.0068104   -2.4539882   -2.4539882   -1.3934589  0.057392943   -2.4539882    1.0605293   957980 
 3156000    1.0073835   -2.4544244   -2.4544244   -1.3932915  0.059342781   -2.4544244     1.061133   957980 
 3157000    1.0053588    -2.452688    -2.452688   -1.3936878  0.068983257    -2.452688    1.0590002   957980 
 3158000    1.0052564   -2.4523363   -2.4523363   -1.3934439  0.065438356   -2.4523363    1.0588924   957980 
 3159000    1.0069199   -2.4531085   -2.4531085    -1.392464   0.06800002   -2.4531085    1.0606446   957980 
 3160000    1.0066543   -2.4538075   -2.4538075   -1.3934426  0.065400351   -2.4538075    1.0603648   957980 
 3161000    1.0071468   -2.4539998   -2.4539998   -1.3931162  0.071003043   -2.4539998    1.0608836   957980 
 3162000     1.006039   -2.4527586   -2.4527586   -1.3930418  0.067678743   -2.4527586    1.0597167   957980 
 3163000    1.0065292   -2.4537952   -2.4537952   -1.3935621  0.077195377   -2.4537952    1.0602331   957980 
 3164000    1.0084953   -2.4554582   -2.4554582   -1.3931542  0.070273196   -2.4554582     1.062304   957980 
 3165000    1.0075411   -2.4541769   -2.4541769   -1.3928779  0.073176954   -2.4541769    1.0612989   957980 
 3166000    1.0081214   -2.4552199   -2.4552199   -1.3933096  0.064691313   -2.4552199    1.0619102   957980 
 3167000    1.0078102   -2.4543899   -2.4543899   -1.3928076   0.07193851   -2.4543899    1.0615824   957980 
 3168000    1.0076236   -2.4541612   -2.4541612   -1.3927754  0.066481513   -2.4541612    1.0613858   957980 
 3169000    1.0071059   -2.4538585   -2.4538585   -1.3930179  0.070468349   -2.4538585    1.0608406   957980 
 3170000    1.0071324   -2.4537099   -2.4537099   -1.3928414  0.073136032   -2.4537099    1.0608685   957980 
 3171000    1.0059161   -2.4530493   -2.4530493   -1.3934621  0.071743991   -2.4530493    1.0595872   957980 
 3172000    1.0058257   -2.4535271   -2.4535271    -1.394035  0.068034918   -2.4535271    1.0594921   957980 
 3173000    1.0057955   -2.4539481   -2.4539481   -1.3944879  0.076689063   -2.4539481    1.0594602   957980 
 3174000    1.0064123   -2.4543634   -2.4543634   -1.3942534  0.070872362   -2.4543634      1.06011   957980 
 3175000    1.0077514     -2.45503     -2.45503   -1.3935095  0.070061923     -2.45503    1.0615205   957980 
 3176000    1.0075741   -2.4552229   -2.4552229   -1.3938891  0.070181495   -2.4552229    1.0613337   957980 
 3177000    1.0080364   -2.4556537   -2.4556537    -1.393833  0.066724221   -2.4556537    1.0618207   957980 
 3178000    1.0097616   -2.4568432   -2.4568432   -1.3932053   0.06639562   -2.4568432    1.0636379   957980 
 3179000     1.008519   -2.4552625   -2.4552625   -1.3929335  0.072817438   -2.4552625     1.062329   957980 
 3180000    1.0101014   -2.4566881   -2.4566881   -1.3926922  0.058107051   -2.4566881    1.0639959   957980 
 3181000    1.0084414   -2.4554411   -2.4554411   -1.3931938  0.061657339   -2.4554411    1.0622473   957980 
 3182000     1.006809    -2.453939    -2.453939   -1.3934113  0.068807509    -2.453939    1.0605278   957980 
 3183000    1.0069215   -2.4537323   -2.4537323    -1.393086  0.073137593   -2.4537323    1.0606463   957980 
 3184000    1.0086716   -2.4554085   -2.4554085   -1.3929188  0.067168824   -2.4554085    1.0624897   957980 
 3185000    1.0083265   -2.4555799   -2.4555799   -1.3934537  0.074283517   -2.4555799    1.0621262   957980 
 3186000    1.0078261   -2.4548358   -2.4548358   -1.3932366  0.072118747   -2.4548358    1.0615992   957980 
 3187000    1.0073138   -2.4544999   -2.4544999   -1.3934404  0.062685158   -2.4544999    1.0610596   957980 
 3188000    1.0070036   -2.4541261   -2.4541261   -1.3933933  0.070136499   -2.4541261    1.0607328   957980 
 3189000    1.0058158   -2.4537643   -2.4537643   -1.3942827   0.06212121   -2.4537643    1.0594816   957980 
 3190000     1.007053   -2.4541941   -2.4541941   -1.3934093  0.062213867   -2.4541941    1.0607848   957980 
 3191000    1.0068715   -2.4537589   -2.4537589   -1.3931653   0.07553463   -2.4537589    1.0605936   957980 
 3192000    1.0060236   -2.4533206   -2.4533206   -1.3936201  0.066603716   -2.4533206    1.0597005   957980 
 3193000    1.0073968    -2.454184    -2.454184   -1.3930371  0.075792256    -2.454184     1.061147   957980 
 3194000    1.0079261   -2.4545687   -2.4545687   -1.3928642  0.063205564   -2.4545687    1.0617044   957980 
 3195000    1.0083835   -2.4549765   -2.4549765   -1.3927902  0.066448641   -2.4549765    1.0621863   957980 
 3196000    1.0070485   -2.4541692   -2.4541692   -1.3933891  0.059831691   -2.4541692    1.0607801   957980 
 3197000     1.006551   -2.4539005   -2.4539005   -1.3936445  0.067127382   -2.4539005     1.060256   957980 
 3198000    1.0068592   -2.4542237   -2.4542237    -1.393643  0.073899619   -2.4542237    1.0605807   957980 
 3199000    1.0069687   -2.4541382   -2.4541382   -1.3934422   0.06963875   -2.4541382     1.060696   957980 
 3200000    1.0074089   -2.4542509   -2.4542509   -1.3930911   0.06762956   -2.4542509    1.0611597   957980 
 3201000    1.0064321   -2.4532717   -2.4532717   -1.3931409  0.070876583   -2.4532717    1.0601308   957980 
 3202000    1.0067079   -2.4545006   -2.4545006   -1.3940793  0.067786153   -2.4545006    1.0604213   957980 
 3203000    1.0062749   -2.4541032   -2.4541032   -1.3941381  0.061655942   -2.4541032    1.0599651   957980 
 3204000    1.0054952   -2.4534841   -2.4534841   -1.3943402  0.062151475   -2.4534841    1.0591439   957980 
 3205000    1.0064689   -2.4550038   -2.4550038   -1.3948342  0.062608839   -2.4550038    1.0601696   957980 
 3206000    1.0065133   -2.4546829   -2.4546829   -1.3944665  0.066572312   -2.4546829    1.0602163   957980 
 3207000    1.0064279   -2.4553055   -2.4553055   -1.3951791  0.066054468   -2.4553055    1.0601264   957980 
 3208000    1.0064925   -2.4556021   -2.4556021   -1.3954077  0.065416483   -2.4556021    1.0601944   957980 
 3209000    1.0078474   -2.4564134   -2.4564134   -1.3947918  0.065882787   -2.4564134    1.0616216   957980 
 3210000    1.0072009   -2.4555864   -2.4555864   -1.3946458  0.066442851   -2.4555864    1.0609406   957980 
 3211000    1.0069256     -2.45527     -2.45527   -1.3946195  0.067868311     -2.45527    1.0606506   957980 
 3212000    1.0077728   -2.4559545   -2.4559545   -1.3944115  0.070711619   -2.4559545    1.0615431   957980 
 3213000    1.0074183   -2.4556175   -2.4556175    -1.394448  0.061576712   -2.4556175    1.0611696   957980 
 3214000     1.007536   -2.4563486   -2.4563486    -1.395055  0.065902205   -2.4563486    1.0612936   957980 
 3215000    1.0064863   -2.4545403   -2.4545403   -1.3943525  0.070970887   -2.4545403    1.0601878   957980 
 3216000     1.005183   -2.4533839   -2.4533839   -1.3945689  0.064923939   -2.4533839     1.058815   957980 
 3217000     1.005485   -2.4541483   -2.4541483   -1.3950151  0.059665624   -2.4541483    1.0591332   957980 
 3218000    1.0064336   -2.4550888   -2.4550888   -1.3949565  0.068659853   -2.4550888    1.0601324   957980 
 3219000    1.0077567   -2.4560523   -2.4560523   -1.3945263  0.064456474   -2.4560523     1.061526   957980 
 3220000    1.0076417   -2.4561736   -2.4561736   -1.3947687  0.067348372   -2.4561736    1.0614049   957980 
 3221000    1.0087021   -2.4566058   -2.4566058   -1.3940839  0.068999288   -2.4566058    1.0625219   957980 
 3222000    1.0077712   -2.4556787   -2.4556787   -1.3941374  0.066794194   -2.4556787    1.0615413   957980 
 3223000    1.0092444   -2.4566069   -2.4566069   -1.3935138  0.073261686   -2.4566069    1.0630931   957980 
 3224000    1.0080708   -2.4554657   -2.4554657   -1.3936087   0.07127623   -2.4554657    1.0618569   957980 
 3225000    1.0077771   -2.4554162   -2.4554162   -1.3938686  0.075189612   -2.4554162    1.0615476   957980 
 3226000    1.0073078   -2.4549886   -2.4549886   -1.3939354  0.070262309   -2.4549886    1.0610532   957980 
 3227000    1.0072978   -2.4544945   -2.4544945   -1.3934519  0.068672455   -2.4544945    1.0610427   957980 
 3228000    1.0076507   -2.4551496   -2.4551496   -1.3937352  0.064367242   -2.4551496    1.0614144   957980 
 3229000    1.0078078   -2.4556679   -2.4556679    -1.394088  0.064627916   -2.4556679    1.0615799   957980 
 3230000    1.0070207   -2.4547283   -2.4547283   -1.3939776  0.067756334   -2.4547283    1.0607507   957980 
 3231000    1.0058633   -2.4534532   -2.4534532   -1.3939217  0.069360987   -2.4534532    1.0595316   957980 
 3232000    1.0062571   -2.4537035   -2.4537035   -1.3937571  0.068787667   -2.4537035    1.0599464   957980 
 3233000    1.0072086    -2.454465    -2.454465   -1.3935163  0.076116848    -2.454465    1.0609487   957980 
 3234000    1.0076363   -2.4544594   -2.4544594   -1.3930601  0.066109049   -2.4544594    1.0613993   957980 
 3235000    1.0074579   -2.4540932   -2.4540932   -1.3928818  0.068342207   -2.4540932    1.0612114   957980 
 3236000    1.0069202    -2.453951    -2.453951   -1.3933061  0.066476363    -2.453951     1.060645   957980 
 3237000    1.0087532   -2.4552147   -2.4552147   -1.3926389   0.06683218   -2.4552147    1.0625757   957980 
 3238000    1.0067736   -2.4531399   -2.4531399   -1.3926494  0.070529208   -2.4531399    1.0604905   957980 
 3239000    1.0068963   -2.4532539   -2.4532539   -1.3926342  0.066678222   -2.4532539    1.0606198   957980 
 3240000    1.0082133   -2.4545137   -2.4545137   -1.3925067  0.065754168   -2.4545137     1.062007   957980 
 3241000    1.0069573   -2.4534669   -2.4534669   -1.3927829  0.065208195   -2.4534669     1.060684   957980 
 3242000    1.0070225   -2.4533847   -2.4533847    -1.392632  0.067619993   -2.4533847    1.0607527   957980 
 3243000    1.0080554   -2.4539877   -2.4539877    -1.392147  0.073532626   -2.4539877    1.0618407   957980 
 3244000    1.0081303   -2.4544299   -2.4544299   -1.3925104  0.069667114   -2.4544299    1.0619196   957980 
 3245000    1.0073361   -2.4539379   -2.4539379    -1.392855   0.06996802   -2.4539379     1.061083   957980 
 3246000    1.0071415   -2.4533685   -2.4533685   -1.3924904   0.06567296   -2.4533685     1.060878   957980 
 3247000    1.0073319   -2.4529272   -2.4529272   -1.3918487  0.065345068   -2.4529272    1.0610786   957980 
 3248000    1.0089171   -2.4544797   -2.4544797   -1.3917313  0.065910295   -2.4544797    1.0627484   957980 
 3249000    1.0079785   -2.4541412   -2.4541412   -1.3923815  0.067118213   -2.4541412    1.0617597   957980 
 3250000    1.0082584   -2.4552278   -2.4552278   -1.3931733  0.070589283   -2.4552278    1.0620546   957980 
 3251000     1.007023   -2.4544433   -2.4544433   -1.3936901  0.064232657   -2.4544433    1.0607532   957980 
 3252000    1.0074134   -2.4548516   -2.4548516   -1.3936871  0.068434253   -2.4548516    1.0611645   957980 
 3253000    1.0061002    -2.454446    -2.454446   -1.3946648  0.067039982    -2.454446    1.0597812   957980 
 3254000    1.0069312   -2.4548878   -2.4548878   -1.3942312  0.068116117   -2.4548878    1.0606565   957980 
 3255000    1.0054725   -2.4541139   -2.4541139   -1.3949939  0.071649718   -2.4541139      1.05912   957980 
 3256000    1.0066893   -2.4552474   -2.4552474   -1.3948457  0.067983096   -2.4552474    1.0604017   957980 
 3257000    1.0066395    -2.455257    -2.455257   -1.3949077  0.060272152    -2.455257    1.0603493   957980 
 3258000    1.0071834   -2.4547972   -2.4547972    -1.393875  0.062874368   -2.4547972    1.0609222   957980 
 3259000    1.0078427   -2.4557396   -2.4557396    -1.394123  0.070490412   -2.4557396    1.0616167   957980 
 3260000    1.0078923   -2.4568359   -2.4568359    -1.395167   0.06560067   -2.4568359    1.0616689   957980 
 3261000    1.0080522    -2.456531    -2.456531   -1.3946936  0.070014824    -2.456531    1.0618374   957980 
 3262000    1.0076275   -2.4559711   -2.4559711   -1.3945811  0.078026288   -2.4559711      1.06139   957980 
 3263000    1.0077701   -2.4566978   -2.4566978   -1.3951576  0.064208241   -2.4566978    1.0615402   957980 
 3264000    1.0073023   -2.4562185   -2.4562185   -1.3951711  0.068126498   -2.4562185    1.0610474   957980 
 3265000    1.0076811   -2.4561612   -2.4561612   -1.3947148  0.061967744   -2.4561612    1.0614464   957980 
 3266000    1.0080472   -2.4564219   -2.4564219   -1.3945898  0.061425509   -2.4564219    1.0618321   957980 
 3267000    1.0079185   -2.4566855   -2.4566855    -1.394989  0.061323832   -2.4566855    1.0616965   957980 
 3268000    1.0082332   -2.4575108   -2.4575108   -1.3954828  0.067757622   -2.4575108     1.062028   957980 
 3269000    1.0088083   -2.4576553   -2.4576553   -1.3950215   0.06758494   -2.4576553    1.0626338   957980 
 3270000    1.0067548   -2.4564151   -2.4564151   -1.3959444   0.07124577   -2.4564151    1.0604707   957980 
 3271000    1.0066866   -2.4562312   -2.4562312   -1.3958324  0.062857511   -2.4562312    1.0603989   957980 
 3272000    1.0069653   -2.4566234   -2.4566234   -1.3959309  0.069305314   -2.4566234    1.0606924   957980 
 3273000     1.007059   -2.4573088   -2.4573088   -1.3965177  0.066300946   -2.4573088    1.0607911   957980 
 3274000    1.0064689    -2.456954    -2.456954   -1.3967845  0.065755342    -2.456954    1.0601696   957980 
 3275000    1.0065819   -2.4561165   -2.4561165    -1.395828   0.06863062   -2.4561165    1.0602886   957980 
 3276000    1.0069438   -2.4565679   -2.4565679   -1.3958981  0.075131439   -2.4565679    1.0606698   957980 
 3277000    1.0068229   -2.4566689   -2.4566689   -1.3961265  0.060808049   -2.4566689    1.0605424   957980 
 3278000    1.0071833   -2.4569325   -2.4569325   -1.3960104  0.069753499   -2.4569325    1.0609221   957980 
 3279000    1.0059283   -2.4547669   -2.4547669   -1.3951668  0.073185608   -2.4547669    1.0596001   957980 
 3280000    1.0063624   -2.4563148   -2.4563148   -1.3962574  0.065799637   -2.4563148    1.0600574   957980 
 3281000    1.0071556   -2.4570148   -2.4570148   -1.3961219  0.067759263   -2.4570148    1.0608929   957980 
 3282000    1.0067386   -2.4557404   -2.4557404   -1.3952867  0.073181891   -2.4557404    1.0604536   957980 
 3283000    1.0086755   -2.4582153   -2.4582153   -1.3957215  0.065742715   -2.4582153    1.0624939   957980 
 3284000    1.0090709   -2.4583522   -2.4583522   -1.3954418  0.068968826   -2.4583522    1.0629104   957980 
 3285000    1.0085752   -2.4581673   -2.4581673    -1.395779  0.072564098   -2.4581673    1.0623883   957980 
 3286000    1.0080621   -2.4576763   -2.4576763   -1.3958285  0.069397581   -2.4576763    1.0618478   957980 
 3287000     1.006269   -2.4560559   -2.4560559    -1.396097  0.068751426   -2.4560559    1.0599589   957980 
 3288000    1.0064481   -2.4566784   -2.4566784   -1.3965307  0.068437386   -2.4566784    1.0601477   957980 
 3289000    1.0073152   -2.4574519   -2.4574519   -1.3963909  0.066546967   -2.4574519     1.061061   957980 
 3290000    1.0058521   -2.4563719   -2.4563719    -1.396852  0.064924448   -2.4563719    1.0595198   957980 
 3291000    1.0061886   -2.4563808   -2.4563808   -1.3965065   0.06558368   -2.4563808    1.0598743   957980 
 3292000    1.0064931   -2.4565309   -2.4565309   -1.3963358  0.065096253   -2.4565309    1.0601951   957980 
 3293000    1.0071975   -2.4563784   -2.4563784   -1.3954414  0.066866474   -2.4563784     1.060937   957980 
 3294000    1.0071977   -2.4568644   -2.4568644   -1.3959272  0.065807276   -2.4568644    1.0609373   957980 
 3295000    1.0070316   -2.4566936   -2.4566936   -1.3959313  0.068066246   -2.4566936    1.0607623   957980 
 3296000    1.0074075   -2.4571256   -2.4571256   -1.3959674  0.069992788   -2.4571256    1.0611583   957980 
 3297000    1.0071942   -2.4561749   -2.4561749   -1.3952414  0.068940946   -2.4561749    1.0609335   957980 
 3298000    1.0081084   -2.4561729   -2.4561729   -1.3942764  0.068451278   -2.4561729    1.0618965   957980 
 3299000    1.0075243   -2.4557127   -2.4557127   -1.3944314  0.069462379   -2.4557127    1.0612813   957980 
 3300000    1.0084549   -2.4569537   -2.4569537   -1.3946922  0.060604315   -2.4569537    1.0622615   957980 
 3301000    1.0079549    -2.455956    -2.455956   -1.3942212   0.06647826    -2.455956    1.0617348   957980 
 3302000    1.0070133   -2.4551605   -2.4551605   -1.3944175  0.067054384   -2.4551605     1.060743   957980 
 3303000     1.008335   -2.4566888   -2.4566888   -1.3945536  0.071751737   -2.4566888    1.0621352   957980 
 3304000    1.0080422     -2.45635     -2.45635   -1.3945232  0.069011694     -2.45635    1.0618268   957980 
 3305000    1.0084291   -2.4553939   -2.4553939   -1.3931596  0.070602264   -2.4553939    1.0622343   957980 
 3306000    1.0072787   -2.4549227   -2.4549227   -1.3939001   0.06998743   -2.4549227    1.0610225   957980 
 3307000    1.0070079   -2.4549009   -2.4549009   -1.3941636   0.06865492   -2.4549009    1.0607373   957980 
 3308000    1.0082935   -2.4556047   -2.4556047   -1.3935132  0.069641724   -2.4556047    1.0620915   957980 
 3309000    1.0068842   -2.4544041   -2.4544041   -1.3937971  0.073033955   -2.4544041     1.060607   957980 
 3310000    1.0081698   -2.4558927   -2.4558927   -1.3939315  0.066728369   -2.4558927    1.0619612   957980 
 3311000    1.0064119   -2.4541748   -2.4541748   -1.3940653  0.069378885   -2.4541748    1.0601095   957980 
 3312000    1.0064358   -2.4538802   -2.4538802   -1.3937456  0.062276045   -2.4538802    1.0601347   957980 
 3313000    1.0064712   -2.4547199   -2.4547199   -1.3945479  0.062598808   -2.4547199     1.060172   957980 
 3314000    1.0079131   -2.4561776   -2.4561776   -1.3944868  0.056755278   -2.4561776    1.0616908   957980 
 3315000    1.0061513   -2.4541491   -2.4541491   -1.3943142  0.069344242   -2.4541491     1.059835   957980 
 3316000    1.0061327   -2.4544271   -2.4544271   -1.3946117  0.064061836   -2.4544271    1.0598154   957980 
 3317000    1.0066695   -2.4548131   -2.4548131   -1.3944323  0.060055051   -2.4548131    1.0603808   957980 
 3318000    1.0065905   -2.4547365   -2.4547365   -1.3944388  0.059960339   -2.4547365    1.0602976   957980 
 3319000     1.007046   -2.4537681   -2.4537681   -1.3929907  0.067792465   -2.4537681    1.0607775   957980 
 3320000    1.0058062    -2.452538    -2.452538   -1.3930665  0.072596094    -2.452538    1.0594715   957980 
 3321000    1.0076669   -2.4546883   -2.4546883   -1.3932568  0.071807743   -2.4546883    1.0614315   957980 
 3322000    1.0078904   -2.4551698   -2.4551698   -1.3935029  0.065316884   -2.4551698    1.0616669   957980 
 3323000    1.0091373   -2.4559737   -2.4559737   -1.3929934  0.063143438   -2.4559737    1.0629803   957980 
 3324000    1.0087771   -2.4553506   -2.4553506   -1.3927498  0.070080479   -2.4553506    1.0626009   957980 
 3325000    1.0075597   -2.4538275   -2.4538275   -1.3925089  0.069756028   -2.4538275    1.0613186   957980 
 3326000     1.008912   -2.4553842   -2.4553842   -1.3926412      0.07172   -2.4553842     1.062743   957980 
 3327000    1.0097162   -2.4559213   -2.4559213   -1.3923312  0.060081623   -2.4559213    1.0635901   957980 
 3328000    1.0091918   -2.4553766   -2.4553766   -1.3923388  0.069662001   -2.4553766    1.0630377   957980 
 3329000    1.0098049   -2.4564005   -2.4564005   -1.3927169  0.061578283   -2.4564005    1.0636836   957980 
 3330000    1.0086754   -2.4556322   -2.4556322   -1.3931384  0.072166526   -2.4556322    1.0624938   957980 
 3331000    1.0095653   -2.4560443   -2.4560443   -1.3926132   0.06035965   -2.4560443    1.0634311   957980 
 3332000    1.0080302   -2.4547841   -2.4547841     -1.39297  0.066950304   -2.4547841    1.0618141   957980 
 3333000    1.0088408   -2.4550474   -2.4550474   -1.3923795  0.076608126   -2.4550474     1.062668   957980 
 3334000    1.0090689   -2.4555756   -2.4555756   -1.3926673  0.075912018   -2.4555756    1.0629083   957980 
 3335000    1.0090383   -2.4550258   -2.4550258   -1.3921498  0.060102779   -2.4550258     1.062876   957980 
 3336000    1.0082108    -2.454947    -2.454947   -1.3929426  0.062569039    -2.454947    1.0620044   957980 
 3337000     1.009375   -2.4560823   -2.4560823   -1.3928516  0.060620998   -2.4560823    1.0632307   957980 
 3338000    1.0084222   -2.4556898   -2.4556898   -1.3934628  0.067555321   -2.4556898     1.062227   957980 
 3339000    1.0078797   -2.4553004   -2.4553004   -1.3936448  0.065084575   -2.4553004    1.0616556   957980 
 3340000    1.0087891   -2.4551676   -2.4551676   -1.3925541  0.068133317   -2.4551676    1.0626135   957980 
 3341000    1.0069629   -2.4540462   -2.4540462   -1.3933563  0.076540699   -2.4540462    1.0606899   957980 
 3342000    1.0092675   -2.4560124   -2.4560124   -1.3928949  0.069709101   -2.4560124    1.0631175   957980 
 3343000    1.0084829   -2.4556081   -2.4556081   -1.3933171  0.063099429   -2.4556081     1.062291   957980 
 3344000    1.0091385   -2.4561082   -2.4561082   -1.3931266  0.072413255   -2.4561082    1.0629816   957980 
 3345000    1.0080613    -2.455493    -2.455493   -1.3936461   0.06838317    -2.455493    1.0618469   957980 
 3346000    1.0080059    -2.455081    -2.455081   -1.3932924  0.074232095    -2.455081    1.0617886   957980 
 3347000    1.0075258   -2.4552216   -2.4552216   -1.3939387  0.070636606   -2.4552216    1.0612828   957980 
 3348000    1.0083943   -2.4556152   -2.4556152   -1.3934175  0.072665963   -2.4556152    1.0621977   957980 
 3349000    1.0077497    -2.455082    -2.455082   -1.3935633  0.072211394    -2.455082    1.0615187   957980 
 3350000    1.0076862   -2.4552168   -2.4552168    -1.393765  0.069739711   -2.4552168    1.0614518   957980 
 3351000    1.0076391   -2.4550679   -2.4550679   -1.3936657  0.074835633   -2.4550679    1.0614021   957980 
 3352000     1.008416   -2.4561179   -2.4561179   -1.3938974  0.061067741   -2.4561179    1.0622206   957980 
 3353000    1.0088051   -2.4559536   -2.4559536   -1.3933232  0.075005732   -2.4559536    1.0626304   957980 
 3354000    1.0079096    -2.455301    -2.455301   -1.3936139  0.064825406    -2.455301    1.0616871   957980 
 3355000    1.0079762   -2.4556777   -2.4556777   -1.3939204  0.070086313   -2.4556777    1.0617573   957980 
 3356000    1.0076073   -2.4551209   -2.4551209   -1.3937522  0.066249271   -2.4551209    1.0613687   957980 
 3357000    1.0083686   -2.4563487   -2.4563487   -1.3941781  0.074547984   -2.4563487    1.0621706   957980 
 3358000    1.0075932   -2.4560028   -2.4560028    -1.394649  0.073243242   -2.4560028    1.0613538   957980 
 3359000    1.0091792   -2.4572628   -2.4572628   -1.3942383  0.063094531   -2.4572628    1.0630245   957980 
 3360000    1.0082025   -2.4561704   -2.4561704   -1.3941748  0.074636824   -2.4561704    1.0619956   957980 
 3361000    1.0079733   -2.4558496   -2.4558496   -1.3940954  0.064228828   -2.4558496    1.0617543   957980 
 3362000    1.0073968   -2.4549485   -2.4549485   -1.3938016  0.069605371   -2.4549485    1.0611469   957980 
 3363000    1.0091717    -2.456187    -2.456187   -1.3931705  0.072093412    -2.456187    1.0630165   957980 
 3364000    1.0083166    -2.456702    -2.456702   -1.3945862  0.062803813    -2.456702    1.0621158   957980 
 3365000    1.0098317   -2.4577921   -2.4577921   -1.3940804  0.064659852   -2.4577921    1.0637118   957980 
 3366000    1.0087643   -2.4565416   -2.4565416   -1.3939542   0.06694553   -2.4565416    1.0625874   957980 
 3367000    1.0097597   -2.4570941   -2.4570941   -1.3934582  0.070241316   -2.4570941    1.0636359   957980 
 3368000    1.0081118   -2.4553646   -2.4553646   -1.3934645  0.071756192   -2.4553646    1.0619001   957980 
 3369000    1.0098711   -2.4572953   -2.4572953   -1.3935421   0.06861263   -2.4572953    1.0637533   957980 
 3370000    1.0080638   -2.4560675   -2.4560675   -1.3942179   0.06864857   -2.4560675    1.0618496   957980 
 3371000    1.0063896   -2.4550474   -2.4550474   -1.3949614  0.065539767   -2.4550474     1.060086   957980 
 3372000    1.0084057   -2.4571809   -2.4571809   -1.3949712  0.065402536   -2.4571809    1.0622097   957980 
 3373000    1.0083664   -2.4570096   -2.4570096   -1.3948413  0.071010017   -2.4570096    1.0621683   957980 
 3374000    1.0079842   -2.4570882   -2.4570882   -1.3953225  0.068821006   -2.4570882    1.0617657   957980 
 3375000    1.0089208   -2.4574809   -2.4574809   -1.3947286  0.065906453   -2.4574809    1.0627523   957980 
 3376000    1.0085198   -2.4573369   -2.4573369    -1.395007  0.071756643   -2.4573369    1.0623299   957980 
 3377000    1.0077947   -2.4569439   -2.4569439   -1.3953778   0.06654311   -2.4569439    1.0615661   957980 
 3378000    1.0067859   -2.4562528   -2.4562528   -1.3957493  0.072441171   -2.4562528    1.0605035   957980 
 3379000    1.0081949   -2.4567521   -2.4567521   -1.3947645  0.065041591   -2.4567521    1.0619877   957980 
 3380000     1.007809   -2.4563852   -2.4563852    -1.394804  0.067394778   -2.4563852    1.0615811   957980 
 3381000    1.0083256   -2.4577706   -2.4577706   -1.3956452   0.07375572   -2.4577706    1.0621253   957980 
 3382000    1.0085919   -2.4583946   -2.4583946   -1.3959888   0.06910579   -2.4583946    1.0624058   957980 
 3383000     1.008499   -2.4581779   -2.4581779   -1.3958699  0.067207626   -2.4581779     1.062308   957980 
 3384000    1.0075319   -2.4569421   -2.4569421   -1.3956528  0.073303872   -2.4569421    1.0612892   957980 
 3385000    1.0077348   -2.4572888   -2.4572888   -1.3957857  0.076697528   -2.4572888     1.061503   957980 
 3386000     1.009185   -2.4579572   -2.4579572   -1.3949266  0.065953592   -2.4579572    1.0630306   957980 
 3387000    1.0071998   -2.4567022   -2.4567022   -1.3957627  0.069983667   -2.4567022    1.0609395   957980 
 3388000    1.0087401   -2.4575208   -2.4575208   -1.3949588  0.072911252   -2.4575208     1.062562   957980 
 3389000    1.0074478   -2.4561556   -2.4561556    -1.394955  0.068657496   -2.4561556    1.0612007   957980 
 3390000    1.0076188   -2.4563756   -2.4563756   -1.3949948  0.065864718   -2.4563756    1.0613808   957980 
 3391000     1.008101   -2.4570146   -2.4570146   -1.3951259  0.070185294   -2.4570146    1.0618887   957980 
 3392000    1.0086731   -2.4576396   -2.4576396   -1.3951483  0.064949411   -2.4576396    1.0624914   957980 
 3393000    1.0088198   -2.4577342   -2.4577342   -1.3950883  0.069159088   -2.4577342    1.0626459   957980 
 3394000    1.0082634   -2.4568835   -2.4568835   -1.3948237  0.069039885   -2.4568835    1.0620598   957980 
 3395000    1.0080461   -2.4564375   -2.4564375   -1.3946066  0.074032921   -2.4564375    1.0618309   957980 
 3396000    1.0086291   -2.4570995   -2.4570995   -1.3946545  0.075657494   -2.4570995     1.062445   957980 
 3397000    1.0081966   -2.4567521   -2.4567521   -1.3947627  0.075734912   -2.4567521    1.0619894   957980 
 3398000    1.0090978   -2.4573327   -2.4573327    -1.394394   0.06529316   -2.4573327    1.0629387   957980 
 3399000    1.0087934   -2.4576073   -2.4576073   -1.3949892  0.062802695   -2.4576073    1.0626181   957980 
 3400000    1.0078201    -2.456593    -2.456593   -1.3950002  0.062167898    -2.456593    1.0615928   957980 
 3401000    1.0078557   -2.4567917   -2.4567917   -1.3951613  0.070464047   -2.4567917    1.0616304   957980 
 3402000    1.0094633   -2.4585736   -2.4585736   -1.3952498  0.065381847   -2.4585736    1.0633237   957980 
 3403000     1.008137   -2.4574378   -2.4574378   -1.3955112  0.065624721   -2.4574378    1.0619266   957980 
 3404000    1.0094531   -2.4583237   -2.4583237   -1.3950107  0.069930256   -2.4583237    1.0633129   957980 
 3405000    1.0077472   -2.4565737   -2.4565737   -1.3950576  0.066865862   -2.4565737    1.0615161   957980 
 3406000    1.0094296   -2.4582415   -2.4582415   -1.3949533  0.066010321   -2.4582415    1.0632882   957980 
 3407000    1.0077661   -2.4558449   -2.4558449   -1.3943089  0.067081117   -2.4558449     1.061536   957980 
 3408000    1.0074489   -2.4561397   -2.4561397   -1.3949379  0.066389172   -2.4561397    1.0612018   957980 
 3409000    1.0084086   -2.4570669   -2.4570669   -1.3948541  0.066953081   -2.4570669    1.0622128   957980 
 3410000    1.0078588   -2.4568061   -2.4568061   -1.3951725  0.069751664   -2.4568061    1.0616336   957980 
 3411000    1.0079219   -2.4571519   -2.4571519   -1.3954518  0.068576587   -2.4571519    1.0617001   957980 
 3412000    1.0078375   -2.4570199   -2.4570199   -1.3954087  0.070457166   -2.4570199    1.0616112   957980 
 3413000    1.0076575   -2.4567297   -2.4567297   -1.3953081  0.072231908   -2.4567297    1.0614216   957980 
 3414000    1.0063606   -2.4552974   -2.4552974   -1.3952419   0.06352928   -2.4552974    1.0600555   957980 
 3415000    1.0069081   -2.4557781   -2.4557781   -1.3951459  0.059813283   -2.4557781    1.0606322   957980 
 3416000     1.007643    -2.456441    -2.456441   -1.3950347  0.064422699    -2.456441    1.0614063   957980 
 3417000    1.0063984   -2.4551378   -2.4551378   -1.3950425  0.063550678   -2.4551378    1.0600953   957980 
 3418000    1.0072212   -2.4553646   -2.4553646   -1.3944026  0.060640607   -2.4553646    1.0609619   957980 
 3419000    1.0078255   -2.4557759   -2.4557759   -1.3941774   0.06379289   -2.4557759    1.0615985   957980 
 3420000    1.0091024    -2.456727    -2.456727   -1.3937834  0.064093275    -2.456727    1.0629436   957980 
 3421000    1.0082494   -2.4558709   -2.4558709   -1.3938259  0.066864906   -2.4558709     1.062045   957980 
 3422000    1.0091522   -2.4570083   -2.4570083   -1.3940123  0.070240548   -2.4570083     1.062996   957980 
 3423000    1.0079465   -2.4557795   -2.4557795   -1.3940536  0.064378949   -2.4557795     1.061726   957980 
 3424000     1.007517   -2.4554593   -2.4554593   -1.3941857  0.068690226   -2.4554593    1.0612735   957980 
 3425000    1.0092381   -2.4568542   -2.4568542   -1.3937677  0.076277012   -2.4568542    1.0630865   957980 
 3426000    1.0096311   -2.4569344   -2.4569344   -1.3934339  0.068156642   -2.4569344    1.0635005   957980 
 3427000    1.0085625   -2.4562761   -2.4562761   -1.3939013  0.074653058   -2.4562761    1.0623748   957980 
 3428000    1.0091955   -2.4572054   -2.4572054   -1.3941638  0.067350198   -2.4572054    1.0630416   957980 
 3429000    1.0084137   -2.4562071   -2.4562071    -1.393989  0.069313179   -2.4562071    1.0622182   957980 
 3430000    1.0079849   -2.4560157   -2.4560157   -1.3942492  0.068420281   -2.4560157    1.0617664   957980 
 3431000    1.0076265   -2.4554521   -2.4554521   -1.3940632  0.066699995   -2.4554521    1.0613889   957980 
 3432000     1.007821    -2.456073    -2.456073   -1.3944792  0.072059314    -2.456073    1.0615938   957980 
 3433000    1.0082747   -2.4565722   -2.4565722   -1.3945005  0.068439861   -2.4565722    1.0620717   957980 
 3434000    1.0091059    -2.456813    -2.456813   -1.3938657  0.073270771    -2.456813    1.0629473   957980 
 3435000    1.0080846   -2.4559417   -2.4559417   -1.3940702  0.073472886   -2.4559417    1.0618715   957980 
 3436000      1.00854   -2.4565354   -2.4565354   -1.3941842  0.063524154   -2.4565354    1.0623511   957980 
 3437000    1.0087564   -2.4566988   -2.4566988   -1.3941197  0.064911751   -2.4566988    1.0625791   957980 
 3438000    1.0077714   -2.4562006   -2.4562006   -1.3946591  0.068487847   -2.4562006    1.0615416   957980 
 3439000    1.0055147   -2.4549861   -2.4549861   -1.3958217  0.067577355   -2.4549861    1.0591644   957980 
 3440000    1.0070074   -2.4555473   -2.4555473   -1.3948105  0.066472396   -2.4555473    1.0607368   957980 
 3441000    1.0066676   -2.4548461   -2.4548461   -1.3944672  0.071053867   -2.4548461    1.0603789   957980 
 3442000    1.0062983   -2.4549413   -2.4549413   -1.3949514  0.067564196   -2.4549413    1.0599898   957980 
 3443000    1.0082275    -2.456304    -2.456304    -1.394282    0.0644491    -2.456304     1.062022   957980 
 3444000    1.0081276   -2.4568523   -2.4568523   -1.3949356   0.06960933   -2.4568523    1.0619168   957980 
 3445000    1.0088523   -2.4575593   -2.4575593   -1.3948792  0.071607344   -2.4575593    1.0626801   957980 
 3446000    1.0090059   -2.4570001   -2.4570001   -1.3941582  0.067138916   -2.4570001    1.0628419   957980 
 3447000    1.0078257   -2.4562181   -2.4562181   -1.3946193  0.065877899   -2.4562181    1.0615987   957980 
 3448000    1.0083913   -2.4566092   -2.4566092   -1.3944147  0.066401288   -2.4566092    1.0621946   957980 
 3449000    1.0077779   -2.4555724   -2.4555724    -1.394024  0.072472226   -2.4555724    1.0615484   957980 
 3450000    1.0088099   -2.4570259   -2.4570259   -1.3943904   0.06901821   -2.4570259    1.0626355   957980 
 3451000    1.0092726   -2.4569162   -2.4569162   -1.3937934  0.071585747   -2.4569162    1.0631229   957980 
 3452000    1.0092999   -2.4567375   -2.4567375   -1.3935858  0.065386084   -2.4567375    1.0631516   957980 
 3453000    1.0087143   -2.4562235   -2.4562235   -1.3936887  0.074304228   -2.4562235    1.0625348   957980 
 3454000    1.0090363   -2.4562729   -2.4562729    -1.393399  0.075750625   -2.4562729    1.0628739   957980 
 3455000    1.0096864   -2.4583606   -2.4583606   -1.3948018  0.067144769   -2.4583606    1.0635588   957980 
 3456000    1.0096414   -2.4577594   -2.4577594   -1.3942481  0.066318307   -2.4577594    1.0635113   957980 
 3457000    1.0092514   -2.4572444   -2.4572444   -1.3941438  0.074671153   -2.4572444    1.0631005   957980 
 3458000    1.0075692    -2.455134    -2.455134   -1.3938055  0.070640656    -2.455134    1.0613286   957980 
 3459000    1.0076045    -2.455511    -2.455511   -1.3941453  0.066969024    -2.455511    1.0613657   957980 
 3460000    1.0074888   -2.4550987   -2.4550987   -1.3938548  0.070508905   -2.4550987    1.0612439   957980 
 3461000    1.0068598   -2.4543531   -2.4543531   -1.3937718   0.06332427   -2.4543531    1.0605813   957980 
 3462000    1.0070433    -2.454996    -2.454996   -1.3942214  0.059247575    -2.454996    1.0607746   957980 
 3463000    1.0083136   -2.4560716   -2.4560716   -1.3939589  0.064812284   -2.4560716    1.0621127   957980 
 3464000    1.0077264   -2.4550948   -2.4550948   -1.3936006  0.065839114   -2.4550948    1.0614941   957980 
 3465000    1.0062736   -2.4540266   -2.4540266   -1.3940627  0.070230748   -2.4540266    1.0599639   957980 
 3466000     1.007444   -2.4552226   -2.4552226   -1.3940259  0.066473125   -2.4552226    1.0611967   957980 
 3467000    1.0071121   -2.4551954   -2.4551954   -1.3943483  0.066419922   -2.4551954    1.0608471   957980 
 3468000    1.0072221   -2.4554067   -2.4554067   -1.3944438  0.067708257   -2.4554067    1.0609629   957980 
 3469000    1.0065816   -2.4543942   -2.4543942   -1.3941059  0.069112175   -2.4543942    1.0602883   957980 
 3470000    1.0078876   -2.4555755   -2.4555755   -1.3939116  0.068835209   -2.4555755    1.0616639   957980 
 3471000    1.0069424    -2.454353    -2.454353   -1.3936847  0.071830972    -2.454353    1.0606683   957980 
 3472000    1.0069454   -2.4541315   -2.4541315     -1.39346  0.069022657   -2.4541315    1.0606715   957980 
 3473000    1.0071811   -2.4551169   -2.4551169   -1.3941971  0.062162284   -2.4551169    1.0609197   957980 
 3474000    1.0078022   -2.4559043   -2.4559043   -1.3943303  0.060105305   -2.4559043     1.061574   957980 
 3475000    1.0070176   -2.4551084   -2.4551084   -1.3943608  0.063599239   -2.4551084    1.0607476   957980 
 3476000    1.0079705   -2.4562725   -2.4562725   -1.3945212  0.065058961   -2.4562725    1.0617513   957980 
 3477000    1.0071999   -2.4556558   -2.4556558   -1.3947162  0.068150563   -2.4556558    1.0609395   957980 
 3478000    1.0074758   -2.4553513   -2.4553513   -1.3941211  0.075180352   -2.4553513    1.0612302   957980 
 3479000    1.0079195   -2.4552578   -2.4552578   -1.3935603  0.068810124   -2.4552578    1.0616975   957980 
 3480000    1.0077757    -2.456294    -2.456294   -1.3947479  0.075575694    -2.456294    1.0615461   957980 
 3481000    1.0080497   -2.4564985   -2.4564985   -1.3946638  0.070218226   -2.4564985    1.0618347   957980 
 3482000    1.0083814   -2.4566794   -2.4566794   -1.3944952  0.069032743   -2.4566794    1.0621841   957980 
 3483000    1.0070527   -2.4555922   -2.4555922   -1.3948077  0.079091009   -2.4555922    1.0607845   957980 
 3484000    1.0077849   -2.4564282   -2.4564282   -1.3948725  0.058635503   -2.4564282    1.0615557   957980 
 3485000    1.0074506   -2.4558409   -2.4558409   -1.3946373  0.070893223   -2.4558409    1.0612036   957980 
 3486000     1.007646   -2.4566957   -2.4566957   -1.3952863  0.067341953   -2.4566957    1.0614094   957980 
 3487000    1.0081897   -2.4575227   -2.4575227   -1.3955406  0.068529356   -2.4575227    1.0619821   957980 
 3488000    1.0080887   -2.4575566   -2.4575566   -1.3956809  0.063602756   -2.4575566    1.0618757   957980 
 3489000    1.0085255   -2.4581256   -2.4581256   -1.3957898  0.065544349   -2.4581256    1.0623358   957980 
 3490000    1.0082965   -2.4572596   -2.4572596    -1.395165  0.073361033   -2.4572596    1.0620947   957980 
 3491000    1.0092581   -2.4580322   -2.4580322   -1.3949247  0.072694878   -2.4580322    1.0631075   957980 
 3492000    1.0090174   -2.4574459   -2.4574459   -1.3945918  0.069545447   -2.4574459     1.062854   957980 
 3493000    1.0079186   -2.4569121   -2.4569121   -1.3952154  0.066886036   -2.4569121    1.0616966   957980 
 3494000    1.0077295   -2.4571136   -2.4571136   -1.3956162  0.073887111   -2.4571136    1.0614974   957980 
 3495000    1.0084772   -2.4578913   -2.4578913   -1.3956063    0.0673227   -2.4578913     1.062285   957980 
 3496000    1.0083849   -2.4580044   -2.4580044   -1.3958166  0.073558384   -2.4580044    1.0621877   957980 
 3497000    1.0083059   -2.4583511   -2.4583511   -1.3962465  0.068875419   -2.4583511    1.0621045   957980 
 3498000    1.0087166   -2.4581808   -2.4581808   -1.3956436  0.064471453   -2.4581808    1.0625371   957980 
 3499000    1.0086591   -2.4579716   -2.4579716   -1.3954951  0.068991895   -2.4579716    1.0624766   957980 
 3500000    1.0075237   -2.4571266   -2.4571266   -1.3958461  0.066808062   -2.4571266    1.0612806   957980 
 3501000    1.0066436   -2.4564085   -2.4564085   -1.3960549  0.068263617   -2.4564085    1.0603535   957980 
 3502000    1.0063641   -2.4566047   -2.4566047   -1.3965455  0.065365702   -2.4566047    1.0600592   957980 
 3503000    1.0081898   -2.4575318   -2.4575318   -1.3955495  0.068744109   -2.4575318    1.0619823   957980 
 3504000     1.006755   -2.4554723   -2.4554723   -1.3950013  0.072387748   -2.4554723     1.060471   957980 
 3505000    1.0087923   -2.4576479   -2.4576479    -1.395031  0.071846618   -2.4576479    1.0626169   957980 
 3506000    1.0083027   -2.4569612   -2.4569612   -1.3948601  0.060349699   -2.4569612    1.0621011   957980 
 3507000     1.009377   -2.4578062   -2.4578062   -1.3945734  0.068252048   -2.4578062    1.0632328   957980 
 3508000    1.0079627   -2.4558324   -2.4558324   -1.3940893  0.068172659   -2.4558324    1.0617431   957980 
 3509000    1.0080762   -2.4560795   -2.4560795   -1.3942168  0.064126822   -2.4560795    1.0618626   957980 
 3510000    1.0070903   -2.4552211   -2.4552211   -1.3943969  0.065906602   -2.4552211    1.0608242   957980 
 3511000    1.0070583   -2.4546816   -2.4546816   -1.3938912  0.064573882   -2.4546816    1.0607904   957980 
 3512000    1.0080177   -2.4559447   -2.4559447   -1.3941438  0.070025641   -2.4559447     1.061801   957980 
 3513000    1.0083222   -2.4565812   -2.4565812   -1.3944595  0.063514723   -2.4565812    1.0621217   957980 
 3514000    1.0077988   -2.4555415   -2.4555415   -1.3939711  0.066596866   -2.4555415    1.0615704   957980 
 3515000    1.0072373    -2.455472    -2.455472   -1.3944931  0.059497926    -2.455472    1.0609789   957980 
 3516000    1.0066964    -2.454797    -2.454797   -1.3943878  0.065987757    -2.454797    1.0604092   957980 
 3517000    1.0056652   -2.4532218   -2.4532218   -1.3938988  0.071867868   -2.4532218     1.059323   957980 
 3518000    1.0065965   -2.4547857   -2.4547857   -1.3944818  0.066054604   -2.4547857    1.0603039   957980 
 3519000    1.0072127   -2.4543904   -2.4543904   -1.3934373  0.057346901   -2.4543904    1.0609531   957980 
 3520000    1.0071351   -2.4543075   -2.4543075   -1.3934363  0.067963184   -2.4543075    1.0608713   957980 
 3521000    1.0063848   -2.4536943   -2.4536943   -1.3936133  0.062278998   -2.4536943    1.0600809   957980 
 3522000    1.0072765   -2.4553774   -2.4553774   -1.3943571  0.065429797   -2.4553774    1.0610203   957980 
 3523000    1.0075809   -2.4551585   -2.4551585   -1.3938176  0.068545414   -2.4551585    1.0613409   957980 
 3524000    1.0080829   -2.4553905   -2.4553905   -1.3935209  0.066974778   -2.4553905    1.0618696   957980 
 3525000    1.0083093   -2.4555197   -2.4555197   -1.3934115  0.066132407   -2.4555197    1.0621082   957980 
 3526000    1.0069344   -2.4539205   -2.4539205   -1.3932606  0.071662044   -2.4539205    1.0606599   957980 
 3527000    1.0079884   -2.4549808   -2.4549808   -1.3932107  0.070004586   -2.4549808    1.0617701   957980 
 3528000    1.0080441   -2.4544181   -2.4544181   -1.3925893  0.069231577   -2.4544181    1.0618288   957980 
 3529000    1.0085608    -2.455202    -2.455202   -1.3928289  0.067338696    -2.455202     1.062373   957980 
 3530000    1.0079705   -2.4547466   -2.4547466   -1.3929954  0.066853441   -2.4547466    1.0617512   957980 
 3531000    1.0075483   -2.4542472   -2.4542472   -1.3929407  0.074547769   -2.4542472    1.0613066   957980 
 3532000    1.0087873   -2.4563373   -2.4563373   -1.3937256  0.070822207   -2.4563373    1.0626117   957980 
 3533000    1.0091214    -2.456288    -2.456288   -1.3933245  0.072188681    -2.456288    1.0629636   957980 
 3534000     1.008553   -2.4558342   -2.4558342   -1.3934693  0.069972271   -2.4558342    1.0623649   957980 
 3535000    1.0086845    -2.456456    -2.456456   -1.3939526  0.067382493    -2.456456    1.0625034   957980 
 3536000    1.0085318    -2.456461    -2.456461   -1.3941185  0.073329582    -2.456461    1.0623425   957980 
 3537000    1.0091873   -2.4571544   -2.4571544   -1.3941214  0.066687025   -2.4571544     1.063033   957980 
 3538000    1.0078619   -2.4564447   -2.4564447   -1.3948079  0.067979937   -2.4564447    1.0616368   957980 
 3539000    1.0061751    -2.454112    -2.454112    -1.394252   0.06132844    -2.454112      1.05986   957980 
 3540000    1.0068133   -2.4550778   -2.4550778   -1.3945455  0.065609169   -2.4550778    1.0605323   957980 
 3541000    1.0055325   -2.4541687   -2.4541687   -1.3949855  0.066121309   -2.4541687    1.0591832   957980 
 3542000    1.0064505   -2.4552826   -2.4552826   -1.3951324  0.068527735   -2.4552826    1.0601502   957980 
 3543000    1.0081667    -2.456913    -2.456913   -1.3949551  0.063738881    -2.456913    1.0619579   957980 
 3544000    1.0088257   -2.4576796   -2.4576796   -1.3950275  0.066512315   -2.4576796    1.0626521   957980 
 3545000    1.0071415   -2.4553884   -2.4553884   -1.3945104  0.071648822   -2.4553884    1.0608781   957980 
 3546000    1.0091133   -2.4571626   -2.4571626   -1.3942076  0.066515609   -2.4571626     1.062955   957980 
 3547000      1.00817   -2.4563424   -2.4563424    -1.394381   0.06978724   -2.4563424    1.0619614   957980 
 3548000    1.0086919   -2.4567582   -2.4567582    -1.394247  0.069509053   -2.4567582    1.0625112   957980 
 3549000    1.0077115   -2.4553628   -2.4553628   -1.3938844  0.069582595   -2.4553628    1.0614784   957980 
 3550000    1.0075693    -2.455039    -2.455039   -1.3937103  0.065824492    -2.455039    1.0613287   957980 
 3551000    1.0084279   -2.4564679   -2.4564679   -1.3942348  0.075264763   -2.4564679    1.0622331   957980 
 3552000    1.0075549   -2.4557507   -2.4557507   -1.3944372  0.068206212   -2.4557507    1.0613135   957980 
 3553000    1.0076083   -2.4559032   -2.4559032   -1.3945335  0.066242673   -2.4559032    1.0613697   957980 
 3554000    1.0077734   -2.4556163   -2.4556163   -1.3940726  0.074571971   -2.4556163    1.0615437   957980 
 3555000     1.007082   -2.4557621   -2.4557621   -1.3949467  0.068988444   -2.4557621    1.0608154   957980 
 3556000    1.0072572   -2.4560902   -2.4560902   -1.3950903  0.070739499   -2.4560902    1.0609999   957980 
 3557000    1.0072837   -2.4565837   -2.4565837   -1.3955559  0.062565529   -2.4565837    1.0610278   957980 
 3558000    1.0078885   -2.4566239   -2.4566239   -1.3949589  0.072142581   -2.4566239    1.0616649   957980 
 3559000    1.0069585   -2.4559702   -2.4559702   -1.3952849  0.070115386   -2.4559702    1.0606853   957980 
 3560000    1.0078132   -2.4558708   -2.4558708   -1.3942853   0.06295741   -2.4558708    1.0615856   957980 
 3561000    1.0090847   -2.4570571   -2.4570571   -1.3941321  0.074186425   -2.4570571    1.0629249   957980 
 3562000    1.0077274   -2.4562641   -2.4562641   -1.3947689  0.066626242   -2.4562641    1.0614952   957980 
 3563000    1.0077514   -2.4558144   -2.4558144   -1.3942939  0.067717779   -2.4558144    1.0615205   957980 
 3564000    1.0087225   -2.4564463   -2.4564463   -1.3939028  0.072939569   -2.4564463    1.0625434   957980 
 3565000    1.0082654     -2.45663     -2.45663   -1.3945681   0.07077378     -2.45663    1.0620619   957980 
 3566000    1.0088049   -2.4572755   -2.4572755   -1.3946453  0.071357565   -2.4572755    1.0626302   957980 
 3567000    1.0076829   -2.4559179   -2.4559179   -1.3944696  0.070224279   -2.4559179    1.0614483   957980 
 3568000    1.0071122   -2.4555779   -2.4555779   -1.3947308  0.073844129   -2.4555779    1.0608472   957980 
 3569000    1.0070858   -2.4557347   -2.4557347   -1.3949154  0.075419064   -2.4557347    1.0608194   957980 
 3570000    1.0073845   -2.4558076   -2.4558076   -1.3946736  0.067288288   -2.4558076     1.061134   957980 
 3571000      1.00737   -2.4559107   -2.4559107   -1.3947919  0.068833041   -2.4559107    1.0611188   957980 
 3572000    1.0056842   -2.4545751   -2.4545751   -1.3952321  0.066681097   -2.4545751    1.0593429   957980 
 3573000    1.0062296   -2.4554587   -2.4554587   -1.3955412  0.066394041   -2.4554587    1.0599174   957980 
 3574000    1.0075023   -2.4569064   -2.4569064   -1.3956483  0.064239905   -2.4569064     1.061258   957980 
 3575000    1.0080027   -2.4573169   -2.4573169   -1.3955317  0.065774815   -2.4573169    1.0617852   957980 
 3576000    1.0071269   -2.4564106   -2.4564106    -1.395548  0.071207555   -2.4564106    1.0608626   957980 
 3577000     1.007358    -2.457126    -2.457126   -1.3960199  0.064850346    -2.457126    1.0611061   957980 
 3578000    1.0064984   -2.4556851   -2.4556851   -1.3954845   0.06642365   -2.4556851    1.0602006   957980 
 3579000    1.0071872   -2.4566343   -2.4566343   -1.3957081  0.063958124   -2.4566343    1.0609262   957980 
 3580000    1.0078825   -2.4569058   -2.4569058   -1.3952472   0.06325959   -2.4569058    1.0616586   957980 
 3581000    1.0075175   -2.4560236   -2.4560236   -1.3947495  0.079434779   -2.4560236    1.0612741   957980 
 3582000    1.0085994   -2.4567445   -2.4567445   -1.3943308  0.071365022   -2.4567445    1.0624137   957980 
 3583000    1.0065225   -2.4548739   -2.4548739   -1.3946479  0.071156739   -2.4548739     1.060226   957980 
 3584000    1.0077351   -2.4558684   -2.4558684    -1.394365  0.067847843   -2.4558684    1.0615034   957980 
 3585000    1.0079435   -2.4562579   -2.4562579   -1.3945351  0.062917583   -2.4562579    1.0617228   957980 
 3586000     1.008129   -2.4564589   -2.4564589   -1.3945407  0.067412132   -2.4564589    1.0619182   957980 
 3587000    1.0081607   -2.4566615   -2.4566615   -1.3947098   0.06836066   -2.4566615    1.0619516   957980 
 3588000    1.0081855   -2.4559219   -2.4559219   -1.3939442  0.064067814   -2.4559219    1.0619777   957980 
 3589000     1.008923   -2.4574938   -2.4574938   -1.3947393  0.063174866   -2.4574938    1.0627546   957980 
 3590000    1.0087216   -2.4569804   -2.4569804    -1.394438  0.070162868   -2.4569804    1.0625424   957980 
 3591000    1.0077128   -2.4557102   -2.4557102   -1.3942304  0.069455094   -2.4557102    1.0614798   957980 
 3592000    1.0078747   -2.4559377   -2.4559377   -1.3942873  0.059834023   -2.4559377    1.0616504   957980 
 3593000    1.0062208   -2.4552134   -2.4552134   -1.3953051  0.071034853   -2.4552134    1.0599083   957980 
 3594000    1.0075072    -2.456367    -2.456367   -1.3951037  0.068539459    -2.456367    1.0612633   957980 
 3595000    1.0066135   -2.4547576   -2.4547576   -1.3944357  0.071026292   -2.4547576    1.0603219   957980 
 3596000    1.0078594   -2.4558571   -2.4558571   -1.3942228  0.070426529   -2.4558571    1.0616342   957980 
 3597000    1.0082235   -2.4562788   -2.4562788   -1.3942611  0.069301695   -2.4562788    1.0620177   957980 
 3598000    1.0083457   -2.4561036   -2.4561036    -1.393957  0.070235633   -2.4561036    1.0621465   957980 
 3599000    1.0076097   -2.4562487   -2.4562487   -1.3948775  0.065176757   -2.4562487    1.0613712   957980 
 3600000    1.0093677   -2.4577404   -2.4577404   -1.3945174    0.0604322   -2.4577404     1.063223   957980 
 3601000    1.0086804    -2.457286    -2.457286    -1.394787  0.072593188    -2.457286     1.062499   957980 
 3602000    1.0066896   -2.4546492   -2.4546492   -1.3942472   0.06947177   -2.4546492     1.060402   957980 
 3603000    1.0085299   -2.4568167   -2.4568167   -1.3944762  0.059988798   -2.4568167    1.0623405   957980 
 3604000    1.0081008   -2.4561292   -2.4561292   -1.3942407  0.067921668   -2.4561292    1.0618885   957980 
 3605000    1.0074255   -2.4559553   -2.4559553   -1.3947781  0.059174411   -2.4559553    1.0611771   957980 
 3606000    1.0079512   -2.4557062   -2.4557062   -1.3939753  0.063831799   -2.4557062    1.0617309   957980 
 3607000    1.0081263   -2.4550502   -2.4550502   -1.3931348  0.068259972   -2.4550502    1.0619154   957980 
 3608000    1.0080526   -2.4553654   -2.4553654   -1.3935277   0.06960512   -2.4553654    1.0618378   957980 
 3609000    1.0083213   -2.4553726   -2.4553726   -1.3932518  0.070834544   -2.4553726    1.0621207   957980 
 3610000    1.0084199   -2.4557379   -2.4557379   -1.3935132  0.064676498   -2.4557379    1.0622247   957980 
 3611000    1.0081399   -2.4555232   -2.4555232   -1.3935935  0.064920201   -2.4555232    1.0619297   957980 
 3612000    1.0076276   -2.4551604   -2.4551604   -1.3937703  0.061742498   -2.4551604    1.0613901   957980 
 3613000    1.0078191   -2.4547433   -2.4547433   -1.3931515  0.073672945   -2.4547433    1.0615918   957980 
 3614000    1.0089306   -2.4558148   -2.4558148   -1.3930522  0.066012419   -2.4558148    1.0627626   957980 
 3615000    1.0092659   -2.4566936   -2.4566936   -1.3935777  0.069121321   -2.4566936    1.0631158   957980 
 3616000    1.0066567   -2.4541092   -2.4541092   -1.3937418  0.073006034   -2.4541092    1.0603674   957980 
 3617000    1.0065727    -2.454846    -2.454846   -1.3945672  0.071875905    -2.454846    1.0602789   957980 
 3618000    1.0070843   -2.4554765   -2.4554765   -1.3946587  0.070595679   -2.4554765    1.0608178   957980 
 3619000    1.0052967   -2.4538563   -2.4538563   -1.3949215  0.063237833   -2.4538563    1.0589348   957980 
 3620000    1.0068742   -2.4556752   -2.4556752   -1.3950787  0.068937581   -2.4556752    1.0605965   957980 
 3621000    1.0071889   -2.4561466   -2.4561466   -1.3952186  0.060831172   -2.4561466     1.060928   957980 
 3622000    1.0055375    -2.454837    -2.454837   -1.3956485  0.066567356    -2.454837    1.0591885   957980 
 3623000    1.0055767   -2.4546293   -2.4546293   -1.3953996  0.070291298   -2.4546293    1.0592298   957980 
 3624000    1.0072975   -2.4554859   -2.4554859   -1.3944435  0.065864207   -2.4554859    1.0610424   957980 
 3625000    1.0079421   -2.4558505   -2.4558505   -1.3941291  0.062938362   -2.4558505    1.0617214   957980 
 3626000    1.0061083   -2.4548898   -2.4548898   -1.3951001  0.069600217   -2.4548898    1.0597897   957980 
 3627000     1.008055   -2.4566919   -2.4566919   -1.3948517  0.069975734   -2.4566919    1.0618402   957980 
 3628000    1.0077691    -2.456224    -2.456224   -1.3946848   0.06988471    -2.456224    1.0615391   957980 
 3629000    1.0079505    -2.456348    -2.456348   -1.3946178  0.071319746    -2.456348    1.0617302   957980 
 3630000    1.0082955   -2.4565939   -2.4565939   -1.3945003  0.070388375   -2.4565939    1.0620936   957980 
 3631000    1.0078121   -2.4560773   -2.4560773   -1.3944929  0.069322426   -2.4560773    1.0615844   957980 
 3632000    1.0087988   -2.4567977   -2.4567977    -1.394174  0.064927635   -2.4567977    1.0626237   957980 
 3633000    1.0090479   -2.4574948   -2.4574948   -1.3946086  0.068977129   -2.4574948    1.0628861   957980 
 3634000    1.0085736   -2.4569102   -2.4569102   -1.3945236  0.073064588   -2.4569102    1.0623866   957980 
 3635000     1.007578   -2.4559929   -2.4559929   -1.3946551  0.071173083   -2.4559929    1.0613378   957980 
 3636000    1.0087616   -2.4573043   -2.4573043   -1.3947197  0.071730873   -2.4573043    1.0625846   957980 
 3637000    1.0079026   -2.4562778   -2.4562778   -1.3945981  0.072443982   -2.4562778    1.0616797   957980 
 3638000    1.0082255   -2.4566668   -2.4566668   -1.3946469  0.076149773   -2.4566668    1.0620199   957980 
 3639000    1.0078124   -2.4561278   -2.4561278   -1.3945431  0.067009403   -2.4561278    1.0615847   957980 
 3640000    1.0084888   -2.4566897   -2.4566897   -1.3943925   0.07419324   -2.4566897    1.0622973   957980 
 3641000    1.0082218   -2.4569773   -2.4569773   -1.3949614  0.070866202   -2.4569773    1.0620159   957980 
 3642000    1.0089209   -2.4576692   -2.4576692   -1.3949169  0.074868945   -2.4576692    1.0627523   957980 
 3643000     1.009141    -2.458131    -2.458131   -1.3951467   0.06811593    -2.458131    1.0629842   957980 
 3644000    1.0090744   -2.4578916   -2.4578916   -1.3949776  0.072133711   -2.4578916     1.062914   957980 
 3645000     1.007798   -2.4565681   -2.4565681   -1.3949985  0.069971265   -2.4565681    1.0615696   957980 
 3646000    1.0084368   -2.4568957   -2.4568957   -1.3946532  0.065212044   -2.4568957    1.0622424   957980 
 3647000     1.008192    -2.456552    -2.456552   -1.3945674  0.058581097    -2.456552    1.0619846   957980 
 3648000    1.0084467   -2.4567023   -2.4567023   -1.3944494  0.067524457   -2.4567023    1.0622529   957980 
 3649000    1.0065609   -2.4550616   -2.4550616   -1.3947951  0.064764614   -2.4550616    1.0602665   957980 
 3650000    1.0081815   -2.4566061   -2.4566061   -1.3946326   0.06411692   -2.4566061    1.0619735   957980 
 3651000    1.0076871   -2.4561356   -2.4561356   -1.3946828  0.069724069   -2.4561356    1.0614528   957980 
 3652000    1.0087048   -2.4565304   -2.4565304   -1.3940056   0.06345612   -2.4565304    1.0625248   957980 
 3653000    1.0094326   -2.4577897   -2.4577897   -1.3944983  0.068016997   -2.4577897    1.0632914   957980 
 3654000     1.007824   -2.4561713   -2.4561713   -1.3945744  0.068955847   -2.4561713    1.0615969   957980 
 3655000    1.0084064   -2.4568053   -2.4568053   -1.3945948  0.062687896   -2.4568053    1.0622105   957980 
 3656000    1.0085871   -2.4576068   -2.4576068   -1.3952061  0.068452857   -2.4576068    1.0624007   957980 
 3657000    1.0071369   -2.4562616   -2.4562616   -1.3953884  0.067513845   -2.4562616    1.0608732   957980 
 3658000    1.0074876   -2.4561393   -2.4561393   -1.3948967  0.063882969   -2.4561393    1.0612426   957980 
 3659000    1.0070089   -2.4558976   -2.4558976   -1.3951593   0.06910279   -2.4558976    1.0607383   957980 
 3660000    1.0091116   -2.4580227   -2.4580227   -1.3950694  0.063885667   -2.4580227    1.0629533   957980 
 3661000    1.0077104   -2.4567621   -2.4567621   -1.3952848  0.069007069   -2.4567621    1.0614773   957980 
 3662000    1.0089067   -2.4577185   -2.4577185   -1.3949811  0.065567678   -2.4577185    1.0627374   957980 
 3663000    1.0072843   -2.4560773   -2.4560773   -1.3950488  0.069432844   -2.4560773    1.0610285   957980 
 3664000    1.0070603   -2.4555505   -2.4555505    -1.394758  0.075354683   -2.4555505    1.0607925   957980 
 3665000    1.0067397   -2.4558754   -2.4558754   -1.3954206  0.068424262   -2.4558754    1.0604548   957980 
 3666000     1.007681   -2.4567336   -2.4567336   -1.3952873    0.0645636   -2.4567336    1.0614463   957980 
 3667000    1.0069222   -2.4563535   -2.4563535   -1.3957064  0.064161564   -2.4563535     1.060647   957980 
 3668000    1.0071201   -2.4564448   -2.4564448   -1.3955893  0.069352541   -2.4564448    1.0608555   957980 
 3669000     1.007306   -2.4566707   -2.4566707   -1.3956194   0.06858893   -2.4566707    1.0610513   957980 
 3670000    1.0079098   -2.4567813   -2.4567813   -1.3950939  0.066367631   -2.4567813    1.0616874   957980 
 3671000    1.0073288   -2.4563161   -2.4563161   -1.3952408  0.064344378   -2.4563161    1.0610753   957980 
 3672000    1.0084958   -2.4575308   -2.4575308   -1.3952262  0.069850715   -2.4575308    1.0623046   957980 
 3673000    1.0078618   -2.4574467   -2.4574467     -1.39581  0.062502898   -2.4574467    1.0616368   957980 
 3674000    1.0084886   -2.4573244   -2.4573244   -1.3950274  0.066124294   -2.4573244     1.062297   957980 
 3675000    1.0078183   -2.4573121   -2.4573121   -1.3957211  0.067843092   -2.4573121    1.0615909   957980 
 3676000    1.0079988   -2.4568147   -2.4568147   -1.3950337  0.068371819   -2.4568147     1.061781   957980 
 3677000     1.007271   -2.4557027   -2.4557027   -1.3946882  0.061469319   -2.4557027    1.0610145   957980 
 3678000     1.007779   -2.4564363   -2.4564363   -1.3948867  0.068957747   -2.4564363    1.0615495   957980 
 3679000    1.0088441   -2.4575033   -2.4575033   -1.3948318  0.068409436   -2.4575033    1.0626715   957980 
 3680000    1.0066184   -2.4555602   -2.4555602   -1.3952332  0.072402777   -2.4555602     1.060327   957980 
 3681000    1.0061308   -2.4553756   -2.4553756   -1.3955622  0.069306259   -2.4553756    1.0598134   957980 
 3682000    1.0079619   -2.4571902   -2.4571902    -1.395448  0.067885697   -2.4571902    1.0617422   957980 
 3683000    1.0081177   -2.4581915   -2.4581915   -1.3962852  0.074380947   -2.4581915    1.0619063   957980 
 3684000    1.0056675   -2.4550462   -2.4550462   -1.3957208  0.073597295   -2.4550462    1.0593254   957980 
 3685000    1.0069504   -2.4563545   -2.4563545   -1.3956777  0.073257117   -2.4563545    1.0606768   957980 
 3686000    1.0077286   -2.4571973   -2.4571973   -1.3957009  0.067706134   -2.4571973    1.0614964   957980 
 3687000    1.0063935   -2.4558017   -2.4558017   -1.3957116  0.069753069   -2.4558017    1.0600901   957980 
 3688000    1.0074616   -2.4575937   -2.4575937   -1.3963785  0.069988701   -2.4575937    1.0612152   957980 
 3689000    1.0068541   -2.4566897   -2.4566897   -1.3961144  0.072514369   -2.4566897    1.0605753   957980 
 3690000    1.0066924   -2.4569987   -2.4569987   -1.3965937   0.06460839   -2.4569987    1.0604049   957980 
 3691000    1.0073466   -2.4577242   -2.4577242   -1.3966301  0.068831684   -2.4577242    1.0610941   957980 
 3692000    1.0058601   -2.4565958   -2.4565958   -1.3970676  0.063520151   -2.4565958    1.0595282   957980 
 3693000    1.0054382   -2.4562184   -2.4562184   -1.3971346  0.069874527   -2.4562184    1.0590838   957980 
 3694000     1.006479   -2.4570986   -2.4570986   -1.3969184  0.066017557   -2.4570986    1.0601802   957980 
 3695000    1.0071284   -2.4577131   -2.4577131   -1.3968489  0.060545465   -2.4577131    1.0608643   957980 
 3696000    1.0077878   -2.4581655   -2.4581655   -1.3966066  0.064732784   -2.4581655    1.0615589   957980 
 3697000    1.0063638   -2.4563808   -2.4563808    -1.396322  0.068708287   -2.4563808    1.0600588   957980 
 3698000    1.0081877   -2.4581316   -2.4581316   -1.3961516  0.068146473   -2.4581316    1.0619801   957980 
 3699000    1.0079615   -2.4576061   -2.4576061   -1.3958643  0.071578904   -2.4576061    1.0617418   957980 
 3700000    1.0082856   -2.4576627   -2.4576627   -1.3955795  0.067375646   -2.4576627    1.0620832   957980 
 3701000      1.00767   -2.4576357   -2.4576357    -1.396201  0.068003647   -2.4576357    1.0614348   957980 
 3702000    1.0075397   -2.4582376   -2.4582376   -1.3969401   0.06625486   -2.4582376    1.0612975   957980 
 3703000    1.0080896   -2.4587732   -2.4587732   -1.3968965  0.067926011   -2.4587732    1.0618767   957980 
 3704000     1.007382   -2.4577167   -2.4577167   -1.3965854  0.071231809   -2.4577167    1.0611314   957980 
 3705000    1.0076498   -2.4583939   -2.4583939   -1.3969804  0.070748242   -2.4583939    1.0614135   957980 
 3706000    1.0072451   -2.4578912   -2.4578912   -1.3969041   0.06459205   -2.4578912    1.0609871   957980 
 3707000    1.0071685   -2.4577789   -2.4577789   -1.3968724  0.065829951   -2.4577789    1.0609064   957980 
 3708000    1.0066943   -2.4573401   -2.4573401   -1.3969331  0.066641257   -2.4573401    1.0604069   957980 
 3709000    1.0070596   -2.4575365   -2.4575365   -1.3967447  0.066175066   -2.4575365    1.0607918   957980 
 3710000    1.0066084   -2.4565994   -2.4565994   -1.3962829  0.064879204   -2.4565994    1.0603165   957980 
 3711000    1.0069554    -2.456588    -2.456588    -1.395906  0.072272482    -2.456588     1.060682   957980 
 3712000    1.0074295   -2.4570412   -2.4570412   -1.3958598   0.07115979   -2.4570412    1.0611814   957980 
 3713000    1.0087468   -2.4581922   -2.4581922   -1.3956231  0.069820859   -2.4581922     1.062569   957980 
 3714000    1.0083661     -2.45869     -2.45869    -1.396522  0.068258662     -2.45869     1.062168   957980 
 3715000    1.0069003   -2.4568129   -2.4568129   -1.3961889  0.073303651   -2.4568129     1.060624   957980 
 3716000    1.0080253   -2.4570362   -2.4570362   -1.3952273  0.071497991   -2.4570362     1.061809   957980 
 3717000    1.0076661   -2.4572819   -2.4572819   -1.3958513  0.067573973   -2.4572819    1.0614307   957980 
 3718000    1.0071168    -2.456733    -2.456733   -1.3958809  0.072961099    -2.456733    1.0608521   957980 
 3719000    1.0085799   -2.4584627   -2.4584627   -1.3960695  0.069252501   -2.4584627    1.0623932   957980 
 3720000    1.0079285   -2.4580751   -2.4580751   -1.3963681  0.064078982   -2.4580751     1.061707   957980 
 3721000    1.0067039   -2.4570238   -2.4570238   -1.3966067   0.07168138   -2.4570238    1.0604171   957980 
 3722000    1.0079501   -2.4573463   -2.4573463   -1.3956165  0.063382302   -2.4573463    1.0617298   957980 
 3723000    1.0074056   -2.4577522   -2.4577522    -1.396596  0.068736154   -2.4577522    1.0611562   957980 
 3724000    1.0068935   -2.4577415   -2.4577415   -1.3971247  0.064455178   -2.4577415    1.0606168   957980 
 3725000    1.0066391   -2.4568001   -2.4568001   -1.3964513  0.075334233   -2.4568001    1.0603489   957980 
 3726000    1.0064469   -2.4563145   -2.4563145   -1.3961681  0.066738223   -2.4563145    1.0601464   957980 
 3727000    1.0064584   -2.4567698   -2.4567698   -1.3966113     0.068842   -2.4567698    1.0601585   957980 
 3728000    1.0068238   -2.4568962   -2.4568962   -1.3963529  0.067746828   -2.4568962    1.0605433   957980 
 3729000    1.0070621   -2.4573379   -2.4573379   -1.3965435  0.075098697   -2.4573379    1.0607944   957980 
 3730000     1.006577   -2.4559888   -2.4559888   -1.3957054  0.072437202   -2.4559888    1.0602834   957980 
 3731000    1.0079163   -2.4576794   -2.4576794   -1.3959852   0.06303982   -2.4576794    1.0616942   957980 
 3732000     1.007355   -2.4568135   -2.4568135   -1.3957106  0.075687203   -2.4568135    1.0611029   957980 
 3733000    1.0079818   -2.4572845   -2.4572845   -1.3955213  0.075875765   -2.4572845    1.0617631   957980 
 3734000    1.0083004   -2.4578838   -2.4578838   -1.3957849   0.06644665   -2.4578838    1.0620988   957980 
 3735000    1.0086703   -2.4576666   -2.4576666   -1.3951782  0.069388517   -2.4576666    1.0624884   957980 
 3736000    1.0080778   -2.4579366   -2.4579366   -1.3960722  0.064746423   -2.4579366    1.0618643   957980 
 3737000     1.009317   -2.4593644   -2.4593644   -1.3961947  0.067782595   -2.4593644    1.0631696   957980 
 3738000    1.0092191   -2.4592969   -2.4592969   -1.3962305  0.066345561   -2.4592969    1.0630665   957980 
 3739000     1.007861   -2.4586036   -2.4586036   -1.3969676  0.073103735   -2.4586036    1.0616359   957980 
 3740000    1.0072775   -2.4577618   -2.4577618   -1.3967406  0.069368704   -2.4577618    1.0610213   957980 
 3741000    1.0073768   -2.4577247   -2.4577247   -1.3965988  0.066919086   -2.4577247    1.0611258   957980 
 3742000    1.0082541   -2.4589541   -2.4589541   -1.3969041  0.065093925   -2.4589541    1.0620499   957980 
 3743000    1.0080887   -2.4595597   -2.4595597   -1.3976839  0.074487548   -2.4595597    1.0618758   957980 
 3744000    1.0069798   -2.4585246   -2.4585246   -1.3978168  0.069550931   -2.4585246    1.0607077   957980 
 3745000    1.0065772   -2.4577557   -2.4577557   -1.3974721   0.06796706   -2.4577557    1.0602836   957980 
 3746000    1.0076541   -2.4587799   -2.4587799   -1.3973619  0.075170369   -2.4587799     1.061418   957980 
 3747000     1.008281    -2.458962    -2.458962   -1.3968837  0.068396916    -2.458962    1.0620783   957980 
 3748000    1.0087391   -2.4584148   -2.4584148   -1.3958539   0.06676177   -2.4584148    1.0625609   957980 
 3749000    1.0075988   -2.4577606   -2.4577606   -1.3964009  0.067202715   -2.4577606    1.0613598   957980 
 3750000     1.008024    -2.458746    -2.458746   -1.3969384  0.078735403    -2.458746    1.0618076   957980 
 3751000    1.0086287   -2.4594243   -2.4594243   -1.3969797  0.069120245   -2.4594243    1.0624445   957980 
 3752000    1.0086706   -2.4594207   -2.4594207    -1.396932  0.069711468   -2.4594207    1.0624887   957980 
 3753000    1.0081497   -2.4586764   -2.4586764   -1.3967363  0.072287626   -2.4586764    1.0619401   957980 
 3754000    1.0070809   -2.4587861   -2.4587861   -1.3979719  0.070813071   -2.4587861    1.0608142   957980 
 3755000    1.0075642   -2.4588456   -2.4588456   -1.3975223  0.076557823   -2.4588456    1.0613233   957980 
 3756000     1.007103   -2.4590525   -2.4590525   -1.3982151  0.066340556   -2.4590525    1.0608375   957980 
 3757000    1.0071166   -2.4589001   -2.4589001   -1.3980483   0.07042501   -2.4589001    1.0608518   957980 
 3758000    1.0076067   -2.4586979   -2.4586979   -1.3973299  0.067787528   -2.4586979     1.061368   957980 
 3759000    1.0079433   -2.4587486   -2.4587486    -1.397026  0.070964179   -2.4587486    1.0617226   957980 
 3760000    1.0074531   -2.4579578   -2.4579578   -1.3967516  0.069927507   -2.4579578    1.0612062   957980 
 3761000    1.0072163   -2.4579082   -2.4579082   -1.3969513  0.068318953   -2.4579082    1.0609569   957980 
 3762000    1.0076626   -2.4582663   -2.4582663   -1.3968394  0.064526205   -2.4582663    1.0614269   957980 
 3763000    1.0083261   -2.4591587   -2.4591587   -1.3970328   0.07061949   -2.4591587    1.0621259   957980 
 3764000    1.0080181   -2.4586279   -2.4586279   -1.3968265  0.070181779   -2.4586279    1.0618014   957980 
 3765000    1.0083808   -2.4589162   -2.4589162   -1.3967327  0.066132239   -2.4589162    1.0621835   957980 
 3766000    1.0073954   -2.4581968   -2.4581968   -1.3970513  0.069800067   -2.4581968    1.0611455   957980 
 3767000    1.0084978   -2.4589463   -2.4589463   -1.3966397  0.075553629   -2.4589463    1.0623067   957980 
 3768000    1.0078699    -2.458124    -2.458124   -1.3964787  0.069390679    -2.458124    1.0616453   957980 
 3769000    1.0077568   -2.4581342   -2.4581342   -1.3966081  0.072356736   -2.4581342    1.0615261   957980 
 3770000    1.0080166   -2.4585495   -2.4585495   -1.3967497  0.070166631   -2.4585495    1.0617998   957980 
 3771000    1.0071089   -2.4577742   -2.4577742   -1.3969305  0.067250965   -2.4577742    1.0608437   957980 
 3772000    1.0077108   -2.4580167   -2.4580167    -1.396539  0.064702146   -2.4580167    1.0614777   957980 
 3773000    1.0067567   -2.4571568   -2.4571568   -1.3966842  0.071595359   -2.4571568    1.0604727   957980 
 3774000    1.0068777   -2.4571275   -2.4571275   -1.3965274  0.067113684   -2.4571275    1.0606001   957980 
 3775000    1.0057666   -2.4559812   -2.4559812   -1.3965513  0.069464067   -2.4559812    1.0594298   957980 
 3776000    1.0071463   -2.4579892   -2.4579892   -1.3971061  0.069342151   -2.4579892    1.0608831   957980 
 3777000    1.0057518   -2.4565118   -2.4565118   -1.3970976  0.071589035   -2.4565118    1.0594142   957980 
 3778000    1.0063353   -2.4569432   -2.4569432   -1.3969144  0.068214868   -2.4569432    1.0600288   957980 
 3779000    1.0059913   -2.4566825   -2.4566825   -1.3970161  0.066159374   -2.4566825    1.0596665   957980 
 3780000    1.0076605   -2.4579966   -2.4579966   -1.3965719  0.075791942   -2.4579966    1.0614247   957980 
 3781000    1.0062574   -2.4561937   -2.4561937   -1.3962469  0.072248417   -2.4561937    1.0599468   957980 
 3782000    1.0070941   -2.4575737   -2.4575737   -1.3967455  0.060829311   -2.4575737    1.0608282   957980 
 3783000    1.0066732   -2.4578842   -2.4578842   -1.3974995  0.066228259   -2.4578842    1.0603847   957980 
 3784000     1.004976   -2.4554547   -2.4554547   -1.3968577  0.071543226   -2.4554547     1.058597   957980 
 3785000    1.0068867   -2.4574307   -2.4574307   -1.3968211  0.066210409   -2.4574307    1.0606096   957980 
 3786000    1.0060817   -2.4568545   -2.4568545   -1.3970928  0.070527838   -2.4568545    1.0597617   957980 
 3787000    1.0060797   -2.4561648   -2.4561648   -1.3964052  0.061472444   -2.4561648    1.0597596   957980 
 3788000    1.0067083   -2.4568866   -2.4568866   -1.3964649   0.06897765   -2.4568866    1.0604217   957980 
 3789000    1.0077008     -2.45771     -2.45771   -1.3962429  0.072856023     -2.45771    1.0614672   957980 
 3790000    1.0068925   -2.4566708   -2.4566708    -1.396055  0.076728633   -2.4566708    1.0606158   957980 
 3791000    1.0072641   -2.4570006   -2.4570006   -1.3959935  0.073575403   -2.4570006    1.0610072   957980 
 3792000    1.0083585   -2.4579453   -2.4579453   -1.3957853  0.075393538   -2.4579453    1.0621599   957980 
 3793000    1.0081205   -2.4575978   -2.4575978   -1.3956886  0.066437179   -2.4575978    1.0619093   957980 
 3794000    1.0083755   -2.4580742   -2.4580742   -1.3958963  0.067648331   -2.4580742    1.0621778   957980 
 3795000    1.0092286   -2.4586179   -2.4586179   -1.3955414  0.067535786   -2.4586179    1.0630765   957980 
 3796000    1.0079767   -2.4573237   -2.4573237    -1.395566  0.069857552   -2.4573237    1.0617578   957980 
 3797000    1.0080528     -2.45704     -2.45704    -1.395202   0.07207841     -2.45704     1.061838   957980 
 3798000    1.0072452   -2.4568201   -2.4568201   -1.3958329  0.070701796   -2.4568201    1.0609873   957980 
 3799000    1.0062303   -2.4561618   -2.4561618   -1.3962436  0.070537906   -2.4561618    1.0599182   957980 
 3800000    1.0073036   -2.4578586   -2.4578586   -1.3968098  0.066086005   -2.4578586    1.0610488   957980 
 3801000    1.0074861   -2.4577769   -2.4577769   -1.3965358  0.065253993   -2.4577769     1.061241   957980 
 3802000     1.006351   -2.4565622   -2.4565622   -1.3965168  0.070750857   -2.4565622    1.0600454   957980 
 3803000    1.0075869   -2.4586397   -2.4586397   -1.3972925  0.063679965   -2.4586397    1.0613472   957980 
 3804000    1.0063297   -2.4576904   -2.4576904   -1.3976676  0.064777029   -2.4576904    1.0600229   957980 
 3805000    1.0070476   -2.4583286   -2.4583286   -1.3975494  0.066236021   -2.4583286    1.0607792   957980 
 3806000    1.0060311   -2.4571211   -2.4571211   -1.3974127  0.068365511   -2.4571211    1.0597084   957980 
 3807000    1.0066511   -2.4578565   -2.4578565    -1.397495  0.065383174   -2.4578565    1.0603615   957980 
 3808000    1.0064026   -2.4579978   -2.4579978   -1.3978981  0.071084432   -2.4579978    1.0600997   957980 
 3809000    1.0076736   -2.4588168   -2.4588168   -1.3973783  0.063758478   -2.4588168    1.0614385   957980 
 3810000       1.0069   -2.4576395   -2.4576395   -1.3970158  0.063755439   -2.4576395    1.0606237   957980 
 3811000    1.0077768   -2.4582503   -2.4582503   -1.3967031  0.068636469   -2.4582503    1.0615472   957980 
 3812000    1.0073719   -2.4580494   -2.4580494   -1.3969287  0.078028426   -2.4580494    1.0611207   957980 
 3813000    1.0060331   -2.4568951   -2.4568951   -1.3971845  0.070025358   -2.4568951    1.0597105   957980 
 3814000    1.0056736   -2.4571381   -2.4571381   -1.3978063   0.07050341   -2.4571381    1.0593318   957980 
 3815000     1.007089   -2.4581163   -2.4581163   -1.3972936  0.073453808   -2.4581163    1.0608227   957980 
 3816000    1.0076877   -2.4583465   -2.4583465   -1.3968931  0.067002358   -2.4583465    1.0614534   957980 
 3817000      1.00745   -2.4584377   -2.4584377   -1.3972347  0.070283504   -2.4584377     1.061203   957980 
 3818000    1.0078025   -2.4588305   -2.4588305   -1.3972562  0.067488977   -2.4588305    1.0615743   957980 
 3819000    1.0072639   -2.4590638   -2.4590638   -1.3980568  0.066333345   -2.4590638     1.061007   957980 
 3820000    1.0071411   -2.4584696   -2.4584696    -1.397592  0.064275455   -2.4584696    1.0608776   957980 
 3821000    1.0066018   -2.4578549   -2.4578549   -1.3975453  0.073235123   -2.4578549    1.0603096   957980 
 3822000    1.0077971   -2.4591879   -2.4591879   -1.3976193  0.066947398   -2.4591879    1.0615686   957980 
 3823000    1.0080868   -2.4589141   -2.4589141   -1.3970404  0.074554426   -2.4589141    1.0618737   957980 
 3824000    1.0075587   -2.4586139   -2.4586139   -1.3972965  0.074094649   -2.4586139    1.0613175   957980 
 3825000    1.0085773   -2.4596199   -2.4596199   -1.3972295  0.070390717   -2.4596199    1.0623904   957980 
 3826000    1.0093876   -2.4605461   -2.4605461    -1.397302  0.069142544   -2.4605461     1.063244   957980 
 3827000    1.0100858   -2.4600899   -2.4600899   -1.3961105  0.069445981   -2.4600899    1.0639794   957980 
 3828000    1.0091246   -2.4587534   -2.4587534   -1.3957865  0.075444823   -2.4587534    1.0629669   957980 
 3829000    1.0089887   -2.4588862   -2.4588862   -1.3960624  0.075072473   -2.4588862    1.0628238   957980 
 3830000    1.0097825   -2.4595861   -2.4595861   -1.3959262  0.071402753   -2.4595861    1.0636599   957980 
 3831000    1.0082511   -2.4589574   -2.4589574   -1.3969105  0.071775221   -2.4589574    1.0620469   957980 
 3832000    1.0090962   -2.4594434   -2.4594434   -1.3965063   0.07097563   -2.4594434    1.0629371   957980 
 3833000    1.0079394   -2.4580268   -2.4580268   -1.3963083  0.068682922   -2.4580268    1.0617185   957980 
 3834000    1.0085358   -2.4583647   -2.4583647    -1.396018  0.070275852   -2.4583647    1.0623467   957980 
 3835000    1.0068677   -2.4569911   -2.4569911   -1.3964014  0.072233613   -2.4569911    1.0605897   957980 
 3836000     1.007715   -2.4576589   -2.4576589   -1.3961767   0.06828984   -2.4576589    1.0614822   957980 
 3837000    1.0069104   -2.4571766   -2.4571766    -1.396542   0.07019389   -2.4571766    1.0606346   957980 
 3838000    1.0066276   -2.4568733   -2.4568733   -1.3965366  0.068782077   -2.4568733    1.0603367   957980 
 3839000    1.0066122   -2.4575812   -2.4575812   -1.3972606   0.05933352   -2.4575812    1.0603205   957980 
 3840000    1.0063516   -2.4568014   -2.4568014   -1.3967555  0.068654369   -2.4568014    1.0600459   957980 
 3841000    1.0060065   -2.4564553   -2.4564553   -1.3967729  0.069250498   -2.4564553    1.0596825   957980 
 3842000     1.006046   -2.4562235   -2.4562235   -1.3964995  0.064342437   -2.4562235    1.0597241   957980 
 3843000    1.0069464   -2.4573045   -2.4573045   -1.3966319  0.064158173   -2.4573045    1.0606726   957980 
 3844000    1.0061925   -2.4567957   -2.4567957   -1.3969173  0.075701704   -2.4567957    1.0598784   957980 
 3845000    1.0059915   -2.4566887   -2.4566887    -1.397022   0.06269744   -2.4566887    1.0596667   957980 
 3846000    1.0078775   -2.4573054   -2.4573054   -1.3956521  0.071363393   -2.4573054    1.0616533   957980 
 3847000    1.0079759   -2.4569067   -2.4569067   -1.3951497  0.067464205   -2.4569067     1.061757   957980 
 3848000    1.0078841   -2.4570687   -2.4570687   -1.3954084  0.065511886   -2.4570687    1.0616602   957980 
 3849000    1.0076481   -2.4568062   -2.4568062   -1.3953945  0.066457677   -2.4568062    1.0614117   957980 
 3850000    1.0071957   -2.4560159   -2.4560159   -1.3950807  0.071354158   -2.4560159    1.0609351   957980 
 3851000    1.0075656    -2.456816    -2.456816   -1.3954912  0.065637693    -2.456816    1.0613248   957980 
 3852000    1.0069978   -2.4561414   -2.4561414   -1.3954147   0.07291856   -2.4561414    1.0607267   957980 
 3853000    1.0080656   -2.4569201   -2.4569201   -1.3950687  0.065610183   -2.4569201    1.0618514   957980 
 3854000    1.0069992   -2.4561945   -2.4561945   -1.3954664   0.06619176   -2.4561945    1.0607281   957980 
 3855000    1.0069885   -2.4571895   -2.4571895   -1.3964727  0.067297794   -2.4571895    1.0607169   957980 
 3856000    1.0078571   -2.4571201   -2.4571201   -1.3954883  0.061903281   -2.4571201    1.0616318   957980 
 3857000    1.0078068   -2.4572201   -2.4572201   -1.3956412  0.068293729   -2.4572201    1.0615789   957980 
 3858000    1.0079229   -2.4572045   -2.4572045   -1.3955034   0.06718847   -2.4572045    1.0617011   957980 
 3859000    1.0092215   -2.4585568   -2.4585568   -1.3954879  0.077107158   -2.4585568     1.063069   957980 
 3860000    1.0096292   -2.4587852   -2.4587852   -1.3952867  0.069144022   -2.4587852    1.0634984   957980 
 3861000     1.007279   -2.4569033   -2.4569033   -1.3958804  0.073359614   -2.4569033    1.0610229   957980 
 3862000    1.0071914   -2.4559933   -2.4559933   -1.3950627  0.075213903   -2.4559933    1.0609306   957980 
 3863000    1.0088665   -2.4580947   -2.4580947   -1.3953996  0.068684709   -2.4580947    1.0626951   957980 
 3864000    1.0071933   -2.4567689   -2.4567689   -1.3958364  0.077176932   -2.4567689    1.0609326   957980 
 3865000    1.0096745   -2.4598028   -2.4598028   -1.3962566   0.06005483   -2.4598028    1.0635462   957980 
 3866000    1.0066755   -2.4561166   -2.4561166   -1.3957294  0.074152417   -2.4561166    1.0603872   957980 
 3867000    1.0079601   -2.4572077   -2.4572077   -1.3954674  0.068599631   -2.4572077    1.0617403   957980 
 3868000    1.0071371   -2.4566301   -2.4566301   -1.3957567  0.065961838   -2.4566301    1.0608734   957980 
 3869000    1.0086301   -2.4582508   -2.4582508   -1.3958047  0.067434141   -2.4582508    1.0624461   957980 
 3870000    1.0072605   -2.4574832   -2.4574832   -1.3964799  0.066381593   -2.4574832    1.0610033   957980 
 3871000    1.0078128    -2.457071    -2.457071   -1.3954859  0.072223195    -2.457071    1.0615851   957980 
 3872000     1.007603   -2.4572595   -2.4572595   -1.3958953  0.070399904   -2.4572595    1.0613642   957980 
 3873000    1.0068777   -2.4562867   -2.4562867   -1.3956865  0.073608361   -2.4562867    1.0606002   957980 
 3874000    1.0084452   -2.4583198   -2.4583198   -1.3960684  0.079348512   -2.4583198    1.0622513   957980 
 3875000    1.0078244   -2.4572534   -2.4572534    -1.395656  0.068034597   -2.4572534    1.0615974   957980 
 3876000    1.0076633   -2.4572182   -2.4572182   -1.3957905     0.066572   -2.4572182    1.0614276   957980 
 3877000    1.0068652   -2.4561235   -2.4561235   -1.3955365  0.075207089   -2.4561235     1.060587   957980 
 3878000    1.0075768   -2.4561067   -2.4561067   -1.3947701  0.066308633   -2.4561067    1.0613366   957980 
 3879000    1.0077796   -2.4555824   -2.4555824   -1.3940323   0.06493929   -2.4555824    1.0615502   957980 
 3880000    1.0083512   -2.4564421   -2.4564421   -1.3942899  0.074593368   -2.4564421    1.0621523   957980 
 3881000    1.0083637   -2.4566373   -2.4566373   -1.3944718   0.06349829   -2.4566373    1.0621655   957980 
 3882000    1.0074514   -2.4554247   -2.4554247   -1.3942202  0.067458332   -2.4554247    1.0612044   957980 
 3883000    1.0078869   -2.4562935   -2.4562935   -1.3946303  0.067425006   -2.4562935    1.0616632   957980 
 3884000    1.0064331   -2.4547625   -2.4547625   -1.3946306  0.071209602   -2.4547625    1.0601319   957980 
 3885000    1.0065121   -2.4544089   -2.4544089   -1.3941938  0.065960871   -2.4544089    1.0602151   957980 
 3886000    1.0070556    -2.454741    -2.454741   -1.3939535  0.067265311    -2.454741    1.0607875   957980 
 3887000    1.0063387   -2.4536814   -2.4536814    -1.393649   0.06360044   -2.4536814    1.0600324   957980 
 3888000    1.0077646   -2.4546811   -2.4546811   -1.3931468  0.069015803   -2.4546811    1.0615344   957980 
 3889000    1.0073563   -2.4547348   -2.4547348   -1.3936305   0.05921543   -2.4547348    1.0611043   957980 
 3890000     1.008117   -2.4548116   -2.4548116   -1.3929061   0.06583665   -2.4548116    1.0619055   957980 
 3891000     1.007933   -2.4545675   -2.4545675   -1.3928558  0.074136849   -2.4545675    1.0617118   957980 
 3892000    1.0071915   -2.4544036   -2.4544036    -1.393473   0.06637062   -2.4544036    1.0609307   957980 
 3893000    1.0072383   -2.4545258   -2.4545258   -1.3935458  0.067708319   -2.4545258      1.06098   957980 
 3894000    1.0068143   -2.4545765   -2.4545765   -1.3940431  0.066599169   -2.4545765    1.0605334   957980 
 3895000    1.0076939   -2.4552485   -2.4552485   -1.3937885  0.066401343   -2.4552485      1.06146   957980 
 3896000    1.0071568   -2.4556325   -2.4556325   -1.3947384  0.071428407   -2.4556325    1.0608941   957980 
 3897000    1.0059845   -2.4545565   -2.4545565   -1.3948973  0.069220375   -2.4545565    1.0596593   957980 
 3898000    1.0061088   -2.4546945   -2.4546945   -1.3949043  0.074421391   -2.4546945    1.0597902   957980 
 3899000    1.0066582   -2.4555598   -2.4555598   -1.3951908  0.063178518   -2.4555598    1.0603689   957980 
 3900000    1.0048842   -2.4535576   -2.4535576   -1.3950574  0.065636751   -2.4535576    1.0585003   957980 
 3901000    1.0064516    -2.454943    -2.454943   -1.3947916   0.06618371    -2.454943    1.0601513   957980 
 3902000    1.0063777   -2.4549096   -2.4549096   -1.3948362  0.073531592   -2.4549096    1.0600735   957980 
 3903000    1.0078566   -2.4559222   -2.4559222   -1.3942909  0.069649615   -2.4559222    1.0616313   957980 
 3904000     1.006774   -2.4552123   -2.4552123   -1.3947214  0.066760498   -2.4552123    1.0604909   957980 
 3905000    1.0066307   -2.4552755   -2.4552755   -1.3949355  0.068781363   -2.4552755      1.06034   957980 
 3906000    1.0079837   -2.4564853   -2.4564853   -1.3947201  0.076417896   -2.4564853    1.0617652   957980 
 3907000    1.0084657   -2.4569693   -2.4569693   -1.3946964  0.075853217   -2.4569693    1.0622729   957980 
 3908000    1.0088515   -2.4575207   -2.4575207   -1.3948415  0.072191706   -2.4575207    1.0626792   957980 
 3909000    1.0083981   -2.4574471   -2.4574471   -1.3952454   0.07456212   -2.4574471    1.0622017   957980 
 3910000    1.0064716   -2.4556544   -2.4556544    -1.395482  0.066337417   -2.4556544    1.0601724   957980 
 3911000    1.0080461   -2.4568543   -2.4568543   -1.3950235  0.067373659   -2.4568543    1.0618309   957980 
 3912000    1.0077271   -2.4569894   -2.4569894   -1.3954944  0.061546699   -2.4569894    1.0614949   957980 
 3913000    1.0085823    -2.458499    -2.458499   -1.3961034  0.069856918    -2.458499    1.0623957   957980 
 3914000    1.0088909   -2.4592921   -2.4592921   -1.3965712  0.067140309   -2.4592921    1.0627208   957980 
 3915000      1.00754   -2.4572557   -2.4572557   -1.3959578  0.065923496   -2.4572557    1.0612978   957980 
 3916000    1.0071441    -2.457508    -2.457508   -1.3966272  0.073897042    -2.457508    1.0608808   957980 
 3917000    1.0071966   -2.4574419   -2.4574419   -1.3965058  0.071132786   -2.4574419    1.0609361   957980 
 3918000    1.0072365   -2.4576717   -2.4576717   -1.3966935  0.057869347   -2.4576717    1.0609781   957980 
 3919000    1.0064131   -2.4563522   -2.4563522   -1.3962414  0.071634681   -2.4563522    1.0601107   957980 
 3920000     1.007274   -2.4566967   -2.4566967   -1.3956791  0.070177792   -2.4566967    1.0610176   957980 
 3921000    1.0077658   -2.4573393   -2.4573393   -1.3958036  0.070930934   -2.4573393    1.0615357   957980 
 3922000    1.0094009    -2.458166    -2.458166   -1.3949079  0.067735719    -2.458166     1.063258   957980 
 3923000    1.0080877   -2.4569179   -2.4569179   -1.3950431  0.069676921   -2.4569179    1.0618748   957980 
 3924000    1.0089443   -2.4580619   -2.4580619   -1.3952849  0.070908647   -2.4580619    1.0627771   957980 
 3925000    1.0082195   -2.4570621   -2.4570621   -1.3950485  0.074021215   -2.4570621    1.0620136   957980 
 3926000    1.0087279   -2.4577933   -2.4577933   -1.3952442  0.063911232   -2.4577933     1.062549   957980 
 3927000    1.0084759   -2.4576015   -2.4576015   -1.3953179  0.070592562   -2.4576015    1.0622836   957980 
 3928000    1.0091865   -2.4586231   -2.4586231   -1.3955909  0.069047755   -2.4586231    1.0630322   957980 
 3929000    1.0080606   -2.4572249   -2.4572249   -1.3953787  0.069268775   -2.4572249    1.0618462   957980 
 3930000    1.0056667   -2.4555156   -2.4555156    -1.396191  0.065465675   -2.4555156    1.0593246   957980 
 3931000    1.0077568   -2.4580749   -2.4580749   -1.3965487   0.06804695   -2.4580749    1.0615262   957980 
 3932000    1.0070012   -2.4574193   -2.4574193   -1.3966891  0.069712427   -2.4574193    1.0607302   957980 
 3933000    1.0074137   -2.4581127   -2.4581127   -1.3969479  0.064549275   -2.4581127    1.0611647   957980 
 3934000     1.005053   -2.4552639   -2.4552639   -1.3965858  0.067915535   -2.4552639    1.0586781   957980 
 3935000    1.0069236   -2.4566214   -2.4566214   -1.3959729  0.073804733   -2.4566214    1.0606485   957980 
 3936000    1.0064341   -2.4568616   -2.4568616   -1.3967287  0.061349485   -2.4568616    1.0601329   957980 
 3937000    1.0053945    -2.455606    -2.455606   -1.3965681  0.068872523    -2.455606    1.0590379   957980 
 3938000    1.0057547    -2.456423    -2.456423   -1.3970058  0.066222431    -2.456423    1.0594172   957980 
 3939000    1.0056766   -2.4560508   -2.4560508   -1.3967158   0.06948901   -2.4560508     1.059335   957980 
 3940000    1.0052228   -2.4553511   -2.4553511   -1.3964941  0.069343508   -2.4553511    1.0588569   957980 
 3941000    1.0065763   -2.4564264   -2.4564264   -1.3961437  0.065749755   -2.4564264    1.0602827   957980 
 3942000    1.0065351    -2.455259    -2.455259   -1.3950197  0.071596117    -2.455259    1.0602393   957980 
 3943000    1.0070832   -2.4552712   -2.4552712   -1.3944546  0.068472493   -2.4552712    1.0608166   957980 
 3944000    1.0069062    -2.455368    -2.455368   -1.3947378  0.068230706    -2.455368    1.0606302   957980 
 3945000     1.007339   -2.4554414   -2.4554414   -1.3943553  0.060674872   -2.4554414     1.061086   957980 
 3946000    1.0074607   -2.4557038   -2.4557038   -1.3944895  0.070200286   -2.4557038    1.0612143   957980 
 3947000      1.00754   -2.4555191   -2.4555191   -1.3942212  0.073551537   -2.4555191    1.0612978   957980 
 3948000    1.0087711    -2.456847    -2.456847   -1.3942524  0.068062062    -2.456847    1.0625946   957980 
 3949000    1.0071817    -2.455558    -2.455558   -1.3946376  0.069398046    -2.455558    1.0609204   957980 
 3950000    1.0082016   -2.4566176   -2.4566176   -1.3946228  0.065602707   -2.4566176    1.0619947   957980 
 3951000    1.0070422   -2.4559742   -2.4559742   -1.3952008  0.063179866   -2.4559742    1.0607734   957980 
 3952000    1.0074744   -2.4567703   -2.4567703   -1.3955416   0.07362204   -2.4567703    1.0612287   957980 
 3953000    1.0065828   -2.4563796   -2.4563796   -1.3960901   0.06210963   -2.4563796    1.0602895   957980 
 3954000    1.0058949   -2.4554111   -2.4554111   -1.3958461  0.062913827   -2.4554111     1.059565   957980 
 3955000    1.0059179   -2.4556106   -2.4556106   -1.3960215  0.060144675   -2.4556106    1.0595892   957980 
 3956000    1.0061095   -2.4554983   -2.4554983   -1.3957074  0.067552387   -2.4554983     1.059791   957980 
 3957000    1.0068567   -2.4563217   -2.4563217   -1.3957436    0.0686889   -2.4563217    1.0605781   957980 
 3958000    1.0069274   -2.4566545   -2.4566545    -1.396002  0.075288811   -2.4566545    1.0606525   957980 
 3959000    1.0067209   -2.4561245   -2.4561245   -1.3956895  0.066655832   -2.4561245     1.060435   957980 
 3960000    1.0068037   -2.4561976   -2.4561976   -1.3956755  0.071548528   -2.4561976    1.0605222   957980 
 3961000    1.0075793   -2.4566667   -2.4566667   -1.3953275  0.064920913   -2.4566667    1.0613392   957980 
 3962000    1.0080687   -2.4564968   -2.4564968   -1.3946421  0.073722369   -2.4564968    1.0618547   957980 
 3963000    1.0098872   -2.4585163   -2.4585163   -1.3947461  0.061782691   -2.4585163    1.0637702   957980 
 3964000    1.0074299   -2.4553984   -2.4553984   -1.3942166  0.073526167   -2.4553984    1.0611818   957980 
 3965000    1.0081673    -2.456499    -2.456499   -1.3945404    0.0688325    -2.456499    1.0619586   957980 
 3966000    1.0085915   -2.4572441   -2.4572441   -1.3948387  0.069427452   -2.4572441    1.0624053   957980 
 3967000    1.0080905   -2.4572992   -2.4572992   -1.3954215  0.067859254   -2.4572992    1.0618777   957980 
 3968000    1.0080233   -2.4572399   -2.4572399    -1.395433   0.06712311   -2.4572399    1.0618069   957980 
 3969000    1.0066818   -2.4569467   -2.4569467   -1.3965529  0.062547781   -2.4569467    1.0603938   957980 
 3970000    1.0071318   -2.4570235   -2.4570235   -1.3961557  0.067311062   -2.4570235    1.0608678   957980 
 3971000    1.0061903   -2.4567757   -2.4567757   -1.3968997  0.059780253   -2.4567757     1.059876   957980 
 3972000    1.0048805   -2.4552049   -2.4552049   -1.3967085  0.058096944   -2.4552049    1.0584964   957980 
 3973000    1.0048846   -2.4551631   -2.4551631   -1.3966623  0.067839729   -2.4551631    1.0585008   957980 
 3974000    1.0051431   -2.4556531   -2.4556531   -1.3968801  0.067136173   -2.4556531     1.058773   957980 
 3975000    1.0051209   -2.4550797   -2.4550797   -1.3963301  0.060042223   -2.4550797    1.0587496   957980 
 3976000    1.0058364   -2.4556959   -2.4556959   -1.3961926  0.066120981   -2.4556959    1.0595033   957980 
 3977000    1.0076671   -2.4570496   -2.4570496   -1.3956179  0.066543493   -2.4570496    1.0614317   957980 
 3978000    1.0069621   -2.4556055   -2.4556055   -1.3949164   0.07505884   -2.4556055    1.0606891   957980 
 3979000    1.0084779   -2.4570393   -2.4570393   -1.3947536  0.074337605   -2.4570393    1.0622857   957980 
 3980000    1.0078699   -2.4566101   -2.4566101   -1.3949647  0.070609524   -2.4566101    1.0616453   957980 
 3981000    1.0082517   -2.4568953   -2.4568953   -1.3948478  0.067915373   -2.4568953    1.0620475   957980 
 3982000    1.0086237   -2.4567931   -2.4567931   -1.3943538  0.071868779   -2.4567931    1.0624393   957980 
 3983000    1.0081501   -2.4577354   -2.4577354   -1.3957949  0.073040701   -2.4577354    1.0619405   957980 
 3984000    1.0074356    -2.456187    -2.456187   -1.3949992  0.073345346    -2.456187    1.0611879   957980 
 3985000    1.0076613   -2.4564968   -2.4564968   -1.3950712  0.060898549   -2.4564968    1.0614256   957980 
 3986000    1.0071703   -2.4551955   -2.4551955   -1.3942872  0.069124215   -2.4551955    1.0609084   957980 
 3987000    1.0073528   -2.4560461   -2.4560461   -1.3949455  0.072109775   -2.4560461    1.0611006   957980 
 3988000    1.0080309   -2.4564624   -2.4564624   -1.3946475  0.066958348   -2.4564624    1.0618149   957980 
 3989000    1.0067637   -2.4553595   -2.4553595   -1.3948794  0.066595491   -2.4553595    1.0604801   957980 
 3990000    1.0069615   -2.4562791   -2.4562791   -1.3955907   0.06601354   -2.4562791    1.0606884   957980 
 3991000    1.0081113   -2.4568621   -2.4568621   -1.3949625  0.069269577   -2.4568621    1.0618996   957980 
 3992000    1.0063738   -2.4556891   -2.4556891   -1.3956197  0.061543993   -2.4556891    1.0600694   957980 
 3993000    1.0070448   -2.4572894   -2.4572894   -1.3965133  0.064820926   -2.4572894    1.0607762   957980 
 3994000    1.0079687   -2.4568552   -2.4568552   -1.3951059  0.067613074   -2.4568552    1.0617493   957980 
 3995000    1.0066627   -2.4558318   -2.4558318   -1.3954581  0.070329867   -2.4558318    1.0603737   957980 
 3996000    1.0068823   -2.4556818   -2.4556818   -1.3950768  0.068014793   -2.4556818     1.060605   957980 
 3997000    1.0071064   -2.4554993   -2.4554993   -1.3946583  0.068377162   -2.4554993     1.060841   957980 
 3998000    1.0073711   -2.4560223   -2.4560223   -1.3949025  0.069263837   -2.4560223    1.0611198   957980 
 3999000    1.0070961   -2.4560138   -2.4560138   -1.3951836  0.059251438   -2.4560138    1.0608302   957980 
 4000000     1.007316   -2.4560921   -2.4560921   -1.3950302  0.072202292   -2.4560921    1.0610619   957980 
Loop time of 12727.1 on 240 procs for 4000000 steps with 957980 atoms

Performance: 135773.431 tau/day, 314.290 timesteps/s
98.1% CPU use with 240 MPI tasks x 1 OpenMP threads

MPI task timing breakdown:
Section |  min time  |  avg time  |  max time  |%varavg|  %CPU | %total
-----------------------------------------------------------------------
Pair    | 1374.2     | 3488.2     | 4514.4     |1154.8 |  98.5 | 27.41
Bond    | 2.6928     | 2.9128     | 3.1573     |   5.1 | 100.0 |  0.02
Neigh   | 1348.1     | 3208       | 4155.6     |1025.0 |  99.5 | 25.21
Comm    | 2636.9     | 3953.5     | 7695       |1739.6 |  97.3 | 31.06
Output  | 138.16     | 138.98     | 140.84     |   5.9 |  94.9 |  1.09
Modify  | 1382.3     | 1764.2     | 2154.9     | 450.2 |  97.7 | 13.86
Other   |            | 171.2      |            |       |       |  1.35

Nlocal:        3991.58 ave        4927 max        3394 min
Histogram: 18 26 36 52 44 28 16 12 6 2
Nghost:        7665.24 ave       10838 max        2855 min
Histogram: 15 12 13 14 14 21 42 52 43 14
Neighs:        82059.7 ave      116485 max       21919 min
Histogram: 13 4 2 2 10 42 77 52 19 19

Total # of neighbors = 19694321
Ave neighs/atom = 20.558176
Ave special neighs/atom = 0.0000000
Neighbor list builds = 400000
Dangerous builds = 396000

Total wall time: 3:32:12
